
     Program PWSCF v.7.2 starts on 22Dec2024 at 20:24:19 

     This program is part of the open-source Quantum ESPRESSO suite
     for quantum simulation of materials; please cite
         "P. Giannozzi et al., J. Phys.:Condens. Matter 21 395502 (2009);
         "P. Giannozzi et al., J. Phys.:Condens. Matter 29 465901 (2017);
         "P. Giannozzi et al., J. Chem. Phys. 152 154105 (2020);
          URL http://www.quantum-espresso.org", 
     in publications or presentations arising from this work. More details at
     http://www.quantum-espresso.org/quote

     Parallel version (MPI), running on    16 processors

     MPI processes distributed on     1 nodes
     50563 MiB available memory on the printing compute node when the environment starts

     Reading input from BASE.scf_sc.in

     Current dimensions of program PWSCF are:
     Max number of different atomic species (ntypx) = 10
     Max number of k-points (npk) =  40000
     Max angular momentum in pseudopotentials (lmaxx) =  4
     Message from routine volume:
     axis vectors are left-handed

     gamma-point specific algorithms are used
     Found identity + (  0.3333 -0.0000  0.0000) symmetry
     This is a supercell, fractional translations are disabled
     Message from routine setup:
     using ibrav=0 with symmetry is DISCOURAGED, use correct ibrav instead

     R & G space division:  proc/nbgrp/npool/nimage =      16
     Subspace diagonalization in iterative solution of the eigenvalue problem:
     a serial algorithm will be used


     Parallelization info
     --------------------
     sticks:   dense  smooth     PW     G-vecs:    dense   smooth      PW
     Min         488     242     59                28622    10110    1259
     Max         490     244     62                28636    10122    1266
     Sum        7825    3901    967               458031   161901   20179

     Using Slab Decomposition



     bravais-lattice index     =            0
     lattice parameter (alat)  =      21.7785  a.u.
     unit-cell volume          =    7304.1028 (a.u.)^3
     number of atoms/cell      =           54
     number of atomic types    =            1
     number of electrons       =       216.00
     number of Kohn-Sham states=          108
     kinetic-energy cutoff     =      30.0000  Ry
     charge density cutoff     =     240.0000  Ry
     scf convergence threshold =      1.0E-12
     mixing beta               =       0.4000
     number of iterations used =            8  plain     mixing
     Exchange-correlation= PBESOL
                           (   1   4  10   8   0   0   0)

     celldm(1)=  21.778466  celldm(2)=   0.000000  celldm(3)=   0.000000
     celldm(4)=   0.000000  celldm(5)=   0.000000  celldm(6)=   0.000000

     crystal axes: (cart. coord. in units of alat)
               a(1) = (   0.707107   0.707107   0.000000 )  
               a(2) = (   0.707107   0.000000   0.707107 )  
               a(3) = (   0.000000   0.707107   0.707107 )  

     reciprocal axes: (cart. coord. in units 2 pi/alat)
               b(1) = (  0.707107  0.707107 -0.707107 )  
               b(2) = (  0.707107 -0.707107  0.707107 )  
               b(3) = ( -0.707107  0.707107  0.707107 )  


     PseudoPot. # 1 for Si read from file:
     ../pseudo/Si.pbesol-n-rrkjus_psl.1.0.0.UPF
     MD5 check sum: c4212819de858c94c3a1644338846ac9
     Pseudo is Ultrasoft + core correction, Zval =  4.0
     Generated using "atomic" code by A. Dal Corso  v.6.0 svn rev. 13079
     Using radial grid of 1141 points,  6 beta functions with: 
                l(1) =   0
                l(2) =   0
                l(3) =   1
                l(4) =   1
                l(5) =   2
                l(6) =   2
     Q(r) pseudized with 0 coefficients 


     atomic species   valence    mass     pseudopotential
        Si             4.00    28.08550     Si( 1.00)

     24 Sym. Ops. (no inversion) found


                                    s                        frac. trans.

      isym =  1     identity                                     

 cryst.   s( 1) = (     1          0          0      )
                  (     0          1          0      )
                  (     0          0          1      )

 cart.    s( 1) = (  1.0000000  0.0000000 -0.0000000 )
                  (  0.0000000  1.0000000 -0.0000000 )
                  (  0.0000000 -0.0000000  1.0000000 )


      isym =  2     180 deg rotation - cart. axis [0,0,1]        

 cryst.   s( 2) = (    -1          0          0      )
                  (    -1          0          1      )
                  (    -1          1          0      )

 cart.    s( 2) = ( -1.0000000 -0.0000000 -0.0000000 )
                  ( -0.0000000 -1.0000000 -0.0000000 )
                  ( -0.0000000  0.0000000  1.0000000 )


      isym =  3     180 deg rotation - cart. axis [0,1,0]        

 cryst.   s( 3) = (     0         -1          1      )
                  (     0         -1          0      )
                  (     1         -1          0      )

 cart.    s( 3) = ( -1.0000000  0.0000000  0.0000000 )
                  ( -0.0000000  1.0000000  0.0000000 )
                  ( -0.0000000 -0.0000000 -1.0000000 )


      isym =  4     180 deg rotation - cart. axis [1,0,0]        

 cryst.   s( 4) = (     0          1         -1      )
                  (     1          0         -1      )
                  (     0          0         -1      )

 cart.    s( 4) = (  1.0000000 -0.0000000  0.0000000 )
                  (  0.0000000 -1.0000000  0.0000000 )
                  (  0.0000000  0.0000000 -1.0000000 )


      isym =  5     120 deg rotation - cart. axis [-1,-1,-1]     

 cryst.   s( 5) = (     0          1          0      )
                  (     0          0          1      )
                  (     1          0          0      )

 cart.    s( 5) = ( -0.0000000  1.0000000  0.0000000 )
                  ( -0.0000000  0.0000000  1.0000000 )
                  (  1.0000000  0.0000000 -0.0000000 )


      isym =  6     120 deg rotation - cart. axis [-1,1,1]       

 cryst.   s( 6) = (     0         -1          0      )
                  (     1         -1          0      )
                  (     0         -1          1      )

 cart.    s( 6) = (  0.0000000 -1.0000000  0.0000000 )
                  (  0.0000000 -0.0000000  1.0000000 )
                  ( -1.0000000 -0.0000000 -0.0000000 )


      isym =  7     120 deg rotation - cart. axis [1,1,-1]       

 cryst.   s( 7) = (     1          0         -1      )
                  (     0          0         -1      )
                  (     0          1         -1      )

 cart.    s( 7) = (  0.0000000  1.0000000 -0.0000000 )
                  (  0.0000000  0.0000000 -1.0000000 )
                  ( -1.0000000  0.0000000  0.0000000 )


      isym =  8     120 deg rotation - cart. axis [1,-1,1]       

 cryst.   s( 8) = (    -1          0          1      )
                  (    -1          1          0      )
                  (    -1          0          0      )

 cart.    s( 8) = ( -0.0000000 -1.0000000 -0.0000000 )
                  ( -0.0000000 -0.0000000 -1.0000000 )
                  (  1.0000000 -0.0000000  0.0000000 )


      isym =  9     120 deg rotation - cart. axis [1,1,1]        

 cryst.   s( 9) = (     0          0          1      )
                  (     1          0          0      )
                  (     0          1          0      )

 cart.    s( 9) = (  0.0000000 -0.0000000  1.0000000 )
                  (  1.0000000 -0.0000000  0.0000000 )
                  ( -0.0000000  1.0000000  0.0000000 )


      isym = 10     120 deg rotation - cart. axis [-1,1,-1]      

 cryst.   s(10) = (     0          0         -1      )
                  (     0          1         -1      )
                  (     1          0         -1      )

 cart.    s(10) = ( -0.0000000  0.0000000  1.0000000 )
                  ( -1.0000000  0.0000000  0.0000000 )
                  (  0.0000000 -1.0000000  0.0000000 )


      isym = 11     120 deg rotation - cart. axis [1,-1,-1]      

 cryst.   s(11) = (    -1          1          0      )
                  (    -1          0          0      )
                  (    -1          0          1      )

 cart.    s(11) = ( -0.0000000 -0.0000000 -1.0000000 )
                  ( -1.0000000 -0.0000000 -0.0000000 )
                  (  0.0000000  1.0000000 -0.0000000 )


      isym = 12     120 deg rotation - cart. axis [-1,-1,1]      

 cryst.   s(12) = (     1         -1          0      )
                  (     0         -1          1      )
                  (     0         -1          0      )

 cart.    s(12) = (  0.0000000  0.0000000 -1.0000000 )
                  (  1.0000000  0.0000000 -0.0000000 )
                  ( -0.0000000 -1.0000000 -0.0000000 )


      isym = 13     inv. 180 deg rotation - cart. axis [1,1,0]   

 cryst.   s(13) = (    -1          0          0      )
                  (    -1          1          0      )
                  (    -1          0          1      )

 cart.    s(13) = ( -0.0000000 -1.0000000 -0.0000000 )
                  ( -1.0000000 -0.0000000 -0.0000000 )
                  (  0.0000000 -0.0000000  1.0000000 )


      isym = 14     inv. 180 deg rotation - cart. axis [1,-1,0]  

 cryst.   s(14) = (     1          0          0      )
                  (     0          0          1      )
                  (     0          1          0      )

 cart.    s(14) = (  0.0000000  1.0000000 -0.0000000 )
                  (  1.0000000  0.0000000 -0.0000000 )
                  ( -0.0000000  0.0000000  1.0000000 )


      isym = 15     inv.  90 deg rotation - cart. axis [0,0,-1]  

 cryst.   s(15) = (     0         -1          1      )
                  (     1         -1          0      )
                  (     0         -1          0      )

 cart.    s(15) = (  0.0000000 -1.0000000  0.0000000 )
                  (  1.0000000 -0.0000000  0.0000000 )
                  ( -0.0000000 -0.0000000 -1.0000000 )


      isym = 16     inv.  90 deg rotation - cart. axis [0,0,1]   

 cryst.   s(16) = (     0          1         -1      )
                  (     0          0         -1      )
                  (     1          0         -1      )

 cart.    s(16) = ( -0.0000000  1.0000000  0.0000000 )
                  ( -1.0000000  0.0000000  0.0000000 )
                  (  0.0000000  0.0000000 -1.0000000 )


      isym = 17     inv. 180 deg rotation - cart. axis [1,0,1]   

 cryst.   s(17) = (     1         -1          0      )
                  (     0         -1          0      )
                  (     0         -1          1      )

 cart.    s(17) = (  0.0000000  0.0000000 -1.0000000 )
                  (  0.0000000  1.0000000 -0.0000000 )
                  ( -1.0000000 -0.0000000 -0.0000000 )


      isym = 18     inv. 180 deg rotation - cart. axis [-1,0,1]  

 cryst.   s(18) = (     0          0          1      )
                  (     0          1          0      )
                  (     1          0          0      )

 cart.    s(18) = ( -0.0000000  0.0000000  1.0000000 )
                  ( -0.0000000  1.0000000  0.0000000 )
                  (  1.0000000 -0.0000000  0.0000000 )


      isym = 19     inv.  90 deg rotation - cart. axis [0,1,0]   

 cryst.   s(19) = (    -1          1          0      )
                  (    -1          0          1      )
                  (    -1          0          0      )

 cart.    s(19) = ( -0.0000000 -0.0000000 -1.0000000 )
                  ( -0.0000000 -1.0000000 -0.0000000 )
                  (  1.0000000  0.0000000 -0.0000000 )


      isym = 20     inv.  90 deg rotation - cart. axis [0,-1,0]  

 cryst.   s(20) = (     0          0         -1      )
                  (     1          0         -1      )
                  (     0          1         -1      )

 cart.    s(20) = (  0.0000000 -0.0000000  1.0000000 )
                  (  0.0000000 -1.0000000  0.0000000 )
                  ( -1.0000000  0.0000000  0.0000000 )


      isym = 21     inv. 180 deg rotation - cart. axis [0,1,1]   

 cryst.   s(21) = (     1          0         -1      )
                  (     0          1         -1      )
                  (     0          0         -1      )

 cart.    s(21) = (  1.0000000  0.0000000 -0.0000000 )
                  (  0.0000000  0.0000000 -1.0000000 )
                  (  0.0000000 -1.0000000  0.0000000 )


      isym = 22     inv. 180 deg rotation - cart. axis [0,1,-1]  

 cryst.   s(22) = (     0          1          0      )
                  (     1          0          0      )
                  (     0          0          1      )

 cart.    s(22) = (  1.0000000 -0.0000000  0.0000000 )
                  (  0.0000000 -0.0000000  1.0000000 )
                  (  0.0000000  1.0000000 -0.0000000 )


      isym = 23     inv.  90 deg rotation - cart. axis [-1,0,0]  

 cryst.   s(23) = (    -1          0          1      )
                  (    -1          0          0      )
                  (    -1          1          0      )

 cart.    s(23) = ( -1.0000000 -0.0000000 -0.0000000 )
                  ( -0.0000000 -0.0000000 -1.0000000 )
                  ( -0.0000000  1.0000000  0.0000000 )


      isym = 24     inv.  90 deg rotation - cart. axis [1,0,0]   

 cryst.   s(24) = (     0         -1          0      )
                  (     0         -1          1      )
                  (     1         -1          0      )

 cart.    s(24) = ( -1.0000000  0.0000000  0.0000000 )
                  ( -0.0000000  0.0000000  1.0000000 )
                  ( -0.0000000 -1.0000000 -0.0000000 )


   Cartesian axes

     site n.     atom                  positions (alat units)
         1           Si  tau(   1) = (   0.0000000   0.0000000   0.0000000  )
         2           Si  tau(   2) = (   0.1178511   0.1178511   0.1178511  )
         3           Si  tau(   3) = (   0.2357023   0.2357023   0.0000000  )
         4           Si  tau(   4) = (   0.3535534   0.3535534   0.1178511  )
         5           Si  tau(   5) = (   0.4714045   0.4714045   0.0000000  )
         6           Si  tau(   6) = (   0.5892557   0.5892557   0.1178511  )
         7           Si  tau(   7) = (   0.2357023   0.0000000   0.2357023  )
         8           Si  tau(   8) = (   0.3535534   0.1178511   0.3535534  )
         9           Si  tau(   9) = (   0.4714045   0.2357023   0.2357023  )
        10           Si  tau(  10) = (   0.5892557   0.3535534   0.3535534  )
        11           Si  tau(  11) = (   0.7071068   0.4714045   0.2357023  )
        12           Si  tau(  12) = (   0.8249579   0.5892557   0.3535534  )
        13           Si  tau(  13) = (   0.4714045   0.0000000   0.4714045  )
        14           Si  tau(  14) = (   0.5892557   0.1178511   0.5892557  )
        15           Si  tau(  15) = (   0.7071068   0.2357023   0.4714045  )
        16           Si  tau(  16) = (   0.8249579   0.3535534   0.5892557  )
        17           Si  tau(  17) = (   0.9428090   0.4714045   0.4714045  )
        18           Si  tau(  18) = (   1.0606602   0.5892557   0.5892557  )
        19           Si  tau(  19) = (   0.0000000   0.2357023   0.2357023  )
        20           Si  tau(  20) = (   0.1178511   0.3535534   0.3535534  )
        21           Si  tau(  21) = (   0.2357023   0.4714045   0.2357023  )
        22           Si  tau(  22) = (   0.3535534   0.5892557   0.3535534  )
        23           Si  tau(  23) = (   0.4714045   0.7071068   0.2357023  )
        24           Si  tau(  24) = (   0.5892557   0.8249579   0.3535534  )
        25           Si  tau(  25) = (   0.2357023   0.2357023   0.4714045  )
        26           Si  tau(  26) = (   0.3535534   0.3535534   0.5892557  )
        27           Si  tau(  27) = (   0.4714045   0.4714045   0.4714045  )
        28           Si  tau(  28) = (   0.5892557   0.5892557   0.5892557  )
        29           Si  tau(  29) = (   0.7071068   0.7071068   0.4714045  )
        30           Si  tau(  30) = (   0.8249579   0.8249579   0.5892557  )
        31           Si  tau(  31) = (   0.4714045   0.2357023   0.7071068  )
        32           Si  tau(  32) = (   0.5892557   0.3535534   0.8249579  )
        33           Si  tau(  33) = (   0.7071068   0.4714045   0.7071068  )
        34           Si  tau(  34) = (   0.8249579   0.5892557   0.8249579  )
        35           Si  tau(  35) = (   0.9428090   0.7071068   0.7071068  )
        36           Si  tau(  36) = (   1.0606602   0.8249579   0.8249579  )
        37           Si  tau(  37) = (   0.0000000   0.4714045   0.4714045  )
        38           Si  tau(  38) = (   0.1178511   0.5892557   0.5892557  )
        39           Si  tau(  39) = (   0.2357023   0.7071068   0.4714045  )
        40           Si  tau(  40) = (   0.3535534   0.8249579   0.5892557  )
        41           Si  tau(  41) = (   0.4714045   0.9428090   0.4714045  )
        42           Si  tau(  42) = (   0.5892557   1.0606602   0.5892557  )
        43           Si  tau(  43) = (   0.2357023   0.4714045   0.7071068  )
        44           Si  tau(  44) = (   0.3535534   0.5892557   0.8249579  )
        45           Si  tau(  45) = (   0.4714045   0.7071068   0.7071068  )
        46           Si  tau(  46) = (   0.5892557   0.8249579   0.8249579  )
        47           Si  tau(  47) = (   0.7071068   0.9428090   0.7071068  )
        48           Si  tau(  48) = (   0.8249579   1.0606602   0.8249579  )
        49           Si  tau(  49) = (   0.4714045   0.4714045   0.9428090  )
        50           Si  tau(  50) = (   0.5892557   0.5892557   1.0606602  )
        51           Si  tau(  51) = (   0.7071068   0.7071068   0.9428090  )
        52           Si  tau(  52) = (   0.8249579   0.8249579   1.0606602  )
        53           Si  tau(  53) = (   0.9428090   0.9428090   0.9428090  )
        54           Si  tau(  54) = (   1.0606602   1.0606602   1.0606602  )

   Crystallographic axes

     site n.     atom                  positions (cryst. coord.)
         1           Si  tau(   1) = (  0.0000000  0.0000000  0.0000000  )
         2           Si  tau(   2) = (  0.0833333  0.0833333  0.0833333  )
         3           Si  tau(   3) = (  0.3333333 -0.0000000  0.0000000  )
         4           Si  tau(   4) = (  0.4166667  0.0833333  0.0833333  )
         5           Si  tau(   5) = (  0.6666667 -0.0000000  0.0000000  )
         6           Si  tau(   6) = (  0.7500000  0.0833333  0.0833333  )
         7           Si  tau(   7) = (  0.0000000  0.3333333 -0.0000000  )
         8           Si  tau(   8) = (  0.0833333  0.4166667  0.0833333  )
         9           Si  tau(   9) = (  0.3333333  0.3333333  0.0000000  )
        10           Si  tau(  10) = (  0.4166667  0.4166667  0.0833333  )
        11           Si  tau(  11) = (  0.6666667  0.3333333 -0.0000000  )
        12           Si  tau(  12) = (  0.7500000  0.4166667  0.0833333  )
        13           Si  tau(  13) = (  0.0000000  0.6666667 -0.0000000  )
        14           Si  tau(  14) = (  0.0833333  0.7500000  0.0833333  )
        15           Si  tau(  15) = (  0.3333333  0.6666667 -0.0000000  )
        16           Si  tau(  16) = (  0.4166667  0.7500000  0.0833333  )
        17           Si  tau(  17) = (  0.6666667  0.6666667 -0.0000000  )
        18           Si  tau(  18) = (  0.7500000  0.7500000  0.0833333  )
        19           Si  tau(  19) = (  0.0000000 -0.0000000  0.3333333  )
        20           Si  tau(  20) = (  0.0833333  0.0833333  0.4166667  )
        21           Si  tau(  21) = (  0.3333333 -0.0000000  0.3333333  )
        22           Si  tau(  22) = (  0.4166667  0.0833333  0.4166667  )
        23           Si  tau(  23) = (  0.6666667 -0.0000000  0.3333333  )
        24           Si  tau(  24) = (  0.7500000  0.0833333  0.4166667  )
        25           Si  tau(  25) = (  0.0000000  0.3333333  0.3333333  )
        26           Si  tau(  26) = (  0.0833333  0.4166667  0.4166667  )
        27           Si  tau(  27) = (  0.3333333  0.3333333  0.3333333  )
        28           Si  tau(  28) = (  0.4166667  0.4166667  0.4166667  )
        29           Si  tau(  29) = (  0.6666667  0.3333333  0.3333333  )
        30           Si  tau(  30) = (  0.7500000  0.4166667  0.4166667  )
        31           Si  tau(  31) = ( -0.0000000  0.6666667  0.3333333  )
        32           Si  tau(  32) = (  0.0833333  0.7500000  0.4166667  )
        33           Si  tau(  33) = (  0.3333333  0.6666667  0.3333333  )
        34           Si  tau(  34) = (  0.4166667  0.7500000  0.4166667  )
        35           Si  tau(  35) = (  0.6666667  0.6666667  0.3333333  )
        36           Si  tau(  36) = (  0.7500000  0.7500000  0.4166667  )
        37           Si  tau(  37) = (  0.0000000 -0.0000000  0.6666667  )
        38           Si  tau(  38) = (  0.0833333  0.0833333  0.7500000  )
        39           Si  tau(  39) = (  0.3333333 -0.0000000  0.6666667  )
        40           Si  tau(  40) = (  0.4166667  0.0833333  0.7500000  )
        41           Si  tau(  41) = (  0.6666667 -0.0000000  0.6666667  )
        42           Si  tau(  42) = (  0.7500000  0.0833333  0.7500000  )
        43           Si  tau(  43) = ( -0.0000000  0.3333333  0.6666667  )
        44           Si  tau(  44) = (  0.0833333  0.4166667  0.7500000  )
        45           Si  tau(  45) = (  0.3333333  0.3333333  0.6666667  )
        46           Si  tau(  46) = (  0.4166667  0.4166667  0.7500000  )
        47           Si  tau(  47) = (  0.6666667  0.3333333  0.6666667  )
        48           Si  tau(  48) = (  0.7500000  0.4166667  0.7500000  )
        49           Si  tau(  49) = (  0.0000000  0.6666667  0.6666667  )
        50           Si  tau(  50) = (  0.0833333  0.7500000  0.7500000  )
        51           Si  tau(  51) = (  0.3333333  0.6666667  0.6666667  )
        52           Si  tau(  52) = (  0.4166667  0.7500000  0.7500000  )
        53           Si  tau(  53) = (  0.6666667  0.6666667  0.6666667  )
        54           Si  tau(  54) = (  0.7500000  0.7500000  0.7500000  )

     number of k points=     1
                       cart. coord. in units 2pi/alat
        k(    1) = (   0.0000000   0.0000000   0.0000000), wk =   2.0000000

                       cryst. coord.
        k(    1) = (   0.0000000   0.0000000   0.0000000), wk =   2.0000000

     Dense  grid:   229016 G-vectors     FFT dimensions: ( 108, 108, 108)

     Smooth grid:    80951 G-vectors     FFT dimensions: (  75,  75,  75)

     Dynamical RAM for                 wfc:       1.04 MB

     Dynamical RAM for     wfc (w. buffer):       1.04 MB

     Dynamical RAM for           str. fact:       0.22 MB

     Dynamical RAM for           local pot:       0.00 MB

     Dynamical RAM for          nlocal pot:       9.39 MB

     Dynamical RAM for                qrad:       1.24 MB

     Dynamical RAM for          rho,v,vnew:       2.52 MB

     Dynamical RAM for               rhoin:       0.84 MB

     Dynamical RAM for            rho*nmix:       3.49 MB

     Dynamical RAM for           G-vectors:       0.86 MB

     Dynamical RAM for          h,s,v(r/c):       1.07 MB

     Dynamical RAM for          <psi|beta>:       0.80 MB

     Dynamical RAM for                 psi:       2.09 MB

     Dynamical RAM for                hpsi:       2.09 MB

     Dynamical RAM for                spsi:       2.09 MB

     Dynamical RAM for      wfcinit/wfcrot:       5.24 MB

     Dynamical RAM for           addusdens:      52.41 MB

     Dynamical RAM for          addusforce:      75.88 MB

     Estimated static dynamical RAM per process >      19.67 MB

     Estimated max dynamical RAM per process >      99.04 MB

     Estimated total dynamical RAM >       1.55 GB

     Initial potential from superposition of free atoms

     starting charge     215.9708, renormalised to     216.0000
     Starting wfcs are  216 randomized atomic wfcs

     total cpu time spent up to now is        1.1 secs

     per-process dynamical memory:    37.6 Mb

     Self-consistent Calculation

     iteration #  1     ecut=    30.00 Ry     beta= 0.40
     Davidson diagonalization with overlap

---- Real-time Memory Report at c_bands before calling an iterative solver
           101 MiB given to the printing process from OS
            36 MiB allocation reported by mallinfo(arena+hblkhd)
         70799 MiB available memory on the node where the printing process lives
------------------
     ethr =  1.00E-02,  avg # of iterations =  2.0

     Threshold (ethr) on eigenvalues was too large:
     Diagonalizing with lowered threshold

     Davidson diagonalization with overlap

---- Real-time Memory Report at c_bands before calling an iterative solver
           118 MiB given to the printing process from OS
            45 MiB allocation reported by mallinfo(arena+hblkhd)
         70621 MiB available memory on the node where the printing process lives
------------------
     ethr =  7.84E-04,  avg # of iterations =  2.0

     total cpu time spent up to now is        2.2 secs

     total energy              =    -611.10933911 Ry
     estimated scf accuracy    <       1.84216624 Ry

     iteration #  2     ecut=    30.00 Ry     beta= 0.40
     Davidson diagonalization with overlap

---- Real-time Memory Report at c_bands before calling an iterative solver
           119 MiB given to the printing process from OS
            45 MiB allocation reported by mallinfo(arena+hblkhd)
         70645 MiB available memory on the node where the printing process lives
------------------
     ethr =  8.53E-04,  avg # of iterations =  1.0

     total cpu time spent up to now is        2.7 secs

     total energy              =    -610.96165186 Ry
     estimated scf accuracy    <       0.56716538 Ry

     iteration #  3     ecut=    30.00 Ry     beta= 0.40
     Davidson diagonalization with overlap

---- Real-time Memory Report at c_bands before calling an iterative solver
           119 MiB given to the printing process from OS
            45 MiB allocation reported by mallinfo(arena+hblkhd)
         70651 MiB available memory on the node where the printing process lives
------------------
     ethr =  2.63E-04,  avg # of iterations =  2.0

     total cpu time spent up to now is        3.3 secs

     total energy              =    -611.02107219 Ry
     estimated scf accuracy    <       0.01213552 Ry

     iteration #  4     ecut=    30.00 Ry     beta= 0.40
     Davidson diagonalization with overlap

---- Real-time Memory Report at c_bands before calling an iterative solver
           119 MiB given to the printing process from OS
            45 MiB allocation reported by mallinfo(arena+hblkhd)
         70647 MiB available memory on the node where the printing process lives
------------------
     ethr =  5.62E-06,  avg # of iterations =  3.0

     total cpu time spent up to now is        4.0 secs

     total energy              =    -611.02339926 Ry
     estimated scf accuracy    <       0.01234665 Ry

     iteration #  5     ecut=    30.00 Ry     beta= 0.40
     Davidson diagonalization with overlap

---- Real-time Memory Report at c_bands before calling an iterative solver
           119 MiB given to the printing process from OS
            45 MiB allocation reported by mallinfo(arena+hblkhd)
         70640 MiB available memory on the node where the printing process lives
------------------
     ethr =  5.62E-06,  avg # of iterations =  2.0

     total cpu time spent up to now is        4.6 secs

     total energy              =    -611.02468931 Ry
     estimated scf accuracy    <       0.00002166 Ry

     iteration #  6     ecut=    30.00 Ry     beta= 0.40
     Davidson diagonalization with overlap

---- Real-time Memory Report at c_bands before calling an iterative solver
           119 MiB given to the printing process from OS
            45 MiB allocation reported by mallinfo(arena+hblkhd)
         70639 MiB available memory on the node where the printing process lives
------------------
     ethr =  1.00E-08,  avg # of iterations = 16.0

     total cpu time spent up to now is        6.1 secs

     total energy              =    -611.02492191 Ry
     estimated scf accuracy    <       0.00016215 Ry

     iteration #  7     ecut=    30.00 Ry     beta= 0.40
     Davidson diagonalization with overlap

---- Real-time Memory Report at c_bands before calling an iterative solver
           119 MiB given to the printing process from OS
            45 MiB allocation reported by mallinfo(arena+hblkhd)
         63603 MiB available memory on the node where the printing process lives
------------------
     ethr =  1.00E-08,  avg # of iterations =  2.0

     total cpu time spent up to now is        6.9 secs

     total energy              =    -611.02491169 Ry
     estimated scf accuracy    <       0.00004006 Ry

     iteration #  8     ecut=    30.00 Ry     beta= 0.40
     Davidson diagonalization with overlap

---- Real-time Memory Report at c_bands before calling an iterative solver
           119 MiB given to the printing process from OS
            45 MiB allocation reported by mallinfo(arena+hblkhd)
         49504 MiB available memory on the node where the printing process lives
------------------
     ethr =  1.00E-08,  avg # of iterations =  2.0

     total cpu time spent up to now is        7.6 secs

     total energy              =    -611.02491396 Ry
     estimated scf accuracy    <       0.00000298 Ry

     iteration #  9     ecut=    30.00 Ry     beta= 0.40
     Davidson diagonalization with overlap

---- Real-time Memory Report at c_bands before calling an iterative solver
           119 MiB given to the printing process from OS
            45 MiB allocation reported by mallinfo(arena+hblkhd)
         40763 MiB available memory on the node where the printing process lives
------------------
     ethr =  1.38E-09,  avg # of iterations =  2.0

     total cpu time spent up to now is        8.0 secs

     total energy              =    -611.02491393 Ry
     estimated scf accuracy    <       0.00000113 Ry

     iteration # 10     ecut=    30.00 Ry     beta= 0.40
     Davidson diagonalization with overlap

---- Real-time Memory Report at c_bands before calling an iterative solver
           120 MiB given to the printing process from OS
            46 MiB allocation reported by mallinfo(arena+hblkhd)
         49747 MiB available memory on the node where the printing process lives
------------------
     ethr =  5.25E-10,  avg # of iterations =  2.0

     total cpu time spent up to now is        8.5 secs

     total energy              =    -611.02491392 Ry
     estimated scf accuracy    <       0.00000032 Ry

     iteration # 11     ecut=    30.00 Ry     beta= 0.40
     Davidson diagonalization with overlap

---- Real-time Memory Report at c_bands before calling an iterative solver
           120 MiB given to the printing process from OS
            46 MiB allocation reported by mallinfo(arena+hblkhd)
         59142 MiB available memory on the node where the printing process lives
------------------
     ethr =  1.47E-10,  avg # of iterations =  8.0

     total cpu time spent up to now is        9.1 secs

     total energy              =    -611.02491408 Ry
     estimated scf accuracy    <       0.00000008 Ry

     iteration # 12     ecut=    30.00 Ry     beta= 0.40
     Davidson diagonalization with overlap

---- Real-time Memory Report at c_bands before calling an iterative solver
           120 MiB given to the printing process from OS
            46 MiB allocation reported by mallinfo(arena+hblkhd)
         70666 MiB available memory on the node where the printing process lives
------------------
     ethr =  3.54E-11,  avg # of iterations =  2.0

     total cpu time spent up to now is        9.7 secs

     total energy              =    -611.02491406 Ry
     estimated scf accuracy    <       0.00000006 Ry

     iteration # 13     ecut=    30.00 Ry     beta= 0.40
     Davidson diagonalization with overlap

---- Real-time Memory Report at c_bands before calling an iterative solver
           120 MiB given to the printing process from OS
            46 MiB allocation reported by mallinfo(arena+hblkhd)
         70662 MiB available memory on the node where the printing process lives
------------------
     ethr =  2.56E-11,  avg # of iterations =  5.0

     total cpu time spent up to now is       10.3 secs

     total energy              =    -611.02491406 Ry
     estimated scf accuracy    <          4.0E-10 Ry

     iteration # 14     ecut=    30.00 Ry     beta= 0.40
     Davidson diagonalization with overlap

---- Real-time Memory Report at c_bands before calling an iterative solver
           120 MiB given to the printing process from OS
            46 MiB allocation reported by mallinfo(arena+hblkhd)
         70652 MiB available memory on the node where the printing process lives
------------------
     ethr =  1.85E-13,  avg # of iterations = 16.0

     total cpu time spent up to now is       11.6 secs

     total energy              =    -611.02491407 Ry
     estimated scf accuracy    <          1.4E-09 Ry

     iteration # 15     ecut=    30.00 Ry     beta= 0.40
     Davidson diagonalization with overlap

---- Real-time Memory Report at c_bands before calling an iterative solver
           120 MiB given to the printing process from OS
            46 MiB allocation reported by mallinfo(arena+hblkhd)
         70647 MiB available memory on the node where the printing process lives
------------------
     ethr =  1.85E-13,  avg # of iterations =  2.0

     total cpu time spent up to now is       12.2 secs

     total energy              =    -611.02491406 Ry
     estimated scf accuracy    <          7.9E-10 Ry

     iteration # 16     ecut=    30.00 Ry     beta= 0.40
     Davidson diagonalization with overlap

---- Real-time Memory Report at c_bands before calling an iterative solver
           120 MiB given to the printing process from OS
            46 MiB allocation reported by mallinfo(arena+hblkhd)
         70647 MiB available memory on the node where the printing process lives
------------------
     ethr =  1.85E-13,  avg # of iterations =  6.0

     total cpu time spent up to now is       13.0 secs

     total energy              =    -611.02491406 Ry
     estimated scf accuracy    <          1.3E-10 Ry

     iteration # 17     ecut=    30.00 Ry     beta= 0.40
     Davidson diagonalization with overlap

---- Real-time Memory Report at c_bands before calling an iterative solver
           120 MiB given to the printing process from OS
            46 MiB allocation reported by mallinfo(arena+hblkhd)
         70643 MiB available memory on the node where the printing process lives
------------------
     ethr =  1.00E-13,  avg # of iterations =  4.0

     total cpu time spent up to now is       13.6 secs

     total energy              =    -611.02491406 Ry
     estimated scf accuracy    <          1.0E-11 Ry

     iteration # 18     ecut=    30.00 Ry     beta= 0.40
     Davidson diagonalization with overlap

---- Real-time Memory Report at c_bands before calling an iterative solver
           120 MiB given to the printing process from OS
            46 MiB allocation reported by mallinfo(arena+hblkhd)
         70645 MiB available memory on the node where the printing process lives
------------------
     ethr =  1.00E-13,  avg # of iterations =  2.0

     total cpu time spent up to now is       14.0 secs

     total energy              =    -611.02491406 Ry
     estimated scf accuracy    <          1.2E-11 Ry

     iteration # 19     ecut=    30.00 Ry     beta= 0.40
     Davidson diagonalization with overlap

---- Real-time Memory Report at c_bands before calling an iterative solver
           120 MiB given to the printing process from OS
            46 MiB allocation reported by mallinfo(arena+hblkhd)
         70138 MiB available memory on the node where the printing process lives
------------------
     ethr =  1.00E-13,  avg # of iterations =  1.0

     total cpu time spent up to now is       14.4 secs

     total energy              =    -611.02491406 Ry
     estimated scf accuracy    <          2.9E-12 Ry

     iteration # 20     ecut=    30.00 Ry     beta= 0.40
     Davidson diagonalization with overlap

---- Real-time Memory Report at c_bands before calling an iterative solver
           120 MiB given to the printing process from OS
            46 MiB allocation reported by mallinfo(arena+hblkhd)
         69820 MiB available memory on the node where the printing process lives
------------------
     ethr =  1.00E-13,  avg # of iterations =  1.0

     total cpu time spent up to now is       14.9 secs

     total energy              =    -611.02491406 Ry
     estimated scf accuracy    <          1.1E-12 Ry

     iteration # 21     ecut=    30.00 Ry     beta= 0.40
     Davidson diagonalization with overlap

---- Real-time Memory Report at c_bands before calling an iterative solver
           120 MiB given to the printing process from OS
            46 MiB allocation reported by mallinfo(arena+hblkhd)
         67888 MiB available memory on the node where the printing process lives
------------------
     ethr =  1.00E-13,  avg # of iterations =  1.0

     total cpu time spent up to now is       15.5 secs

     End of self-consistent calculation

          k = 0.0000 0.0000 0.0000 ( 10090 PWs)   bands (ev):

    -5.7532  -4.3679  -4.3679  -4.3679  -4.3679  -4.3679  -4.3679  -4.3679
    -4.3679  -3.8403  -3.8403  -3.8403  -3.8403  -3.8403  -3.8403  -2.4636
    -2.4636  -2.4636  -2.4636  -2.4636  -2.4636  -2.4636  -2.4636  -2.4636
    -2.4636  -2.4636  -2.4636  -0.5427  -0.5427  -0.5427  -0.5427  -0.5427
    -0.5427  -0.5427  -0.5427  -0.5427  -0.5427  -0.5427  -0.5427   0.8660
     0.8660   0.8660   0.8660   0.8660   0.8660   0.8660   0.8660   1.2303
     1.2303   1.2303   1.2303   1.2303   1.2303   1.7424   1.7424   1.7424
     1.7424   1.7424   1.7424   1.7424   1.7424   1.7424   1.7424   1.7424
     1.7424   3.7929   3.7929   3.7929   3.7929   3.7929   3.7929   3.7929
     3.7929   3.7929   3.7929   3.7929   3.7929   4.1056   4.1056   4.1056
     4.1056   4.1056   4.1056   4.1056   4.1056   4.1056   4.1056   4.1056
     4.1056   5.2373   5.2373   5.2373   5.2373   5.2373   5.2373   5.2373
     5.2373   5.2373   5.2373   5.2373   5.2373   5.2373   5.2373   5.2373
     5.2373   6.2541   6.2541   6.2541

     occupation numbers 
     1.0000   1.0000   1.0000   1.0000   1.0000   1.0000   1.0000   1.0000
     1.0000   1.0000   1.0000   1.0000   1.0000   1.0000   1.0000   1.0000
     1.0000   1.0000   1.0000   1.0000   1.0000   1.0000   1.0000   1.0000
     1.0000   1.0000   1.0000   1.0000   1.0000   1.0000   1.0000   1.0000
     1.0000   1.0000   1.0000   1.0000   1.0000   1.0000   1.0000   1.0000
     1.0000   1.0000   1.0000   1.0000   1.0000   1.0000   1.0000   1.0000
     1.0000   1.0000   1.0000   1.0000   1.0000   1.0000   1.0000   1.0000
     1.0000   1.0000   1.0000   1.0000   1.0000   1.0000   1.0000   1.0000
     1.0000   1.0000   1.0000   1.0000   1.0000   1.0000   1.0000   1.0000
     1.0000   1.0000   1.0000   1.0000   1.0000   1.0000   1.0000   1.0000
     1.0000   1.0000   1.0000   1.0000   1.0000   1.0000   1.0000   1.0000
     1.0000   1.0000   1.0000   1.0000   1.0000   1.0000   1.0000   1.0000
     1.0000   1.0000   1.0000   1.0000   1.0000   1.0000   1.0000   1.0000
     1.0000   1.0000   1.0000   1.0000

     highest occupied level (ev):     6.2541

!    total energy              =    -611.02491406 Ry
     estimated scf accuracy    <          3.9E-13 Ry

     The total energy is the sum of the following terms:
     one-electron contribution =     139.96933660 Ry
     hartree contribution      =      30.77304431 Ry
     xc contribution           =    -328.42796233 Ry
     ewald contribution        =    -453.33933265 Ry

     convergence has been achieved in  21 iterations

     Forces acting on atoms (cartesian axes, Ry/au):

     atom    1 type  1   force =     0.00000000    0.00000000    0.00000000
     atom    2 type  1   force =     0.00000000    0.00000000    0.00000000
     atom    3 type  1   force =    -0.00000000   -0.00000000   -0.00000001
     atom    4 type  1   force =    -0.00000000    0.00000000    0.00000000
     atom    5 type  1   force =     0.00000000    0.00000000   -0.00000001
     atom    6 type  1   force =    -0.00000000   -0.00000000    0.00000000
     atom    7 type  1   force =    -0.00000000   -0.00000001   -0.00000000
     atom    8 type  1   force =    -0.00000000    0.00000000    0.00000000
     atom    9 type  1   force =     0.00000000   -0.00000000   -0.00000000
     atom   10 type  1   force =    -0.00000000   -0.00000000    0.00000000
     atom   11 type  1   force =     0.00000001    0.00000000   -0.00000000
     atom   12 type  1   force =    -0.00000001    0.00000001   -0.00000000
     atom   13 type  1   force =     0.00000000   -0.00000001    0.00000000
     atom   14 type  1   force =    -0.00000000    0.00000000   -0.00000000
     atom   15 type  1   force =     0.00000001   -0.00000000    0.00000000
     atom   16 type  1   force =    -0.00000001   -0.00000000    0.00000001
     atom   17 type  1   force =     0.00000001   -0.00000001   -0.00000001
     atom   18 type  1   force =     0.00000000    0.00000001    0.00000001
     atom   19 type  1   force =    -0.00000001   -0.00000000   -0.00000000
     atom   20 type  1   force =     0.00000000    0.00000000   -0.00000000
     atom   21 type  1   force =    -0.00000000    0.00000000   -0.00000000
     atom   22 type  1   force =    -0.00000000   -0.00000000    0.00000000
     atom   23 type  1   force =     0.00000000    0.00000001   -0.00000000
     atom   24 type  1   force =     0.00000001   -0.00000001   -0.00000000
     atom   25 type  1   force =    -0.00000000   -0.00000000    0.00000000
     atom   26 type  1   force =    -0.00000000    0.00000000   -0.00000000
     atom   27 type  1   force =     0.00000000    0.00000000    0.00000000
     atom   28 type  1   force =    -0.00000000   -0.00000000   -0.00000000
     atom   29 type  1   force =    -0.00000000    0.00000000   -0.00000002
     atom   30 type  1   force =     0.00000000    0.00000000   -0.00000000
     atom   31 type  1   force =     0.00000000   -0.00000000    0.00000001
     atom   32 type  1   force =     0.00000001   -0.00000000   -0.00000001
     atom   33 type  1   force =     0.00000000   -0.00000002   -0.00000000
     atom   34 type  1   force =     0.00000000   -0.00000000    0.00000000
     atom   35 type  1   force =     0.00000002    0.00000000   -0.00000000
     atom   36 type  1   force =     0.00000000   -0.00000001   -0.00000001
     atom   37 type  1   force =    -0.00000001    0.00000000    0.00000000
     atom   38 type  1   force =     0.00000000   -0.00000000   -0.00000000
     atom   39 type  1   force =    -0.00000000    0.00000001    0.00000000
     atom   40 type  1   force =    -0.00000000   -0.00000001    0.00000001
     atom   41 type  1   force =    -0.00000001    0.00000001   -0.00000001
     atom   42 type  1   force =     0.00000001    0.00000000    0.00000001
     atom   43 type  1   force =    -0.00000000    0.00000000    0.00000001
     atom   44 type  1   force =    -0.00000000    0.00000001   -0.00000001
     atom   45 type  1   force =    -0.00000002    0.00000000   -0.00000000
     atom   46 type  1   force =    -0.00000000    0.00000000    0.00000000
     atom   47 type  1   force =     0.00000000    0.00000002   -0.00000000
     atom   48 type  1   force =    -0.00000001    0.00000000   -0.00000001
     atom   49 type  1   force =    -0.00000001   -0.00000001    0.00000001
     atom   50 type  1   force =     0.00000001    0.00000001    0.00000000
     atom   51 type  1   force =     0.00000000   -0.00000000    0.00000002
     atom   52 type  1   force =    -0.00000001   -0.00000001    0.00000000
     atom   53 type  1   force =     0.00000001    0.00000001    0.00000001
     atom   54 type  1   force =    -0.00000000    0.00000000   -0.00000000
     The non-local contrib.  to forces
     atom    1 type  1   force =    -0.00000000   -0.00000000    0.00000000
     atom    2 type  1   force =     0.00000000    0.00000000    0.00000000
     atom    3 type  1   force =    -0.00000000   -0.00000000    0.00000001
     atom    4 type  1   force =    -0.00000000    0.00000000    0.00000001
     atom    5 type  1   force =     0.00000000    0.00000000    0.00000001
     atom    6 type  1   force =    -0.00000000   -0.00000000    0.00000000
     atom    7 type  1   force =    -0.00000000    0.00000001   -0.00000000
     atom    8 type  1   force =    -0.00000000    0.00000001    0.00000000
     atom    9 type  1   force =     0.00000001   -0.00000001   -0.00000001
     atom   10 type  1   force =    -0.00000001   -0.00000000    0.00000000
     atom   11 type  1   force =    -0.00000001    0.00000000   -0.00000000
     atom   12 type  1   force =     0.00000002   -0.00000002   -0.00000001
     atom   13 type  1   force =     0.00000000    0.00000001    0.00000000
     atom   14 type  1   force =    -0.00000000    0.00000000   -0.00000000
     atom   15 type  1   force =    -0.00000001   -0.00000000    0.00000000
     atom   16 type  1   force =     0.00000002   -0.00000001   -0.00000002
     atom   17 type  1   force =    -0.00000000    0.00000000    0.00000000
     atom   18 type  1   force =     0.00000001   -0.00000002   -0.00000002
     atom   19 type  1   force =     0.00000001   -0.00000000   -0.00000000
     atom   20 type  1   force =     0.00000001    0.00000000   -0.00000000
     atom   21 type  1   force =    -0.00000001    0.00000001   -0.00000001
     atom   22 type  1   force =     0.00000000   -0.00000001   -0.00000000
     atom   23 type  1   force =     0.00000000   -0.00000001   -0.00000000
     atom   24 type  1   force =    -0.00000002    0.00000002   -0.00000001
     atom   25 type  1   force =    -0.00000001   -0.00000001    0.00000001
     atom   26 type  1   force =     0.00000000   -0.00000000   -0.00000001
     atom   27 type  1   force =     0.00000001    0.00000001    0.00000001
     atom   28 type  1   force =    -0.00000001   -0.00000001   -0.00000001
     atom   29 type  1   force =    -0.00000000    0.00000000    0.00000000
     atom   30 type  1   force =     0.00000001    0.00000001   -0.00000001
     atom   31 type  1   force =     0.00000000   -0.00000000   -0.00000001
     atom   32 type  1   force =    -0.00000002   -0.00000001    0.00000002
     atom   33 type  1   force =    -0.00000000    0.00000000    0.00000000
     atom   34 type  1   force =     0.00000001   -0.00000001    0.00000001
     atom   35 type  1   force =    -0.00000000   -0.00000000    0.00000000
     atom   36 type  1   force =     0.00000001    0.00000002    0.00000002
     atom   37 type  1   force =     0.00000001    0.00000000    0.00000000
     atom   38 type  1   force =     0.00000000   -0.00000000   -0.00000000
     atom   39 type  1   force =    -0.00000000   -0.00000001    0.00000000
     atom   40 type  1   force =    -0.00000001    0.00000002   -0.00000002
     atom   41 type  1   force =     0.00000000   -0.00000000    0.00000000
     atom   42 type  1   force =    -0.00000002    0.00000001   -0.00000002
     atom   43 type  1   force =    -0.00000000    0.00000000   -0.00000001
     atom   44 type  1   force =    -0.00000001   -0.00000002    0.00000002
     atom   45 type  1   force =     0.00000000    0.00000000   -0.00000000
     atom   46 type  1   force =    -0.00000001    0.00000001    0.00000001
     atom   47 type  1   force =    -0.00000000   -0.00000000    0.00000000
     atom   48 type  1   force =     0.00000002    0.00000001    0.00000002
     atom   49 type  1   force =     0.00000000    0.00000000   -0.00000000
     atom   50 type  1   force =    -0.00000002   -0.00000002    0.00000001
     atom   51 type  1   force =     0.00000000    0.00000000   -0.00000000
     atom   52 type  1   force =     0.00000002    0.00000002    0.00000001
     atom   53 type  1   force =    -0.00000000   -0.00000000   -0.00000000
     atom   54 type  1   force =    -0.00000000   -0.00000000   -0.00000000
     The ionic contribution  to forces
     atom    1 type  1   force =    -0.00000000   -0.00000000   -0.00000000
     atom    2 type  1   force =     0.00000000    0.00000000    0.00000000
     atom    3 type  1   force =     0.00000000   -0.00000000   -0.00000000
     atom    4 type  1   force =     0.00000000   -0.00000000    0.00000000
     atom    5 type  1   force =    -0.00000000   -0.00000000   -0.00000000
     atom    6 type  1   force =     0.00000000    0.00000000    0.00000000
     atom    7 type  1   force =    -0.00000000   -0.00000000    0.00000000
     atom    8 type  1   force =     0.00000000    0.00000000    0.00000000
     atom    9 type  1   force =     0.00000000    0.00000000    0.00000000
     atom   10 type  1   force =     0.00000000   -0.00000000    0.00000000
     atom   11 type  1   force =     0.00000000    0.00000000    0.00000000
     atom   12 type  1   force =    -0.00000000   -0.00000000    0.00000000
     atom   13 type  1   force =    -0.00000000   -0.00000000   -0.00000000
     atom   14 type  1   force =    -0.00000000    0.00000000    0.00000000
     atom   15 type  1   force =     0.00000000   -0.00000000    0.00000000
     atom   16 type  1   force =    -0.00000000   -0.00000000    0.00000000
     atom   17 type  1   force =    -0.00000000    0.00000000   -0.00000000
     atom   18 type  1   force =     0.00000000    0.00000000    0.00000000
     atom   19 type  1   force =    -0.00000000   -0.00000000    0.00000000
     atom   20 type  1   force =     0.00000000   -0.00000000    0.00000000
     atom   21 type  1   force =     0.00000000    0.00000000    0.00000000
     atom   22 type  1   force =     0.00000000    0.00000000   -0.00000000
     atom   23 type  1   force =     0.00000000    0.00000000    0.00000000
     atom   24 type  1   force =    -0.00000000   -0.00000000   -0.00000000
     atom   25 type  1   force =     0.00000000   -0.00000000    0.00000000
     atom   26 type  1   force =    -0.00000000   -0.00000000    0.00000000
     atom   27 type  1   force =     0.00000000    0.00000000    0.00000000
     atom   28 type  1   force =    -0.00000000    0.00000000    0.00000000
     atom   29 type  1   force =     0.00000000   -0.00000000    0.00000000
     atom   30 type  1   force =     0.00000000    0.00000000   -0.00000000
     atom   31 type  1   force =     0.00000000    0.00000000    0.00000000
     atom   32 type  1   force =    -0.00000000   -0.00000000    0.00000000
     atom   33 type  1   force =     0.00000000    0.00000000    0.00000000
     atom   34 type  1   force =     0.00000000    0.00000000    0.00000000
     atom   35 type  1   force =     0.00000000    0.00000000    0.00000000
     atom   36 type  1   force =     0.00000000    0.00000000    0.00000000
     atom   37 type  1   force =    -0.00000000   -0.00000000   -0.00000000
     atom   38 type  1   force =     0.00000000    0.00000000   -0.00000000
     atom   39 type  1   force =     0.00000000    0.00000000    0.00000000
     atom   40 type  1   force =     0.00000000    0.00000000    0.00000000
     atom   41 type  1   force =    -0.00000000   -0.00000000   -0.00000000
     atom   42 type  1   force =    -0.00000000   -0.00000000    0.00000000
     atom   43 type  1   force =     0.00000000    0.00000000    0.00000000
     atom   44 type  1   force =     0.00000000    0.00000000    0.00000000
     atom   45 type  1   force =     0.00000000    0.00000000    0.00000000
     atom   46 type  1   force =     0.00000000    0.00000000    0.00000000
     atom   47 type  1   force =     0.00000000    0.00000000    0.00000000
     atom   48 type  1   force =     0.00000000    0.00000000    0.00000000
     atom   49 type  1   force =    -0.00000000   -0.00000000   -0.00000000
     atom   50 type  1   force =     0.00000000    0.00000000    0.00000000
     atom   51 type  1   force =     0.00000000    0.00000000    0.00000000
     atom   52 type  1   force =     0.00000000    0.00000000    0.00000000
     atom   53 type  1   force =     0.00000000   -0.00000000    0.00000000
     atom   54 type  1   force =     0.00000000    0.00000000    0.00000000
     The local contribution  to forces
     atom    1 type  1   force =    -0.00000003    0.00000012   -0.00000004
     atom    2 type  1   force =    -0.00000006    0.00000017    0.00000001
     atom    3 type  1   force =    -0.00000017    0.00000000    0.00000012
     atom    4 type  1   force =    -0.00000017   -0.00000009    0.00000008
     atom    5 type  1   force =    -0.00000007    0.00000014   -0.00000000
     atom    6 type  1   force =    -0.00000004    0.00000017   -0.00000002
     atom    7 type  1   force =    -0.00000001    0.00000008   -0.00000003
     atom    8 type  1   force =     0.00000002    0.00000008   -0.00000006
     atom    9 type  1   force =    -0.00000012   -0.00000005    0.00000011
     atom   10 type  1   force =    -0.00000009   -0.00000009    0.00000006
     atom   11 type  1   force =     0.00000001    0.00000011    0.00000006
     atom   12 type  1   force =    -0.00000009    0.00000011   -0.00000005
     atom   13 type  1   force =     0.00000010   -0.00000003   -0.00000005
     atom   14 type  1   force =     0.00000010    0.00000002    0.00000004
     atom   15 type  1   force =    -0.00000004   -0.00000011    0.00000010
     atom   16 type  1   force =    -0.00000007   -0.00000014    0.00000019
     atom   17 type  1   force =     0.00000005    0.00000002   -0.00000001
     atom   18 type  1   force =     0.00000007    0.00000005    0.00000006
     atom   19 type  1   force =     0.00000004    0.00000007   -0.00000012
     atom   20 type  1   force =    -0.00000001    0.00000001   -0.00000020
     atom   21 type  1   force =    -0.00000014   -0.00000005    0.00000004
     atom   22 type  1   force =    -0.00000009    0.00000001   -0.00000003
     atom   23 type  1   force =     0.00000003    0.00000006   -0.00000004
     atom   24 type  1   force =     0.00000003    0.00000005   -0.00000019
     atom   25 type  1   force =     0.00000005    0.00000004   -0.00000022
     atom   26 type  1   force =     0.00000009    0.00000005   -0.00000009
     atom   27 type  1   force =    -0.00000008   -0.00000004   -0.00000002
     atom   28 type  1   force =    -0.00000007   -0.00000012    0.00000002
     atom   29 type  1   force =     0.00000005   -0.00000005   -0.00000022
     atom   30 type  1   force =     0.00000009    0.00000003   -0.00000007
     atom   31 type  1   force =     0.00000018    0.00000000    0.00000009
     atom   32 type  1   force =     0.00000014   -0.00000013    0.00000004
     atom   33 type  1   force =     0.00000004   -0.00000017    0.00000019
     atom   34 type  1   force =    -0.00000003   -0.00000017    0.00000015
     atom   35 type  1   force =     0.00000010   -0.00000006    0.00000004
     atom   36 type  1   force =     0.00000013    0.00000001    0.00000007
     atom   37 type  1   force =    -0.00000003    0.00000013   -0.00000020
     atom   38 type  1   force =     0.00000001    0.00000016   -0.00000009
     atom   39 type  1   force =    -0.00000011   -0.00000006   -0.00000006
     atom   40 type  1   force =    -0.00000016    0.00000000    0.00000004
     atom   41 type  1   force =    -0.00000002    0.00000006   -0.00000019
     atom   42 type  1   force =    -0.00000001    0.00000005   -0.00000009
     atom   43 type  1   force =     0.00000009    0.00000010   -0.00000001
     atom   44 type  1   force =     0.00000004    0.00000008   -0.00000005
     atom   45 type  1   force =    -0.00000013   -0.00000011    0.00000015
     atom   46 type  1   force =    -0.00000009   -0.00000007    0.00000016
     atom   47 type  1   force =     0.00000004    0.00000005    0.00000003
     atom   48 type  1   force =     0.00000005   -0.00000005    0.00000000
     atom   49 type  1   force =     0.00000010   -0.00000002    0.00000004
     atom   50 type  1   force =     0.00000010    0.00000002   -0.00000003
     atom   51 type  1   force =    -0.00000002   -0.00000018    0.00000015
     atom   52 type  1   force =    -0.00000004   -0.00000010    0.00000010
     atom   53 type  1   force =     0.00000012   -0.00000001    0.00000005
     atom   54 type  1   force =     0.00000009   -0.00000010   -0.00000006
     The core correction contribution to forces
     atom    1 type  1   force =     0.00000000   -0.00000001   -0.00000000
     atom    2 type  1   force =     0.00000000    0.00000000   -0.00000000
     atom    3 type  1   force =     0.00000000    0.00000000   -0.00000000
     atom    4 type  1   force =     0.00000000   -0.00000001   -0.00000000
     atom    5 type  1   force =    -0.00000000    0.00000000    0.00000000
     atom    6 type  1   force =    -0.00000000   -0.00000000   -0.00000000
     atom    7 type  1   force =    -0.00000000   -0.00000001   -0.00000000
     atom    8 type  1   force =     0.00000000    0.00000000    0.00000000
     atom    9 type  1   force =     0.00000000    0.00000000    0.00000000
     atom   10 type  1   force =    -0.00000000   -0.00000000   -0.00000000
     atom   11 type  1   force =     0.00000000    0.00000000    0.00000000
     atom   12 type  1   force =    -0.00000000    0.00000000    0.00000000
     atom   13 type  1   force =     0.00000000   -0.00000001   -0.00000000
     atom   14 type  1   force =     0.00000000    0.00000000    0.00000000
     atom   15 type  1   force =     0.00000000    0.00000000   -0.00000000
     atom   16 type  1   force =    -0.00000000   -0.00000000    0.00000000
     atom   17 type  1   force =     0.00000000    0.00000000   -0.00000000
     atom   18 type  1   force =     0.00000000    0.00000000    0.00000000
     atom   19 type  1   force =     0.00000000    0.00000000    0.00000000
     atom   20 type  1   force =    -0.00000000   -0.00000000    0.00000000
     atom   21 type  1   force =     0.00000000    0.00000000    0.00000000
     atom   22 type  1   force =    -0.00000000    0.00000000    0.00000000
     atom   23 type  1   force =     0.00000000   -0.00000000   -0.00000000
     atom   24 type  1   force =     0.00000000   -0.00000000    0.00000000
     atom   25 type  1   force =     0.00000000    0.00000000   -0.00000000
     atom   26 type  1   force =     0.00000000    0.00000000   -0.00000000
     atom   27 type  1   force =    -0.00000000    0.00000000   -0.00000000
     atom   28 type  1   force =    -0.00000000    0.00000000   -0.00000000
     atom   29 type  1   force =     0.00000000   -0.00000001   -0.00000000
     atom   30 type  1   force =    -0.00000000    0.00000000    0.00000000
     atom   31 type  1   force =     0.00000000    0.00000001    0.00000000
     atom   32 type  1   force =     0.00000000   -0.00000000   -0.00000000
     atom   33 type  1   force =     0.00000000    0.00000000    0.00000000
     atom   34 type  1   force =    -0.00000000    0.00000000   -0.00000000
     atom   35 type  1   force =     0.00000000   -0.00000000   -0.00000000
     atom   36 type  1   force =     0.00000000    0.00000000   -0.00000000
     atom   37 type  1   force =    -0.00000000    0.00000000    0.00000000
     atom   38 type  1   force =    -0.00000000    0.00000000    0.00000000
     atom   39 type  1   force =    -0.00000000   -0.00000000   -0.00000000
     atom   40 type  1   force =    -0.00000000    0.00000000    0.00000000
     atom   41 type  1   force =     0.00000000    0.00000000    0.00000000
     atom   42 type  1   force =     0.00000000   -0.00000000    0.00000000
     atom   43 type  1   force =     0.00000000    0.00000000   -0.00000000
     atom   44 type  1   force =    -0.00000000    0.00000000   -0.00000000
     atom   45 type  1   force =    -0.00000000   -0.00000000    0.00000000
     atom   46 type  1   force =     0.00000000    0.00000000   -0.00000000
     atom   47 type  1   force =     0.00000000    0.00000000    0.00000000
     atom   48 type  1   force =    -0.00000000   -0.00000001   -0.00000001
     atom   49 type  1   force =    -0.00000000    0.00000000    0.00000000
     atom   50 type  1   force =    -0.00000000    0.00000000    0.00000000
     atom   51 type  1   force =    -0.00000000   -0.00000000   -0.00000000
     atom   52 type  1   force =    -0.00000000    0.00000000    0.00000000
     atom   53 type  1   force =    -0.00000000    0.00000000    0.00000000
     atom   54 type  1   force =    -0.00000000   -0.00000000    0.00000000
     The Hubbard contrib.    to forces
     atom    1 type  1   force =     0.00000000    0.00000000    0.00000000
     atom    2 type  1   force =     0.00000000    0.00000000    0.00000000
     atom    3 type  1   force =     0.00000000    0.00000000    0.00000000
     atom    4 type  1   force =     0.00000000    0.00000000    0.00000000
     atom    5 type  1   force =     0.00000000    0.00000000    0.00000000
     atom    6 type  1   force =     0.00000000    0.00000000    0.00000000
     atom    7 type  1   force =     0.00000000    0.00000000    0.00000000
     atom    8 type  1   force =     0.00000000    0.00000000    0.00000000
     atom    9 type  1   force =     0.00000000    0.00000000    0.00000000
     atom   10 type  1   force =     0.00000000    0.00000000    0.00000000
     atom   11 type  1   force =     0.00000000    0.00000000    0.00000000
     atom   12 type  1   force =     0.00000000    0.00000000    0.00000000
     atom   13 type  1   force =     0.00000000    0.00000000    0.00000000
     atom   14 type  1   force =     0.00000000    0.00000000    0.00000000
     atom   15 type  1   force =     0.00000000    0.00000000    0.00000000
     atom   16 type  1   force =     0.00000000    0.00000000    0.00000000
     atom   17 type  1   force =     0.00000000    0.00000000    0.00000000
     atom   18 type  1   force =     0.00000000    0.00000000    0.00000000
     atom   19 type  1   force =     0.00000000    0.00000000    0.00000000
     atom   20 type  1   force =     0.00000000    0.00000000    0.00000000
     atom   21 type  1   force =     0.00000000    0.00000000    0.00000000
     atom   22 type  1   force =     0.00000000    0.00000000    0.00000000
     atom   23 type  1   force =     0.00000000    0.00000000    0.00000000
     atom   24 type  1   force =     0.00000000    0.00000000    0.00000000
     atom   25 type  1   force =     0.00000000    0.00000000    0.00000000
     atom   26 type  1   force =     0.00000000    0.00000000    0.00000000
     atom   27 type  1   force =     0.00000000    0.00000000    0.00000000
     atom   28 type  1   force =     0.00000000    0.00000000    0.00000000
     atom   29 type  1   force =     0.00000000    0.00000000    0.00000000
     atom   30 type  1   force =     0.00000000    0.00000000    0.00000000
     atom   31 type  1   force =     0.00000000    0.00000000    0.00000000
     atom   32 type  1   force =     0.00000000    0.00000000    0.00000000
     atom   33 type  1   force =     0.00000000    0.00000000    0.00000000
     atom   34 type  1   force =     0.00000000    0.00000000    0.00000000
     atom   35 type  1   force =     0.00000000    0.00000000    0.00000000
     atom   36 type  1   force =     0.00000000    0.00000000    0.00000000
     atom   37 type  1   force =     0.00000000    0.00000000    0.00000000
     atom   38 type  1   force =     0.00000000    0.00000000    0.00000000
     atom   39 type  1   force =     0.00000000    0.00000000    0.00000000
     atom   40 type  1   force =     0.00000000    0.00000000    0.00000000
     atom   41 type  1   force =     0.00000000    0.00000000    0.00000000
     atom   42 type  1   force =     0.00000000    0.00000000    0.00000000
     atom   43 type  1   force =     0.00000000    0.00000000    0.00000000
     atom   44 type  1   force =     0.00000000    0.00000000    0.00000000
     atom   45 type  1   force =     0.00000000    0.00000000    0.00000000
     atom   46 type  1   force =     0.00000000    0.00000000    0.00000000
     atom   47 type  1   force =     0.00000000    0.00000000    0.00000000
     atom   48 type  1   force =     0.00000000    0.00000000    0.00000000
     atom   49 type  1   force =     0.00000000    0.00000000    0.00000000
     atom   50 type  1   force =     0.00000000    0.00000000    0.00000000
     atom   51 type  1   force =     0.00000000    0.00000000    0.00000000
     atom   52 type  1   force =     0.00000000    0.00000000    0.00000000
     atom   53 type  1   force =     0.00000000    0.00000000    0.00000000
     atom   54 type  1   force =     0.00000000    0.00000000    0.00000000
     The SCF correction term to forces
     atom    1 type  1   force =     0.00000003   -0.00000018    0.00000001
     atom    2 type  1   force =     0.00000007   -0.00000015   -0.00000003
     atom    3 type  1   force =     0.00000017    0.00000001   -0.00000013
     atom    4 type  1   force =     0.00000019    0.00000002   -0.00000012
     atom    5 type  1   force =     0.00000007   -0.00000009   -0.00000000
     atom    6 type  1   force =     0.00000002   -0.00000017   -0.00000002
     atom    7 type  1   force =     0.00000000   -0.00000016    0.00000005
     atom    8 type  1   force =    -0.00000001   -0.00000006    0.00000008
     atom    9 type  1   force =     0.00000014    0.00000008   -0.00000009
     atom   10 type  1   force =     0.00000008    0.00000003   -0.00000008
     atom   11 type  1   force =     0.00000000   -0.00000007   -0.00000004
     atom   12 type  1   force =     0.00000004   -0.00000007    0.00000008
     atom   13 type  1   force =    -0.00000011   -0.00000005    0.00000002
     atom   14 type  1   force =    -0.00000008    0.00000000   -0.00000004
     atom   15 type  1   force =     0.00000006    0.00000012   -0.00000011
     atom   16 type  1   force =     0.00000007    0.00000008   -0.00000018
     atom   17 type  1   force =    -0.00000002    0.00000004   -0.00000002
     atom   18 type  1   force =    -0.00000008   -0.00000003   -0.00000003
     atom   19 type  1   force =    -0.00000004   -0.00000006    0.00000013
     atom   20 type  1   force =     0.00000000   -0.00000003    0.00000021
     atom   21 type  1   force =     0.00000014    0.00000008   -0.00000000
     atom   22 type  1   force =     0.00000009    0.00000002    0.00000004
     atom   23 type  1   force =    -0.00000003   -0.00000011    0.00000003
     atom   24 type  1   force =    -0.00000001   -0.00000005    0.00000022
     atom   25 type  1   force =    -0.00000004   -0.00000002    0.00000019
     atom   26 type  1   force =    -0.00000009   -0.00000005    0.00000007
     atom   27 type  1   force =     0.00000006    0.00000008    0.00000001
     atom   28 type  1   force =     0.00000004    0.00000015   -0.00000001
     atom   29 type  1   force =    -0.00000002   -0.00000003    0.00000017
     atom   30 type  1   force =    -0.00000009    0.00000001    0.00000011
     atom   31 type  1   force =    -0.00000016    0.00000003   -0.00000006
     atom   32 type  1   force =    -0.00000013    0.00000006   -0.00000009
     atom   33 type  1   force =    -0.00000005    0.00000019   -0.00000017
     atom   34 type  1   force =     0.00000001    0.00000019   -0.00000017
     atom   35 type  1   force =    -0.00000008    0.00000003   -0.00000007
     atom   36 type  1   force =    -0.00000012    0.00000001   -0.00000010
     atom   37 type  1   force =    -0.00000001   -0.00000008    0.00000021
     atom   38 type  1   force =    -0.00000001   -0.00000013    0.00000010
     atom   39 type  1   force =     0.00000009   -0.00000000    0.00000003
     atom   40 type  1   force =     0.00000017    0.00000004    0.00000000
     atom   41 type  1   force =     0.00000003   -0.00000002    0.00000019
     atom   42 type  1   force =     0.00000003   -0.00000011    0.00000014
     atom   43 type  1   force =    -0.00000009   -0.00000007    0.00000002
     atom   44 type  1   force =    -0.00000005   -0.00000003   -0.00000001
     atom   45 type  1   force =     0.00000013    0.00000006   -0.00000014
     atom   46 type  1   force =     0.00000009    0.00000011   -0.00000019
     atom   47 type  1   force =    -0.00000003   -0.00000001   -0.00000002
     atom   48 type  1   force =    -0.00000008   -0.00000005   -0.00000008
     atom   49 type  1   force =    -0.00000014    0.00000007    0.00000001
     atom   50 type  1   force =    -0.00000010    0.00000001    0.00000005
     atom   51 type  1   force =    -0.00000000    0.00000013   -0.00000014
     atom   52 type  1   force =     0.00000002    0.00000015   -0.00000006
     atom   53 type  1   force =    -0.00000013    0.00000006   -0.00000004
     atom   54 type  1   force =    -0.00000010    0.00000004    0.00000011

     Total force =     0.000000     Total SCF correction =     0.000001
     SCF correction compared to forces is large: reduce conv_thr to get better values

     Writing all to output data dir tmp/si.save/

     init_run     :      1.05s CPU      0.98s WALL (       1 calls)
     electrons    :     19.05s CPU     14.40s WALL (       1 calls)
     forces       :      0.65s CPU      0.60s WALL (       1 calls)

     Called by init_run:
     wfcinit      :      0.30s CPU      0.22s WALL (       1 calls)
     wfcinit:atom :      0.00s CPU      0.00s WALL (       1 calls)
     wfcinit:wfcr :      0.29s CPU      0.20s WALL (       1 calls)
     potinit      :      0.17s CPU      0.18s WALL (       1 calls)
     hinit0       :      0.44s CPU      0.44s WALL (       1 calls)

     Called by electrons:
     c_bands      :     12.45s CPU      8.32s WALL (      22 calls)
     sum_band     :      3.48s CPU      3.03s WALL (      22 calls)
     v_of_rho     :      0.94s CPU      0.96s WALL (      22 calls)
     v_h          :      0.07s CPU      0.07s WALL (      22 calls)
     v_xc         :      0.93s CPU      0.95s WALL (      23 calls)
     newd         :      2.07s CPU      1.98s WALL (      22 calls)
     mix_rho      :      0.11s CPU      0.11s WALL (      22 calls)

     Called by c_bands:
     init_us_2    :      0.32s CPU      0.21s WALL (      45 calls)
     init_us_2:cp :      0.32s CPU      0.21s WALL (      45 calls)
     regterg      :     12.05s CPU      7.93s WALL (      22 calls)

     Called by sum_band:
     sum_band:wei :      0.00s CPU      0.00s WALL (      22 calls)
     sum_band:loo :      1.39s CPU      1.00s WALL (      22 calls)
     sum_band:buf :      0.00s CPU      0.00s WALL (      22 calls)
     sum_band:ini :      0.22s CPU      0.11s WALL (      22 calls)
     sum_band:cal :      0.52s CPU      0.29s WALL (      22 calls)
     sum_band:bec :      0.01s CPU      0.01s WALL (      22 calls)
     addusdens    :      1.72s CPU      1.67s WALL (      22 calls)
                                        0.00s GPU  (      22 calls)
     addusd:skk   :      0.10s CPU      0.11s WALL (      22 calls)
                                        0.00s GPU  (      22 calls)

     Called by *egterg:
     rdiaghg      :      1.80s CPU      0.95s WALL (     105 calls)
     regterg:over :      0.75s CPU      0.38s WALL (      84 calls)
     regterg:upda :      0.27s CPU      0.13s WALL (      84 calls)
     regterg:last :      0.49s CPU      0.28s WALL (      53 calls)
     h_psi        :      7.23s CPU      5.40s WALL (     107 calls)
     s_psi        :      1.19s CPU      0.65s WALL (     107 calls)
     g_psi        :      0.01s CPU      0.01s WALL (      84 calls)

     Called by h_psi:
     h_psi:calbec :      1.77s CPU      0.99s WALL (     107 calls)
     vloc_psi     :      4.12s CPU      3.70s WALL (     107 calls)
     add_vuspsi   :      1.32s CPU      0.69s WALL (     107 calls)

     General routines
     calbec       :      2.41s CPU      1.34s WALL (     133 calls)
     fft          :      1.26s CPU      1.27s WALL (     250 calls)
     ffts         :      0.16s CPU      0.14s WALL (      44 calls)
     fftw         :      4.27s CPU      3.90s WALL (    8390 calls)
     interpolate  :      0.18s CPU      0.18s WALL (      22 calls)

     Parallel routines

     PWSCF        :     20.93s CPU     16.21s WALL


   This run was terminated on:  20:24:35  22Dec2024            

=------------------------------------------------------------------------------=
   JOB DONE.
=------------------------------------------------------------------------------=
