2000
Lattice="2.7307279926067613e-15 26.972991764343117 26.972991764343117 26.972991764343117 1.8581230884960443e-15 26.97299176434312 26.972991764343117 26.972991764343117 1.4056204707347266e-15" Properties=species:S:1:pos:R:3:forces:R:3 energy=-10929.939368823216 stress="2.1170397436403746e-07 4.613139793974511e-16 4.0823341715711673e-16 4.613139793974511e-16 2.1170397436614538e-07 2.998064830967799e-16 4.0823341715711673e-16 2.998064830967799e-16 2.117039743203195e-07" pbc="T T T"
Si       0.00000000       0.00000000       0.00000000       0.00000000       0.00000000       0.00000000
Si       1.34864959       1.34864959       1.34864959       0.00000000       0.00000000      -0.00000000
Si       2.69729918       2.69729918       0.00000000      -0.00000000       0.00000000       0.00000000
Si       4.04594876       4.04594876       1.34864959       0.00000000       0.00000000       0.00000000
Si       5.39459835       5.39459835       0.00000000       0.00000000       0.00000000       0.00000000
Si       6.74324794       6.74324794       1.34864959       0.00000000       0.00000000       0.00000000
Si       8.09189753       8.09189753       0.00000000      -0.00000000       0.00000000       0.00000000
Si       9.44054712       9.44054712       1.34864959       0.00000000       0.00000000       0.00000000
Si      10.78919671      10.78919671       0.00000000      -0.00000000       0.00000000       0.00000000
Si      12.13784629      12.13784629       1.34864959      -0.00000000       0.00000000       0.00000000
Si      13.48649588      13.48649588       0.00000000       0.00000000       0.00000000       0.00000000
Si      14.83514547      14.83514547       1.34864959      -0.00000000       0.00000000      -0.00000000
Si      16.18379506      16.18379506       0.00000000      -0.00000000       0.00000000       0.00000000
Si      17.53244465      17.53244465       1.34864959      -0.00000000      -0.00000000       0.00000000
Si      18.88109424      18.88109424       0.00000000       0.00000000       0.00000000       0.00000000
Si      20.22974382      20.22974382       1.34864959       0.00000000      -0.00000000      -0.00000000
Si      21.57839341      21.57839341       0.00000000      -0.00000000       0.00000000       0.00000000
Si      22.92704300      22.92704300       1.34864959      -0.00000000       0.00000000      -0.00000000
Si      24.27569259      24.27569259       0.00000000      -0.00000000      -0.00000000       0.00000000
Si      25.62434218      25.62434218       1.34864959      -0.00000000      -0.00000000       0.00000000
Si       2.69729918       0.00000000       2.69729918       0.00000000       0.00000000       0.00000000
Si       4.04594876       1.34864959       4.04594876       0.00000000       0.00000000      -0.00000000
Si       5.39459835       2.69729918       2.69729918      -0.00000000       0.00000000       0.00000000
Si       6.74324794       4.04594876       4.04594876      -0.00000000       0.00000000      -0.00000000
Si       8.09189753       5.39459835       2.69729918      -0.00000000       0.00000000       0.00000000
Si       9.44054712       6.74324794       4.04594876      -0.00000000       0.00000000      -0.00000000
Si      10.78919671       8.09189753       2.69729918      -0.00000000       0.00000000       0.00000000
Si      12.13784629       9.44054712       4.04594876       0.00000000       0.00000000       0.00000000
Si      13.48649588      10.78919671       2.69729918      -0.00000000       0.00000000       0.00000000
Si      14.83514547      12.13784629       4.04594876      -0.00000000      -0.00000000       0.00000000
Si      16.18379506      13.48649588       2.69729918      -0.00000000       0.00000000       0.00000000
Si      17.53244465      14.83514547       4.04594876       0.00000000       0.00000000      -0.00000000
Si      18.88109424      16.18379506       2.69729918      -0.00000000       0.00000000       0.00000000
Si      20.22974382      17.53244465       4.04594876       0.00000000      -0.00000000       0.00000000
Si      21.57839341      18.88109424       2.69729918      -0.00000000       0.00000000       0.00000000
Si      22.92704300      20.22974382       4.04594876      -0.00000000      -0.00000000       0.00000000
Si      24.27569259      21.57839341       2.69729918       0.00000000       0.00000000      -0.00000000
Si      25.62434218      22.92704300       4.04594876       0.00000000       0.00000000       0.00000000
Si      26.97299176      24.27569259       2.69729918      -0.00000000      -0.00000000       0.00000000
Si      28.32164135      25.62434218       4.04594876      -0.00000000      -0.00000000       0.00000000
Si       5.39459835       0.00000000       5.39459835       0.00000000       0.00000000       0.00000000
Si       6.74324794       1.34864959       6.74324794       0.00000000       0.00000000      -0.00000000
Si       8.09189753       2.69729918       5.39459835      -0.00000000       0.00000000       0.00000000
Si       9.44054712       4.04594876       6.74324794      -0.00000000      -0.00000000       0.00000000
Si      10.78919671       5.39459835       5.39459835      -0.00000000       0.00000000       0.00000000
Si      12.13784629       6.74324794       6.74324794      -0.00000000       0.00000000       0.00000000
Si      13.48649588       8.09189753       5.39459835      -0.00000000       0.00000000       0.00000000
Si      14.83514547       9.44054712       6.74324794      -0.00000000       0.00000000       0.00000000
Si      16.18379506      10.78919671       5.39459835      -0.00000000       0.00000000       0.00000000
Si      17.53244465      12.13784629       6.74324794      -0.00000000      -0.00000000       0.00000000
Si      18.88109424      13.48649588       5.39459835       0.00000000       0.00000000       0.00000000
Si      20.22974382      14.83514547       6.74324794      -0.00000000      -0.00000000      -0.00000000
Si      21.57839341      16.18379506       5.39459835      -0.00000000       0.00000000       0.00000000
Si      22.92704300      17.53244465       6.74324794      -0.00000000      -0.00000000       0.00000000
Si      24.27569259      18.88109424       5.39459835      -0.00000000       0.00000000       0.00000000
Si      25.62434218      20.22974382       6.74324794      -0.00000000      -0.00000000       0.00000000
Si      26.97299176      21.57839341       5.39459835      -0.00000000       0.00000000      -0.00000000
Si      28.32164135      22.92704300       6.74324794      -0.00000000       0.00000000      -0.00000000
Si      29.67029094      24.27569259       5.39459835      -0.00000000       0.00000000       0.00000000
Si      31.01894053      25.62434218       6.74324794      -0.00000000      -0.00000000       0.00000000
Si       8.09189753       0.00000000       8.09189753      -0.00000000       0.00000000       0.00000000
Si       9.44054712       1.34864959       9.44054712      -0.00000000       0.00000000      -0.00000000
Si      10.78919671       2.69729918       8.09189753      -0.00000000       0.00000000       0.00000000
Si      12.13784629       4.04594876       9.44054712      -0.00000000       0.00000000      -0.00000000
Si      13.48649588       5.39459835       8.09189753      -0.00000000       0.00000000       0.00000000
Si      14.83514547       6.74324794       9.44054712      -0.00000000       0.00000000      -0.00000000
Si      16.18379506       8.09189753       8.09189753      -0.00000000       0.00000000       0.00000000
Si      17.53244465       9.44054712       9.44054712      -0.00000000       0.00000000      -0.00000000
Si      18.88109424      10.78919671       8.09189753      -0.00000000       0.00000000       0.00000000
Si      20.22974382      12.13784629       9.44054712       0.00000000       0.00000000      -0.00000000
Si      21.57839341      13.48649588       8.09189753      -0.00000000      -0.00000000       0.00000000
Si      22.92704300      14.83514547       9.44054712      -0.00000000       0.00000000      -0.00000000
Si      24.27569259      16.18379506       8.09189753      -0.00000000      -0.00000000       0.00000000
Si      25.62434218      17.53244465       9.44054712      -0.00000000      -0.00000000       0.00000000
Si      26.97299176      18.88109424       8.09189753       0.00000000       0.00000000       0.00000000
Si      28.32164135      20.22974382       9.44054712      -0.00000000      -0.00000000       0.00000000
Si      29.67029094      21.57839341       8.09189753      -0.00000000       0.00000000       0.00000000
Si      31.01894053      22.92704300       9.44054712      -0.00000000       0.00000000       0.00000000
Si      32.36759012      24.27569259       8.09189753      -0.00000000       0.00000000       0.00000000
Si      33.71623971      25.62434218       9.44054712      -0.00000000      -0.00000000       0.00000000
Si      10.78919671       0.00000000      10.78919671      -0.00000000       0.00000000       0.00000000
Si      12.13784629       1.34864959      12.13784629      -0.00000000       0.00000000       0.00000000
Si      13.48649588       2.69729918      10.78919671      -0.00000000       0.00000000       0.00000000
Si      14.83514547       4.04594876      12.13784629      -0.00000000       0.00000000      -0.00000000
Si      16.18379506       5.39459835      10.78919671      -0.00000000       0.00000000       0.00000000
Si      17.53244465       6.74324794      12.13784629      -0.00000000       0.00000000       0.00000000
Si      18.88109424       8.09189753      10.78919671      -0.00000000       0.00000000       0.00000000
Si      20.22974382       9.44054712      12.13784629       0.00000000       0.00000000       0.00000000
Si      21.57839341      10.78919671      10.78919671      -0.00000000       0.00000000       0.00000000
Si      22.92704300      12.13784629      12.13784629      -0.00000000       0.00000000      -0.00000000
Si      24.27569259      13.48649588      10.78919671      -0.00000000      -0.00000000       0.00000000
Si      25.62434218      14.83514547      12.13784629       0.00000000       0.00000000       0.00000000
Si      26.97299176      16.18379506      10.78919671      -0.00000000       0.00000000       0.00000000
Si      28.32164135      17.53244465      12.13784629       0.00000000       0.00000000       0.00000000
Si      29.67029094      18.88109424      10.78919671      -0.00000000       0.00000000       0.00000000
Si      31.01894053      20.22974382      12.13784629      -0.00000000       0.00000000      -0.00000000
Si      32.36759012      21.57839341      10.78919671      -0.00000000       0.00000000       0.00000000
Si      33.71623971      22.92704300      12.13784629      -0.00000000      -0.00000000      -0.00000000
Si      35.06488929      24.27569259      10.78919671      -0.00000000       0.00000000       0.00000000
Si      36.41353888      25.62434218      12.13784629      -0.00000000      -0.00000000      -0.00000000
Si      13.48649588       0.00000000      13.48649588      -0.00000000       0.00000000       0.00000000
Si      14.83514547       1.34864959      14.83514547      -0.00000000      -0.00000000      -0.00000000
Si      16.18379506       2.69729918      13.48649588      -0.00000000       0.00000000       0.00000000
Si      17.53244465       4.04594876      14.83514547      -0.00000000      -0.00000000       0.00000000
Si      18.88109424       5.39459835      13.48649588      -0.00000000       0.00000000       0.00000000
Si      20.22974382       6.74324794      14.83514547      -0.00000000       0.00000000       0.00000000
Si      21.57839341       8.09189753      13.48649588      -0.00000000       0.00000000       0.00000000
Si      22.92704300       9.44054712      14.83514547      -0.00000000      -0.00000000       0.00000000
Si      24.27569259      10.78919671      13.48649588      -0.00000000       0.00000000       0.00000000
Si      25.62434218      12.13784629      14.83514547      -0.00000000       0.00000000       0.00000000
Si      26.97299176      13.48649588      13.48649588      -0.00000000       0.00000000       0.00000000
Si      28.32164135      14.83514547      14.83514547      -0.00000000      -0.00000000      -0.00000000
Si      29.67029094      16.18379506      13.48649588      -0.00000000       0.00000000       0.00000000
Si      31.01894053      17.53244465      14.83514547       0.00000000       0.00000000       0.00000000
Si      32.36759012      18.88109424      13.48649588      -0.00000000       0.00000000       0.00000000
Si      33.71623971      20.22974382      14.83514547       0.00000000       0.00000000       0.00000000
Si      35.06488929      21.57839341      13.48649588      -0.00000000       0.00000000       0.00000000
Si      36.41353888      22.92704300      14.83514547      -0.00000000       0.00000000       0.00000000
Si      37.76218847      24.27569259      13.48649588      -0.00000000       0.00000000       0.00000000
Si      39.11083806      25.62434218      14.83514547      -0.00000000      -0.00000000       0.00000000
Si      16.18379506       0.00000000      16.18379506      -0.00000000       0.00000000       0.00000000
Si      17.53244465       1.34864959      17.53244465      -0.00000000       0.00000000      -0.00000000
Si      18.88109424       2.69729918      16.18379506      -0.00000000       0.00000000       0.00000000
Si      20.22974382       4.04594876      17.53244465       0.00000000       0.00000000       0.00000000
Si      21.57839341       5.39459835      16.18379506      -0.00000000       0.00000000       0.00000000
Si      22.92704300       6.74324794      17.53244465      -0.00000000       0.00000000      -0.00000000
Si      24.27569259       8.09189753      16.18379506      -0.00000000       0.00000000       0.00000000
Si      25.62434218       9.44054712      17.53244465      -0.00000000      -0.00000000      -0.00000000
Si      26.97299176      10.78919671      16.18379506      -0.00000000       0.00000000       0.00000000
Si      28.32164135      12.13784629      17.53244465      -0.00000000       0.00000000      -0.00000000
Si      29.67029094      13.48649588      16.18379506      -0.00000000       0.00000000       0.00000000
Si      31.01894053      14.83514547      17.53244465      -0.00000000      -0.00000000       0.00000000
Si      32.36759012      16.18379506      16.18379506      -0.00000000       0.00000000       0.00000000
Si      33.71623971      17.53244465      17.53244465      -0.00000000       0.00000000      -0.00000000
Si      35.06488929      18.88109424      16.18379506      -0.00000000       0.00000000       0.00000000
Si      36.41353888      20.22974382      17.53244465      -0.00000000       0.00000000      -0.00000000
Si      37.76218847      21.57839341      16.18379506      -0.00000000       0.00000000       0.00000000
Si      39.11083806      22.92704300      17.53244465       0.00000000       0.00000000      -0.00000000
Si      40.45948765      24.27569259      16.18379506      -0.00000000      -0.00000000       0.00000000
Si      41.80813723      25.62434218      17.53244465       0.00000000      -0.00000000       0.00000000
Si      18.88109424       0.00000000      18.88109424      -0.00000000       0.00000000       0.00000000
Si      20.22974382       1.34864959      20.22974382      -0.00000000       0.00000000      -0.00000000
Si      21.57839341       2.69729918      18.88109424      -0.00000000       0.00000000       0.00000000
Si      22.92704300       4.04594876      20.22974382      -0.00000000       0.00000000      -0.00000000
Si      24.27569259       5.39459835      18.88109424      -0.00000000       0.00000000       0.00000000
Si      25.62434218       6.74324794      20.22974382      -0.00000000       0.00000000      -0.00000000
Si      26.97299176       8.09189753      18.88109424      -0.00000000       0.00000000       0.00000000
Si      28.32164135       9.44054712      20.22974382      -0.00000000      -0.00000000      -0.00000000
Si      29.67029094      10.78919671      18.88109424      -0.00000000       0.00000000       0.00000000
Si      31.01894053      12.13784629      20.22974382       0.00000000       0.00000000      -0.00000000
Si      32.36759012      13.48649588      18.88109424      -0.00000000       0.00000000       0.00000000
Si      33.71623971      14.83514547      20.22974382      -0.00000000       0.00000000      -0.00000000
Si      35.06488929      16.18379506      18.88109424       0.00000000       0.00000000       0.00000000
Si      36.41353888      17.53244465      20.22974382      -0.00000000      -0.00000000      -0.00000000
Si      37.76218847      18.88109424      18.88109424       0.00000000       0.00000000       0.00000000
Si      39.11083806      20.22974382      20.22974382      -0.00000000      -0.00000000       0.00000000
Si      40.45948765      21.57839341      18.88109424      -0.00000000       0.00000000       0.00000000
Si      41.80813723      22.92704300      20.22974382       0.00000000       0.00000000      -0.00000000
Si      43.15678682      24.27569259      18.88109424      -0.00000000       0.00000000       0.00000000
Si      44.50543641      25.62434218      20.22974382      -0.00000000      -0.00000000       0.00000000
Si      21.57839341       0.00000000      21.57839341       0.00000000       0.00000000       0.00000000
Si      22.92704300       1.34864959      22.92704300      -0.00000000      -0.00000000      -0.00000000
Si      24.27569259       2.69729918      21.57839341      -0.00000000       0.00000000       0.00000000
Si      25.62434218       4.04594876      22.92704300      -0.00000000      -0.00000000      -0.00000000
Si      26.97299176       5.39459835      21.57839341       0.00000000       0.00000000       0.00000000
Si      28.32164135       6.74324794      22.92704300      -0.00000000      -0.00000000      -0.00000000
Si      29.67029094       8.09189753      21.57839341      -0.00000000       0.00000000       0.00000000
Si      31.01894053       9.44054712      22.92704300       0.00000000      -0.00000000      -0.00000000
Si      32.36759012      10.78919671      21.57839341      -0.00000000       0.00000000       0.00000000
Si      33.71623971      12.13784629      22.92704300      -0.00000000       0.00000000      -0.00000000
Si      35.06488929      13.48649588      21.57839341       0.00000000       0.00000000       0.00000000
Si      36.41353888      14.83514547      22.92704300      -0.00000000      -0.00000000      -0.00000000
Si      37.76218847      16.18379506      21.57839341      -0.00000000       0.00000000       0.00000000
Si      39.11083806      17.53244465      22.92704300       0.00000000      -0.00000000       0.00000000
Si      40.45948765      18.88109424      21.57839341      -0.00000000       0.00000000       0.00000000
Si      41.80813723      20.22974382      22.92704300      -0.00000000      -0.00000000       0.00000000
Si      43.15678682      21.57839341      21.57839341       0.00000000       0.00000000       0.00000000
Si      44.50543641      22.92704300      22.92704300       0.00000000       0.00000000      -0.00000000
Si      45.85408600      24.27569259      21.57839341      -0.00000000       0.00000000       0.00000000
Si      47.20273559      25.62434218      22.92704300      -0.00000000      -0.00000000       0.00000000
Si      24.27569259       0.00000000      24.27569259       0.00000000       0.00000000       0.00000000
Si      25.62434218       1.34864959      25.62434218      -0.00000000       0.00000000      -0.00000000
Si      26.97299176       2.69729918      24.27569259      -0.00000000       0.00000000       0.00000000
Si      28.32164135       4.04594876      25.62434218      -0.00000000       0.00000000      -0.00000000
Si      29.67029094       5.39459835      24.27569259      -0.00000000       0.00000000       0.00000000
Si      31.01894053       6.74324794      25.62434218      -0.00000000       0.00000000      -0.00000000
Si      32.36759012       8.09189753      24.27569259      -0.00000000       0.00000000       0.00000000
Si      33.71623971       9.44054712      25.62434218      -0.00000000       0.00000000      -0.00000000
Si      35.06488929      10.78919671      24.27569259      -0.00000000       0.00000000       0.00000000
Si      36.41353888      12.13784629      25.62434218      -0.00000000       0.00000000      -0.00000000
Si      37.76218847      13.48649588      24.27569259      -0.00000000       0.00000000       0.00000000
Si      39.11083806      14.83514547      25.62434218      -0.00000000       0.00000000      -0.00000000
Si      40.45948765      16.18379506      24.27569259      -0.00000000       0.00000000       0.00000000
Si      41.80813723      17.53244465      25.62434218      -0.00000000       0.00000000      -0.00000000
Si      43.15678682      18.88109424      24.27569259      -0.00000000       0.00000000       0.00000000
Si      44.50543641      20.22974382      25.62434218      -0.00000000      -0.00000000       0.00000000
Si      45.85408600      21.57839341      24.27569259       0.00000000       0.00000000       0.00000000
Si      47.20273559      22.92704300      25.62434218       0.00000000       0.00000000      -0.00000000
Si      48.55138518      24.27569259      24.27569259      -0.00000000       0.00000000       0.00000000
Si      49.90003476      25.62434218      25.62434218      -0.00000000      -0.00000000       0.00000000
Si       0.00000000       2.69729918       2.69729918      -0.00000000      -0.00000000      -0.00000000
Si       1.34864959       4.04594876       4.04594876       0.00000000       0.00000000       0.00000000
Si       2.69729918       5.39459835       2.69729918      -0.00000000      -0.00000000      -0.00000000
Si       4.04594876       6.74324794       4.04594876      -0.00000000       0.00000000       0.00000000
Si       5.39459835       8.09189753       2.69729918       0.00000000      -0.00000000       0.00000000
Si       6.74324794       9.44054712       4.04594876      -0.00000000       0.00000000      -0.00000000
Si       8.09189753      10.78919671       2.69729918      -0.00000000      -0.00000000       0.00000000
Si       9.44054712      12.13784629       4.04594876      -0.00000000      -0.00000000       0.00000000
Si      10.78919671      13.48649588       2.69729918       0.00000000      -0.00000000      -0.00000000
Si      12.13784629      14.83514547       4.04594876       0.00000000       0.00000000      -0.00000000
Si      13.48649588      16.18379506       2.69729918       0.00000000      -0.00000000      -0.00000000
Si      14.83514547      17.53244465       4.04594876       0.00000000      -0.00000000       0.00000000
Si      16.18379506      18.88109424       2.69729918       0.00000000       0.00000000       0.00000000
Si      17.53244465      20.22974382       4.04594876      -0.00000000       0.00000000       0.00000000
Si      18.88109424      21.57839341       2.69729918       0.00000000       0.00000000       0.00000000
Si      20.22974382      22.92704300       4.04594876      -0.00000000       0.00000000       0.00000000
Si      21.57839341      24.27569259       2.69729918       0.00000000      -0.00000000      -0.00000000
Si      22.92704300      25.62434218       4.04594876       0.00000000       0.00000000      -0.00000000
Si      24.27569259      26.97299176       2.69729918      -0.00000000      -0.00000000       0.00000000
Si      25.62434218      28.32164135       4.04594876      -0.00000000      -0.00000000       0.00000000
Si       2.69729918       2.69729918       5.39459835       0.00000000       0.00000000      -0.00000000
Si       4.04594876       4.04594876       6.74324794       0.00000000       0.00000000       0.00000000
Si       5.39459835       5.39459835       5.39459835      -0.00000000      -0.00000000       0.00000000
Si       6.74324794       6.74324794       6.74324794       0.00000000       0.00000000      -0.00000000
Si       8.09189753       8.09189753       5.39459835       0.00000000       0.00000000       0.00000000
Si       9.44054712       9.44054712       6.74324794      -0.00000000      -0.00000000      -0.00000000
Si      10.78919671      10.78919671       5.39459835       0.00000000       0.00000000       0.00000000
Si      12.13784629      12.13784629       6.74324794      -0.00000000      -0.00000000      -0.00000000
Si      13.48649588      13.48649588       5.39459835       0.00000000       0.00000000      -0.00000000
Si      14.83514547      14.83514547       6.74324794      -0.00000000      -0.00000000      -0.00000000
Si      16.18379506      16.18379506       5.39459835       0.00000000       0.00000000       0.00000000
Si      17.53244465      17.53244465       6.74324794      -0.00000000      -0.00000000      -0.00000000
Si      18.88109424      18.88109424       5.39459835      -0.00000000       0.00000000      -0.00000000
Si      20.22974382      20.22974382       6.74324794      -0.00000000      -0.00000000       0.00000000
Si      21.57839341      21.57839341       5.39459835       0.00000000       0.00000000      -0.00000000
Si      22.92704300      22.92704300       6.74324794      -0.00000000      -0.00000000       0.00000000
Si      24.27569259      24.27569259       5.39459835       0.00000000       0.00000000      -0.00000000
Si      25.62434218      25.62434218       6.74324794      -0.00000000      -0.00000000       0.00000000
Si      26.97299176      26.97299176       5.39459835       0.00000000       0.00000000       0.00000000
Si      28.32164135      28.32164135       6.74324794      -0.00000000      -0.00000000       0.00000000
Si       5.39459835       2.69729918       8.09189753      -0.00000000      -0.00000000      -0.00000000
Si       6.74324794       4.04594876       9.44054712       0.00000000       0.00000000       0.00000000
Si       8.09189753       5.39459835       8.09189753       0.00000000      -0.00000000      -0.00000000
Si       9.44054712       6.74324794       9.44054712       0.00000000      -0.00000000      -0.00000000
Si      10.78919671       8.09189753       8.09189753      -0.00000000      -0.00000000       0.00000000
Si      12.13784629       9.44054712       9.44054712       0.00000000       0.00000000      -0.00000000
Si      13.48649588      10.78919671       8.09189753       0.00000000      -0.00000000       0.00000000
Si      14.83514547      12.13784629       9.44054712      -0.00000000      -0.00000000      -0.00000000
Si      16.18379506      13.48649588       8.09189753       0.00000000       0.00000000       0.00000000
Si      17.53244465      14.83514547       9.44054712      -0.00000000       0.00000000      -0.00000000
Si      18.88109424      16.18379506       8.09189753      -0.00000000      -0.00000000       0.00000000
Si      20.22974382      17.53244465       9.44054712       0.00000000      -0.00000000      -0.00000000
Si      21.57839341      18.88109424       8.09189753       0.00000000      -0.00000000       0.00000000
Si      22.92704300      20.22974382       9.44054712      -0.00000000      -0.00000000       0.00000000
Si      24.27569259      21.57839341       8.09189753       0.00000000       0.00000000      -0.00000000
Si      25.62434218      22.92704300       9.44054712      -0.00000000      -0.00000000      -0.00000000
Si      26.97299176      24.27569259       8.09189753       0.00000000       0.00000000      -0.00000000
Si      28.32164135      25.62434218       9.44054712       0.00000000      -0.00000000      -0.00000000
Si      29.67029094      26.97299176       8.09189753      -0.00000000      -0.00000000      -0.00000000
Si      31.01894053      28.32164135       9.44054712       0.00000000      -0.00000000       0.00000000
Si       8.09189753       2.69729918      10.78919671       0.00000000       0.00000000      -0.00000000
Si       9.44054712       4.04594876      12.13784629      -0.00000000       0.00000000      -0.00000000
Si      10.78919671       5.39459835      10.78919671      -0.00000000       0.00000000      -0.00000000
Si      12.13784629       6.74324794      12.13784629       0.00000000       0.00000000       0.00000000
Si      13.48649588       8.09189753      10.78919671       0.00000000       0.00000000      -0.00000000
Si      14.83514547       9.44054712      12.13784629      -0.00000000       0.00000000      -0.00000000
Si      16.18379506      10.78919671      10.78919671       0.00000000      -0.00000000       0.00000000
Si      17.53244465      12.13784629      12.13784629      -0.00000000      -0.00000000       0.00000000
Si      18.88109424      13.48649588      10.78919671       0.00000000       0.00000000       0.00000000
Si      20.22974382      14.83514547      12.13784629      -0.00000000       0.00000000      -0.00000000
Si      21.57839341      16.18379506      10.78919671      -0.00000000       0.00000000      -0.00000000
Si      22.92704300      17.53244465      12.13784629      -0.00000000       0.00000000      -0.00000000
Si      24.27569259      18.88109424      10.78919671      -0.00000000      -0.00000000       0.00000000
Si      25.62434218      20.22974382      12.13784629      -0.00000000      -0.00000000       0.00000000
Si      26.97299176      21.57839341      10.78919671       0.00000000       0.00000000      -0.00000000
Si      28.32164135      22.92704300      12.13784629      -0.00000000       0.00000000      -0.00000000
Si      29.67029094      24.27569259      10.78919671       0.00000000      -0.00000000      -0.00000000
Si      31.01894053      25.62434218      12.13784629       0.00000000      -0.00000000      -0.00000000
Si      32.36759012      26.97299176      10.78919671      -0.00000000       0.00000000       0.00000000
Si      33.71623971      28.32164135      12.13784629      -0.00000000      -0.00000000       0.00000000
Si      10.78919671       2.69729918      13.48649588       0.00000000       0.00000000      -0.00000000
Si      12.13784629       4.04594876      14.83514547       0.00000000      -0.00000000       0.00000000
Si      13.48649588       5.39459835      13.48649588      -0.00000000      -0.00000000       0.00000000
Si      14.83514547       6.74324794      14.83514547       0.00000000       0.00000000      -0.00000000
Si      16.18379506       8.09189753      13.48649588       0.00000000      -0.00000000       0.00000000
Si      17.53244465       9.44054712      14.83514547      -0.00000000      -0.00000000       0.00000000
Si      18.88109424      10.78919671      13.48649588       0.00000000       0.00000000      -0.00000000
Si      20.22974382      12.13784629      14.83514547       0.00000000      -0.00000000       0.00000000
Si      21.57839341      13.48649588      13.48649588       0.00000000      -0.00000000       0.00000000
Si      22.92704300      14.83514547      14.83514547       0.00000000       0.00000000      -0.00000000
Si      24.27569259      16.18379506      13.48649588      -0.00000000      -0.00000000       0.00000000
Si      25.62434218      17.53244465      14.83514547       0.00000000      -0.00000000       0.00000000
Si      26.97299176      18.88109424      13.48649588      -0.00000000      -0.00000000       0.00000000
Si      28.32164135      20.22974382      14.83514547       0.00000000      -0.00000000       0.00000000
Si      29.67029094      21.57839341      13.48649588       0.00000000       0.00000000       0.00000000
Si      31.01894053      22.92704300      14.83514547       0.00000000       0.00000000      -0.00000000
Si      32.36759012      24.27569259      13.48649588      -0.00000000      -0.00000000      -0.00000000
Si      33.71623971      25.62434218      14.83514547      -0.00000000       0.00000000       0.00000000
Si      35.06488929      26.97299176      13.48649588      -0.00000000      -0.00000000      -0.00000000
Si      36.41353888      28.32164135      14.83514547       0.00000000       0.00000000       0.00000000
Si      13.48649588       2.69729918      16.18379506      -0.00000000       0.00000000      -0.00000000
Si      14.83514547       4.04594876      17.53244465       0.00000000       0.00000000      -0.00000000
Si      16.18379506       5.39459835      16.18379506       0.00000000       0.00000000       0.00000000
Si      17.53244465       6.74324794      17.53244465      -0.00000000      -0.00000000      -0.00000000
Si      18.88109424       8.09189753      16.18379506       0.00000000       0.00000000       0.00000000
Si      20.22974382       9.44054712      17.53244465      -0.00000000      -0.00000000       0.00000000
Si      21.57839341      10.78919671      16.18379506      -0.00000000       0.00000000      -0.00000000
Si      22.92704300      12.13784629      17.53244465      -0.00000000       0.00000000      -0.00000000
Si      24.27569259      13.48649588      16.18379506       0.00000000       0.00000000       0.00000000
Si      25.62434218      14.83514547      17.53244465      -0.00000000      -0.00000000      -0.00000000
Si      26.97299176      16.18379506      16.18379506      -0.00000000       0.00000000      -0.00000000
Si      28.32164135      17.53244465      17.53244465       0.00000000       0.00000000      -0.00000000
Si      29.67029094      18.88109424      16.18379506      -0.00000000      -0.00000000       0.00000000
Si      31.01894053      20.22974382      17.53244465       0.00000000      -0.00000000       0.00000000
Si      32.36759012      21.57839341      16.18379506      -0.00000000      -0.00000000       0.00000000
Si      33.71623971      22.92704300      17.53244465      -0.00000000       0.00000000      -0.00000000
Si      35.06488929      24.27569259      16.18379506      -0.00000000      -0.00000000      -0.00000000
Si      36.41353888      25.62434218      17.53244465      -0.00000000      -0.00000000      -0.00000000
Si      37.76218847      26.97299176      16.18379506       0.00000000      -0.00000000       0.00000000
Si      39.11083806      28.32164135      17.53244465      -0.00000000      -0.00000000       0.00000000
Si      16.18379506       2.69729918      18.88109424       0.00000000       0.00000000      -0.00000000
Si      17.53244465       4.04594876      20.22974382       0.00000000       0.00000000       0.00000000
Si      18.88109424       5.39459835      18.88109424      -0.00000000      -0.00000000      -0.00000000
Si      20.22974382       6.74324794      20.22974382       0.00000000       0.00000000      -0.00000000
Si      21.57839341       8.09189753      18.88109424      -0.00000000      -0.00000000      -0.00000000
Si      22.92704300       9.44054712      20.22974382       0.00000000       0.00000000      -0.00000000
Si      24.27569259      10.78919671      18.88109424       0.00000000      -0.00000000       0.00000000
Si      25.62434218      12.13784629      20.22974382      -0.00000000      -0.00000000       0.00000000
Si      26.97299176      13.48649588      18.88109424       0.00000000       0.00000000       0.00000000
Si      28.32164135      14.83514547      20.22974382       0.00000000      -0.00000000       0.00000000
Si      29.67029094      16.18379506      18.88109424      -0.00000000      -0.00000000       0.00000000
Si      31.01894053      17.53244465      20.22974382       0.00000000       0.00000000      -0.00000000
Si      32.36759012      18.88109424      18.88109424      -0.00000000      -0.00000000      -0.00000000
Si      33.71623971      20.22974382      20.22974382       0.00000000       0.00000000      -0.00000000
Si      35.06488929      21.57839341      18.88109424       0.00000000      -0.00000000       0.00000000
Si      36.41353888      22.92704300      20.22974382      -0.00000000      -0.00000000       0.00000000
Si      37.76218847      24.27569259      18.88109424       0.00000000       0.00000000      -0.00000000
Si      39.11083806      25.62434218      20.22974382       0.00000000       0.00000000      -0.00000000
Si      40.45948765      26.97299176      18.88109424      -0.00000000      -0.00000000       0.00000000
Si      41.80813723      28.32164135      20.22974382      -0.00000000      -0.00000000       0.00000000
Si      18.88109424       2.69729918      21.57839341       0.00000000       0.00000000      -0.00000000
Si      20.22974382       4.04594876      22.92704300       0.00000000       0.00000000      -0.00000000
Si      21.57839341       5.39459835      21.57839341      -0.00000000      -0.00000000      -0.00000000
Si      22.92704300       6.74324794      22.92704300       0.00000000       0.00000000      -0.00000000
Si      24.27569259       8.09189753      21.57839341       0.00000000       0.00000000      -0.00000000
Si      25.62434218       9.44054712      22.92704300       0.00000000      -0.00000000      -0.00000000
Si      26.97299176      10.78919671      21.57839341      -0.00000000       0.00000000       0.00000000
Si      28.32164135      12.13784629      22.92704300      -0.00000000      -0.00000000       0.00000000
Si      29.67029094      13.48649588      21.57839341      -0.00000000       0.00000000      -0.00000000
Si      31.01894053      14.83514547      22.92704300      -0.00000000      -0.00000000       0.00000000
Si      32.36759012      16.18379506      21.57839341       0.00000000       0.00000000      -0.00000000
Si      33.71623971      17.53244465      22.92704300       0.00000000       0.00000000      -0.00000000
Si      35.06488929      18.88109424      21.57839341      -0.00000000      -0.00000000       0.00000000
Si      36.41353888      20.22974382      22.92704300      -0.00000000       0.00000000      -0.00000000
Si      37.76218847      21.57839341      21.57839341      -0.00000000       0.00000000      -0.00000000
Si      39.11083806      22.92704300      22.92704300      -0.00000000      -0.00000000       0.00000000
Si      40.45948765      24.27569259      21.57839341       0.00000000       0.00000000      -0.00000000
Si      41.80813723      25.62434218      22.92704300       0.00000000       0.00000000      -0.00000000
Si      43.15678682      26.97299176      21.57839341      -0.00000000      -0.00000000       0.00000000
Si      44.50543641      28.32164135      22.92704300      -0.00000000      -0.00000000       0.00000000
Si      21.57839341       2.69729918      24.27569259       0.00000000       0.00000000       0.00000000
Si      22.92704300       4.04594876      25.62434218      -0.00000000       0.00000000      -0.00000000
Si      24.27569259       5.39459835      24.27569259      -0.00000000      -0.00000000       0.00000000
Si      25.62434218       6.74324794      25.62434218       0.00000000      -0.00000000       0.00000000
Si      26.97299176       8.09189753      24.27569259       0.00000000       0.00000000       0.00000000
Si      28.32164135       9.44054712      25.62434218       0.00000000      -0.00000000      -0.00000000
Si      29.67029094      10.78919671      24.27569259      -0.00000000      -0.00000000       0.00000000
Si      31.01894053      12.13784629      25.62434218       0.00000000       0.00000000       0.00000000
Si      32.36759012      13.48649588      24.27569259      -0.00000000      -0.00000000       0.00000000
Si      33.71623971      14.83514547      25.62434218      -0.00000000      -0.00000000       0.00000000
Si      35.06488929      16.18379506      24.27569259       0.00000000       0.00000000       0.00000000
Si      36.41353888      17.53244465      25.62434218      -0.00000000       0.00000000      -0.00000000
Si      37.76218847      18.88109424      24.27569259      -0.00000000      -0.00000000       0.00000000
Si      39.11083806      20.22974382      25.62434218      -0.00000000      -0.00000000       0.00000000
Si      40.45948765      21.57839341      24.27569259       0.00000000       0.00000000       0.00000000
Si      41.80813723      22.92704300      25.62434218       0.00000000      -0.00000000       0.00000000
Si      43.15678682      24.27569259      24.27569259       0.00000000       0.00000000       0.00000000
Si      44.50543641      25.62434218      25.62434218      -0.00000000      -0.00000000      -0.00000000
Si      45.85408600      26.97299176      24.27569259       0.00000000       0.00000000       0.00000000
Si      47.20273559      28.32164135      25.62434218      -0.00000000      -0.00000000       0.00000000
Si      24.27569259       2.69729918      26.97299176       0.00000000       0.00000000       0.00000000
Si      25.62434218       4.04594876      28.32164135       0.00000000       0.00000000      -0.00000000
Si      26.97299176       5.39459835      26.97299176      -0.00000000      -0.00000000      -0.00000000
Si      28.32164135       6.74324794      28.32164135       0.00000000       0.00000000       0.00000000
Si      29.67029094       8.09189753      26.97299176       0.00000000       0.00000000       0.00000000
Si      31.01894053       9.44054712      28.32164135      -0.00000000       0.00000000      -0.00000000
Si      32.36759012      10.78919671      26.97299176      -0.00000000       0.00000000      -0.00000000
Si      33.71623971      12.13784629      28.32164135      -0.00000000       0.00000000      -0.00000000
Si      35.06488929      13.48649588      26.97299176      -0.00000000       0.00000000       0.00000000
Si      36.41353888      14.83514547      28.32164135      -0.00000000       0.00000000      -0.00000000
Si      37.76218847      16.18379506      26.97299176      -0.00000000      -0.00000000       0.00000000
Si      39.11083806      17.53244465      28.32164135       0.00000000       0.00000000      -0.00000000
Si      40.45948765      18.88109424      26.97299176      -0.00000000      -0.00000000       0.00000000
Si      41.80813723      20.22974382      28.32164135      -0.00000000      -0.00000000      -0.00000000
Si      43.15678682      21.57839341      26.97299176      -0.00000000       0.00000000      -0.00000000
Si      44.50543641      22.92704300      28.32164135       0.00000000       0.00000000      -0.00000000
Si      45.85408600      24.27569259      26.97299176      -0.00000000       0.00000000       0.00000000
Si      47.20273559      25.62434218      28.32164135      -0.00000000       0.00000000      -0.00000000
Si      48.55138518      26.97299176      26.97299176       0.00000000      -0.00000000       0.00000000
Si      49.90003476      28.32164135      28.32164135      -0.00000000      -0.00000000       0.00000000
Si       0.00000000       5.39459835       5.39459835       0.00000000       0.00000000      -0.00000000
Si       1.34864959       6.74324794       6.74324794       0.00000000       0.00000000       0.00000000
Si       2.69729918       8.09189753       5.39459835       0.00000000      -0.00000000      -0.00000000
Si       4.04594876       9.44054712       6.74324794      -0.00000000       0.00000000       0.00000000
Si       5.39459835      10.78919671       5.39459835       0.00000000      -0.00000000      -0.00000000
Si       6.74324794      12.13784629       6.74324794       0.00000000       0.00000000       0.00000000
Si       8.09189753      13.48649588       5.39459835      -0.00000000       0.00000000      -0.00000000
Si       9.44054712      14.83514547       6.74324794      -0.00000000      -0.00000000       0.00000000
Si      10.78919671      16.18379506       5.39459835       0.00000000       0.00000000      -0.00000000
Si      12.13784629      17.53244465       6.74324794      -0.00000000      -0.00000000      -0.00000000
Si      13.48649588      18.88109424       5.39459835       0.00000000       0.00000000       0.00000000
Si      14.83514547      20.22974382       6.74324794       0.00000000       0.00000000      -0.00000000
Si      16.18379506      21.57839341       5.39459835      -0.00000000      -0.00000000      -0.00000000
Si      17.53244465      22.92704300       6.74324794       0.00000000       0.00000000       0.00000000
Si      18.88109424      24.27569259       5.39459835       0.00000000      -0.00000000       0.00000000
Si      20.22974382      25.62434218       6.74324794      -0.00000000      -0.00000000       0.00000000
Si      21.57839341      26.97299176       5.39459835      -0.00000000       0.00000000       0.00000000
Si      22.92704300      28.32164135       6.74324794      -0.00000000      -0.00000000       0.00000000
Si      24.27569259      29.67029094       5.39459835       0.00000000       0.00000000       0.00000000
Si      25.62434218      31.01894053       6.74324794      -0.00000000      -0.00000000       0.00000000
Si       2.69729918       5.39459835       8.09189753       0.00000000       0.00000000      -0.00000000
Si       4.04594876       6.74324794       9.44054712       0.00000000      -0.00000000       0.00000000
Si       5.39459835       8.09189753       8.09189753       0.00000000       0.00000000      -0.00000000
Si       6.74324794       9.44054712       9.44054712       0.00000000       0.00000000       0.00000000
Si       8.09189753      10.78919671       8.09189753       0.00000000       0.00000000       0.00000000
Si       9.44054712      12.13784629       9.44054712      -0.00000000      -0.00000000      -0.00000000
Si      10.78919671      13.48649588       8.09189753      -0.00000000      -0.00000000       0.00000000
Si      12.13784629      14.83514547       9.44054712       0.00000000       0.00000000       0.00000000
Si      13.48649588      16.18379506       8.09189753      -0.00000000      -0.00000000       0.00000000
Si      14.83514547      17.53244465       9.44054712       0.00000000       0.00000000       0.00000000
Si      16.18379506      18.88109424       8.09189753      -0.00000000       0.00000000       0.00000000
Si      17.53244465      20.22974382       9.44054712       0.00000000       0.00000000      -0.00000000
Si      18.88109424      21.57839341       8.09189753      -0.00000000      -0.00000000       0.00000000
Si      20.22974382      22.92704300       9.44054712      -0.00000000      -0.00000000       0.00000000
Si      21.57839341      24.27569259       8.09189753       0.00000000       0.00000000      -0.00000000
Si      22.92704300      25.62434218       9.44054712       0.00000000      -0.00000000      -0.00000000
Si      24.27569259      26.97299176       8.09189753       0.00000000       0.00000000       0.00000000
Si      25.62434218      28.32164135       9.44054712      -0.00000000      -0.00000000       0.00000000
Si      26.97299176      29.67029094       8.09189753       0.00000000       0.00000000      -0.00000000
Si      28.32164135      31.01894053       9.44054712      -0.00000000      -0.00000000       0.00000000
Si       5.39459835       5.39459835      10.78919671       0.00000000       0.00000000      -0.00000000
Si       6.74324794       6.74324794      12.13784629      -0.00000000       0.00000000      -0.00000000
Si       8.09189753       8.09189753      10.78919671      -0.00000000       0.00000000       0.00000000
Si       9.44054712       9.44054712      12.13784629      -0.00000000       0.00000000       0.00000000
Si      10.78919671      10.78919671      10.78919671       0.00000000       0.00000000       0.00000000
Si      12.13784629      12.13784629      12.13784629      -0.00000000      -0.00000000      -0.00000000
Si      13.48649588      13.48649588      10.78919671      -0.00000000       0.00000000       0.00000000
Si      14.83514547      14.83514547      12.13784629      -0.00000000       0.00000000       0.00000000
Si      16.18379506      16.18379506      10.78919671       0.00000000       0.00000000       0.00000000
Si      17.53244465      17.53244465      12.13784629      -0.00000000      -0.00000000      -0.00000000
Si      18.88109424      18.88109424      10.78919671       0.00000000       0.00000000       0.00000000
Si      20.22974382      20.22974382      12.13784629      -0.00000000      -0.00000000      -0.00000000
Si      21.57839341      21.57839341      10.78919671       0.00000000       0.00000000       0.00000000
Si      22.92704300      22.92704300      12.13784629      -0.00000000       0.00000000      -0.00000000
Si      24.27569259      24.27569259      10.78919671       0.00000000       0.00000000      -0.00000000
Si      25.62434218      25.62434218      12.13784629      -0.00000000      -0.00000000       0.00000000
Si      26.97299176      26.97299176      10.78919671       0.00000000       0.00000000       0.00000000
Si      28.32164135      28.32164135      12.13784629      -0.00000000      -0.00000000      -0.00000000
Si      29.67029094      29.67029094      10.78919671      -0.00000000      -0.00000000      -0.00000000
Si      31.01894053      31.01894053      12.13784629      -0.00000000       0.00000000       0.00000000
Si       8.09189753       5.39459835      13.48649588       0.00000000      -0.00000000      -0.00000000
Si       9.44054712       6.74324794      14.83514547       0.00000000       0.00000000      -0.00000000
Si      10.78919671       8.09189753      13.48649588       0.00000000      -0.00000000       0.00000000
Si      12.13784629       9.44054712      14.83514547      -0.00000000      -0.00000000      -0.00000000
Si      13.48649588      10.78919671      13.48649588       0.00000000       0.00000000       0.00000000
Si      14.83514547      12.13784629      14.83514547      -0.00000000      -0.00000000      -0.00000000
Si      16.18379506      13.48649588      13.48649588       0.00000000       0.00000000       0.00000000
Si      17.53244465      14.83514547      14.83514547      -0.00000000       0.00000000      -0.00000000
Si      18.88109424      16.18379506      13.48649588       0.00000000      -0.00000000       0.00000000
Si      20.22974382      17.53244465      14.83514547       0.00000000       0.00000000      -0.00000000
Si      21.57839341      18.88109424      13.48649588      -0.00000000      -0.00000000       0.00000000
Si      22.92704300      20.22974382      14.83514547      -0.00000000      -0.00000000      -0.00000000
Si      24.27569259      21.57839341      13.48649588       0.00000000       0.00000000       0.00000000
Si      25.62434218      22.92704300      14.83514547      -0.00000000       0.00000000       0.00000000
Si      26.97299176      24.27569259      13.48649588      -0.00000000      -0.00000000      -0.00000000
Si      28.32164135      25.62434218      14.83514547       0.00000000       0.00000000      -0.00000000
Si      29.67029094      26.97299176      13.48649588      -0.00000000      -0.00000000       0.00000000
Si      31.01894053      28.32164135      14.83514547       0.00000000       0.00000000      -0.00000000
Si      32.36759012      29.67029094      13.48649588      -0.00000000      -0.00000000       0.00000000
Si      33.71623971      31.01894053      14.83514547       0.00000000      -0.00000000       0.00000000
Si      10.78919671       5.39459835      16.18379506       0.00000000       0.00000000      -0.00000000
Si      12.13784629       6.74324794      17.53244465       0.00000000       0.00000000      -0.00000000
Si      13.48649588       8.09189753      16.18379506       0.00000000      -0.00000000       0.00000000
Si      14.83514547       9.44054712      17.53244465      -0.00000000      -0.00000000      -0.00000000
Si      16.18379506      10.78919671      16.18379506       0.00000000       0.00000000       0.00000000
Si      17.53244465      12.13784629      17.53244465      -0.00000000      -0.00000000      -0.00000000
Si      18.88109424      13.48649588      16.18379506       0.00000000      -0.00000000       0.00000000
Si      20.22974382      14.83514547      17.53244465       0.00000000      -0.00000000      -0.00000000
Si      21.57839341      16.18379506      16.18379506      -0.00000000       0.00000000       0.00000000
Si      22.92704300      17.53244465      17.53244465      -0.00000000       0.00000000      -0.00000000
Si      24.27569259      18.88109424      16.18379506      -0.00000000      -0.00000000       0.00000000
Si      25.62434218      20.22974382      17.53244465       0.00000000      -0.00000000       0.00000000
Si      26.97299176      21.57839341      16.18379506      -0.00000000      -0.00000000      -0.00000000
Si      28.32164135      22.92704300      17.53244465       0.00000000       0.00000000      -0.00000000
Si      29.67029094      24.27569259      16.18379506      -0.00000000      -0.00000000       0.00000000
Si      31.01894053      25.62434218      17.53244465       0.00000000      -0.00000000       0.00000000
Si      32.36759012      26.97299176      16.18379506       0.00000000       0.00000000       0.00000000
Si      33.71623971      28.32164135      17.53244465      -0.00000000       0.00000000      -0.00000000
Si      35.06488929      29.67029094      16.18379506      -0.00000000       0.00000000       0.00000000
Si      36.41353888      31.01894053      17.53244465      -0.00000000      -0.00000000       0.00000000
Si      13.48649588       5.39459835      18.88109424       0.00000000       0.00000000      -0.00000000
Si      14.83514547       6.74324794      20.22974382      -0.00000000       0.00000000       0.00000000
Si      16.18379506       8.09189753      18.88109424       0.00000000       0.00000000       0.00000000
Si      17.53244465       9.44054712      20.22974382      -0.00000000      -0.00000000       0.00000000
Si      18.88109424      10.78919671      18.88109424       0.00000000       0.00000000      -0.00000000
Si      20.22974382      12.13784629      20.22974382      -0.00000000       0.00000000       0.00000000
Si      21.57839341      13.48649588      18.88109424       0.00000000       0.00000000       0.00000000
Si      22.92704300      14.83514547      20.22974382      -0.00000000      -0.00000000       0.00000000
Si      24.27569259      16.18379506      18.88109424       0.00000000       0.00000000       0.00000000
Si      25.62434218      17.53244465      20.22974382      -0.00000000      -0.00000000       0.00000000
Si      26.97299176      18.88109424      18.88109424       0.00000000       0.00000000       0.00000000
Si      28.32164135      20.22974382      20.22974382      -0.00000000       0.00000000      -0.00000000
Si      29.67029094      21.57839341      18.88109424      -0.00000000      -0.00000000       0.00000000
Si      31.01894053      22.92704300      20.22974382       0.00000000      -0.00000000      -0.00000000
Si      32.36759012      24.27569259      18.88109424      -0.00000000      -0.00000000       0.00000000
Si      33.71623971      25.62434218      20.22974382      -0.00000000      -0.00000000      -0.00000000
Si      35.06488929      26.97299176      18.88109424      -0.00000000      -0.00000000       0.00000000
Si      36.41353888      28.32164135      20.22974382       0.00000000       0.00000000      -0.00000000
Si      37.76218847      29.67029094      18.88109424       0.00000000      -0.00000000       0.00000000
Si      39.11083806      31.01894053      20.22974382      -0.00000000      -0.00000000       0.00000000
Si      16.18379506       5.39459835      21.57839341       0.00000000       0.00000000      -0.00000000
Si      17.53244465       6.74324794      22.92704300      -0.00000000       0.00000000      -0.00000000
Si      18.88109424       8.09189753      21.57839341       0.00000000       0.00000000       0.00000000
Si      20.22974382       9.44054712      22.92704300      -0.00000000      -0.00000000      -0.00000000
Si      21.57839341      10.78919671      21.57839341      -0.00000000       0.00000000       0.00000000
Si      22.92704300      12.13784629      22.92704300      -0.00000000       0.00000000      -0.00000000
Si      24.27569259      13.48649588      21.57839341      -0.00000000      -0.00000000      -0.00000000
Si      25.62434218      14.83514547      22.92704300       0.00000000      -0.00000000      -0.00000000
Si      26.97299176      16.18379506      21.57839341       0.00000000       0.00000000       0.00000000
Si      28.32164135      17.53244465      22.92704300      -0.00000000      -0.00000000       0.00000000
Si      29.67029094      18.88109424      21.57839341       0.00000000      -0.00000000       0.00000000
Si      31.01894053      20.22974382      22.92704300       0.00000000      -0.00000000      -0.00000000
Si      32.36759012      21.57839341      21.57839341      -0.00000000      -0.00000000       0.00000000
Si      33.71623971      22.92704300      22.92704300      -0.00000000       0.00000000      -0.00000000
Si      35.06488929      24.27569259      21.57839341       0.00000000      -0.00000000       0.00000000
Si      36.41353888      25.62434218      22.92704300      -0.00000000      -0.00000000       0.00000000
Si      37.76218847      26.97299176      21.57839341       0.00000000       0.00000000       0.00000000
Si      39.11083806      28.32164135      22.92704300       0.00000000       0.00000000      -0.00000000
Si      40.45948765      29.67029094      21.57839341      -0.00000000      -0.00000000       0.00000000
Si      41.80813723      31.01894053      22.92704300      -0.00000000      -0.00000000      -0.00000000
Si      18.88109424       5.39459835      24.27569259       0.00000000       0.00000000      -0.00000000
Si      20.22974382       6.74324794      25.62434218      -0.00000000       0.00000000      -0.00000000
Si      21.57839341       8.09189753      24.27569259       0.00000000       0.00000000       0.00000000
Si      22.92704300       9.44054712      25.62434218      -0.00000000      -0.00000000      -0.00000000
Si      24.27569259      10.78919671      24.27569259       0.00000000       0.00000000       0.00000000
Si      25.62434218      12.13784629      25.62434218      -0.00000000      -0.00000000      -0.00000000
Si      26.97299176      13.48649588      24.27569259       0.00000000       0.00000000       0.00000000
Si      28.32164135      14.83514547      25.62434218      -0.00000000      -0.00000000       0.00000000
Si      29.67029094      16.18379506      24.27569259       0.00000000       0.00000000      -0.00000000
Si      31.01894053      17.53244465      25.62434218      -0.00000000      -0.00000000       0.00000000
Si      32.36759012      18.88109424      24.27569259       0.00000000       0.00000000       0.00000000
Si      33.71623971      20.22974382      25.62434218      -0.00000000       0.00000000      -0.00000000
Si      35.06488929      21.57839341      24.27569259       0.00000000      -0.00000000       0.00000000
Si      36.41353888      22.92704300      25.62434218      -0.00000000       0.00000000      -0.00000000
Si      37.76218847      24.27569259      24.27569259      -0.00000000      -0.00000000      -0.00000000
Si      39.11083806      25.62434218      25.62434218      -0.00000000      -0.00000000       0.00000000
Si      40.45948765      26.97299176      24.27569259       0.00000000       0.00000000       0.00000000
Si      41.80813723      28.32164135      25.62434218      -0.00000000       0.00000000      -0.00000000
Si      43.15678682      29.67029094      24.27569259       0.00000000       0.00000000       0.00000000
Si      44.50543641      31.01894053      25.62434218      -0.00000000      -0.00000000      -0.00000000
Si      21.57839341       5.39459835      26.97299176       0.00000000      -0.00000000      -0.00000000
Si      22.92704300       6.74324794      28.32164135       0.00000000       0.00000000       0.00000000
Si      24.27569259       8.09189753      26.97299176       0.00000000      -0.00000000       0.00000000
Si      25.62434218       9.44054712      28.32164135       0.00000000      -0.00000000       0.00000000
Si      26.97299176      10.78919671      26.97299176       0.00000000       0.00000000       0.00000000
Si      28.32164135      12.13784629      28.32164135      -0.00000000       0.00000000      -0.00000000
Si      29.67029094      13.48649588      26.97299176       0.00000000      -0.00000000       0.00000000
Si      31.01894053      14.83514547      28.32164135       0.00000000      -0.00000000      -0.00000000
Si      32.36759012      16.18379506      26.97299176      -0.00000000      -0.00000000       0.00000000
Si      33.71623971      17.53244465      28.32164135      -0.00000000      -0.00000000       0.00000000
Si      35.06488929      18.88109424      26.97299176       0.00000000      -0.00000000      -0.00000000
Si      36.41353888      20.22974382      28.32164135      -0.00000000      -0.00000000       0.00000000
Si      37.76218847      21.57839341      26.97299176       0.00000000      -0.00000000       0.00000000
Si      39.11083806      22.92704300      28.32164135       0.00000000      -0.00000000       0.00000000
Si      40.45948765      24.27569259      26.97299176       0.00000000      -0.00000000       0.00000000
Si      41.80813723      25.62434218      28.32164135       0.00000000      -0.00000000       0.00000000
Si      43.15678682      26.97299176      26.97299176       0.00000000      -0.00000000       0.00000000
Si      44.50543641      28.32164135      28.32164135       0.00000000      -0.00000000       0.00000000
Si      45.85408600      29.67029094      26.97299176       0.00000000      -0.00000000       0.00000000
Si      47.20273559      31.01894053      28.32164135      -0.00000000      -0.00000000       0.00000000
Si      24.27569259       5.39459835      29.67029094      -0.00000000       0.00000000      -0.00000000
Si      25.62434218       6.74324794      31.01894053       0.00000000       0.00000000       0.00000000
Si      26.97299176       8.09189753      29.67029094      -0.00000000       0.00000000       0.00000000
Si      28.32164135       9.44054712      31.01894053      -0.00000000      -0.00000000      -0.00000000
Si      29.67029094      10.78919671      29.67029094       0.00000000      -0.00000000      -0.00000000
Si      31.01894053      12.13784629      31.01894053      -0.00000000       0.00000000      -0.00000000
Si      32.36759012      13.48649588      29.67029094      -0.00000000       0.00000000       0.00000000
Si      33.71623971      14.83514547      31.01894053      -0.00000000       0.00000000      -0.00000000
Si      35.06488929      16.18379506      29.67029094      -0.00000000       0.00000000       0.00000000
Si      36.41353888      17.53244465      31.01894053      -0.00000000      -0.00000000      -0.00000000
Si      37.76218847      18.88109424      29.67029094      -0.00000000       0.00000000      -0.00000000
Si      39.11083806      20.22974382      31.01894053      -0.00000000      -0.00000000      -0.00000000
Si      40.45948765      21.57839341      29.67029094      -0.00000000       0.00000000      -0.00000000
Si      41.80813723      22.92704300      31.01894053       0.00000000       0.00000000      -0.00000000
Si      43.15678682      24.27569259      29.67029094      -0.00000000       0.00000000       0.00000000
Si      44.50543641      25.62434218      31.01894053      -0.00000000       0.00000000      -0.00000000
Si      45.85408600      26.97299176      29.67029094      -0.00000000       0.00000000      -0.00000000
Si      47.20273559      28.32164135      31.01894053      -0.00000000      -0.00000000       0.00000000
Si      48.55138518      29.67029094      29.67029094       0.00000000       0.00000000      -0.00000000
Si      49.90003476      31.01894053      31.01894053      -0.00000000      -0.00000000      -0.00000000
Si       0.00000000       8.09189753       8.09189753       0.00000000      -0.00000000      -0.00000000
Si       1.34864959       9.44054712       9.44054712       0.00000000      -0.00000000       0.00000000
Si       2.69729918      10.78919671       8.09189753       0.00000000      -0.00000000      -0.00000000
Si       4.04594876      12.13784629       9.44054712       0.00000000      -0.00000000       0.00000000
Si       5.39459835      13.48649588       8.09189753       0.00000000      -0.00000000      -0.00000000
Si       6.74324794      14.83514547       9.44054712      -0.00000000       0.00000000       0.00000000
Si       8.09189753      16.18379506       8.09189753      -0.00000000      -0.00000000      -0.00000000
Si       9.44054712      17.53244465       9.44054712       0.00000000      -0.00000000       0.00000000
Si      10.78919671      18.88109424       8.09189753       0.00000000      -0.00000000       0.00000000
Si      12.13784629      20.22974382       9.44054712       0.00000000       0.00000000       0.00000000
Si      13.48649588      21.57839341       8.09189753      -0.00000000      -0.00000000      -0.00000000
Si      14.83514547      22.92704300       9.44054712       0.00000000       0.00000000       0.00000000
Si      16.18379506      24.27569259       8.09189753       0.00000000      -0.00000000      -0.00000000
Si      17.53244465      25.62434218       9.44054712       0.00000000      -0.00000000       0.00000000
Si      18.88109424      26.97299176       8.09189753       0.00000000       0.00000000       0.00000000
Si      20.22974382      28.32164135       9.44054712      -0.00000000      -0.00000000      -0.00000000
Si      21.57839341      29.67029094       8.09189753       0.00000000       0.00000000       0.00000000
Si      22.92704300      31.01894053       9.44054712      -0.00000000       0.00000000      -0.00000000
Si      24.27569259      32.36759012       8.09189753      -0.00000000      -0.00000000       0.00000000
Si      25.62434218      33.71623971       9.44054712      -0.00000000      -0.00000000       0.00000000
Si       2.69729918       8.09189753      10.78919671      -0.00000000      -0.00000000      -0.00000000
Si       4.04594876       9.44054712      12.13784629       0.00000000       0.00000000       0.00000000
Si       5.39459835      10.78919671      10.78919671       0.00000000       0.00000000       0.00000000
Si       6.74324794      12.13784629      12.13784629      -0.00000000      -0.00000000      -0.00000000
Si       8.09189753      13.48649588      10.78919671       0.00000000       0.00000000      -0.00000000
Si       9.44054712      14.83514547      12.13784629      -0.00000000      -0.00000000      -0.00000000
Si      10.78919671      16.18379506      10.78919671       0.00000000       0.00000000      -0.00000000
Si      12.13784629      17.53244465      12.13784629      -0.00000000      -0.00000000      -0.00000000
Si      13.48649588      18.88109424      10.78919671       0.00000000       0.00000000      -0.00000000
Si      14.83514547      20.22974382      12.13784629      -0.00000000      -0.00000000       0.00000000
Si      16.18379506      21.57839341      10.78919671       0.00000000       0.00000000       0.00000000
Si      17.53244465      22.92704300      12.13784629      -0.00000000      -0.00000000      -0.00000000
Si      18.88109424      24.27569259      10.78919671       0.00000000       0.00000000       0.00000000
Si      20.22974382      25.62434218      12.13784629      -0.00000000      -0.00000000      -0.00000000
Si      21.57839341      26.97299176      10.78919671       0.00000000       0.00000000      -0.00000000
Si      22.92704300      28.32164135      12.13784629      -0.00000000      -0.00000000       0.00000000
Si      24.27569259      29.67029094      10.78919671       0.00000000       0.00000000       0.00000000
Si      25.62434218      31.01894053      12.13784629      -0.00000000      -0.00000000       0.00000000
Si      26.97299176      32.36759012      10.78919671       0.00000000       0.00000000      -0.00000000
Si      28.32164135      33.71623971      12.13784629      -0.00000000      -0.00000000       0.00000000
Si       5.39459835       8.09189753      13.48649588       0.00000000       0.00000000      -0.00000000
Si       6.74324794       9.44054712      14.83514547       0.00000000       0.00000000      -0.00000000
Si       8.09189753      10.78919671      13.48649588       0.00000000      -0.00000000       0.00000000
Si       9.44054712      12.13784629      14.83514547      -0.00000000      -0.00000000      -0.00000000
Si      10.78919671      13.48649588      13.48649588       0.00000000       0.00000000      -0.00000000
Si      12.13784629      14.83514547      14.83514547       0.00000000       0.00000000      -0.00000000
Si      13.48649588      16.18379506      13.48649588       0.00000000      -0.00000000       0.00000000
Si      14.83514547      17.53244465      14.83514547      -0.00000000      -0.00000000       0.00000000
Si      16.18379506      18.88109424      13.48649588       0.00000000       0.00000000       0.00000000
Si      17.53244465      20.22974382      14.83514547      -0.00000000      -0.00000000      -0.00000000
Si      18.88109424      21.57839341      13.48649588       0.00000000       0.00000000       0.00000000
Si      20.22974382      22.92704300      14.83514547      -0.00000000      -0.00000000      -0.00000000
Si      21.57839341      24.27569259      13.48649588       0.00000000      -0.00000000      -0.00000000
Si      22.92704300      25.62434218      14.83514547       0.00000000       0.00000000      -0.00000000
Si      24.27569259      26.97299176      13.48649588      -0.00000000      -0.00000000       0.00000000
Si      25.62434218      28.32164135      14.83514547      -0.00000000      -0.00000000       0.00000000
Si      26.97299176      29.67029094      13.48649588       0.00000000       0.00000000      -0.00000000
Si      28.32164135      31.01894053      14.83514547      -0.00000000      -0.00000000      -0.00000000
Si      29.67029094      32.36759012      13.48649588      -0.00000000      -0.00000000      -0.00000000
Si      31.01894053      33.71623971      14.83514547      -0.00000000       0.00000000       0.00000000
Si       8.09189753       8.09189753      16.18379506       0.00000000       0.00000000      -0.00000000
Si       9.44054712       9.44054712      17.53244465       0.00000000       0.00000000      -0.00000000
Si      10.78919671      10.78919671      16.18379506       0.00000000       0.00000000       0.00000000
Si      12.13784629      12.13784629      17.53244465      -0.00000000      -0.00000000      -0.00000000
Si      13.48649588      13.48649588      16.18379506       0.00000000       0.00000000       0.00000000
Si      14.83514547      14.83514547      17.53244465      -0.00000000      -0.00000000      -0.00000000
Si      16.18379506      16.18379506      16.18379506      -0.00000000       0.00000000       0.00000000
Si      17.53244465      17.53244465      17.53244465      -0.00000000      -0.00000000       0.00000000
Si      18.88109424      18.88109424      16.18379506       0.00000000       0.00000000      -0.00000000
Si      20.22974382      20.22974382      17.53244465       0.00000000      -0.00000000      -0.00000000
Si      21.57839341      21.57839341      16.18379506      -0.00000000       0.00000000       0.00000000
Si      22.92704300      22.92704300      17.53244465       0.00000000       0.00000000      -0.00000000
Si      24.27569259      24.27569259      16.18379506       0.00000000      -0.00000000       0.00000000
Si      25.62434218      25.62434218      17.53244465      -0.00000000      -0.00000000      -0.00000000
Si      26.97299176      26.97299176      16.18379506       0.00000000       0.00000000       0.00000000
Si      28.32164135      28.32164135      17.53244465      -0.00000000      -0.00000000      -0.00000000
Si      29.67029094      29.67029094      16.18379506       0.00000000       0.00000000       0.00000000
Si      31.01894053      31.01894053      17.53244465       0.00000000       0.00000000      -0.00000000
Si      32.36759012      32.36759012      16.18379506      -0.00000000      -0.00000000       0.00000000
Si      33.71623971      33.71623971      17.53244465      -0.00000000      -0.00000000       0.00000000
Si      10.78919671       8.09189753      18.88109424       0.00000000       0.00000000      -0.00000000
Si      12.13784629       9.44054712      20.22974382       0.00000000       0.00000000      -0.00000000
Si      13.48649588      10.78919671      18.88109424       0.00000000      -0.00000000       0.00000000
Si      14.83514547      12.13784629      20.22974382      -0.00000000      -0.00000000      -0.00000000
Si      16.18379506      13.48649588      18.88109424       0.00000000       0.00000000      -0.00000000
Si      17.53244465      14.83514547      20.22974382       0.00000000      -0.00000000      -0.00000000
Si      18.88109424      16.18379506      18.88109424      -0.00000000       0.00000000       0.00000000
Si      20.22974382      17.53244465      20.22974382      -0.00000000      -0.00000000      -0.00000000
Si      21.57839341      18.88109424      18.88109424       0.00000000       0.00000000      -0.00000000
Si      22.92704300      20.22974382      20.22974382      -0.00000000       0.00000000      -0.00000000
Si      24.27569259      21.57839341      18.88109424      -0.00000000       0.00000000       0.00000000
Si      25.62434218      22.92704300      20.22974382       0.00000000       0.00000000      -0.00000000
Si      26.97299176      24.27569259      18.88109424      -0.00000000      -0.00000000       0.00000000
Si      28.32164135      25.62434218      20.22974382       0.00000000      -0.00000000      -0.00000000
Si      29.67029094      26.97299176      18.88109424      -0.00000000      -0.00000000       0.00000000
Si      31.01894053      28.32164135      20.22974382       0.00000000       0.00000000       0.00000000
Si      32.36759012      29.67029094      18.88109424       0.00000000       0.00000000      -0.00000000
Si      33.71623971      31.01894053      20.22974382       0.00000000       0.00000000      -0.00000000
Si      35.06488929      32.36759012      18.88109424      -0.00000000      -0.00000000       0.00000000
Si      36.41353888      33.71623971      20.22974382      -0.00000000      -0.00000000       0.00000000
Si      13.48649588       8.09189753      21.57839341       0.00000000      -0.00000000      -0.00000000
Si      14.83514547       9.44054712      22.92704300       0.00000000       0.00000000      -0.00000000
Si      16.18379506      10.78919671      21.57839341       0.00000000      -0.00000000       0.00000000
Si      17.53244465      12.13784629      22.92704300      -0.00000000      -0.00000000      -0.00000000
Si      18.88109424      13.48649588      21.57839341       0.00000000      -0.00000000      -0.00000000
Si      20.22974382      14.83514547      22.92704300       0.00000000      -0.00000000      -0.00000000
Si      21.57839341      16.18379506      21.57839341       0.00000000      -0.00000000      -0.00000000
Si      22.92704300      17.53244465      22.92704300       0.00000000      -0.00000000      -0.00000000
Si      24.27569259      18.88109424      21.57839341       0.00000000      -0.00000000      -0.00000000
Si      25.62434218      20.22974382      22.92704300       0.00000000      -0.00000000      -0.00000000
Si      26.97299176      21.57839341      21.57839341       0.00000000       0.00000000       0.00000000
Si      28.32164135      22.92704300      22.92704300       0.00000000      -0.00000000      -0.00000000
Si      29.67029094      24.27569259      21.57839341      -0.00000000      -0.00000000       0.00000000
Si      31.01894053      25.62434218      22.92704300      -0.00000000      -0.00000000      -0.00000000
Si      32.36759012      26.97299176      21.57839341       0.00000000       0.00000000       0.00000000
Si      33.71623971      28.32164135      22.92704300      -0.00000000      -0.00000000      -0.00000000
Si      35.06488929      29.67029094      21.57839341       0.00000000       0.00000000       0.00000000
Si      36.41353888      31.01894053      22.92704300      -0.00000000      -0.00000000      -0.00000000
Si      37.76218847      32.36759012      21.57839341       0.00000000       0.00000000      -0.00000000
Si      39.11083806      33.71623971      22.92704300       0.00000000      -0.00000000      -0.00000000
Si      16.18379506       8.09189753      24.27569259       0.00000000       0.00000000       0.00000000
Si      17.53244465       9.44054712      25.62434218      -0.00000000      -0.00000000      -0.00000000
Si      18.88109424      10.78919671      24.27569259       0.00000000       0.00000000       0.00000000
Si      20.22974382      12.13784629      25.62434218       0.00000000       0.00000000      -0.00000000
Si      21.57839341      13.48649588      24.27569259      -0.00000000      -0.00000000       0.00000000
Si      22.92704300      14.83514547      25.62434218       0.00000000       0.00000000      -0.00000000
Si      24.27569259      16.18379506      24.27569259       0.00000000       0.00000000       0.00000000
Si      25.62434218      17.53244465      25.62434218      -0.00000000      -0.00000000      -0.00000000
Si      26.97299176      18.88109424      24.27569259       0.00000000       0.00000000      -0.00000000
Si      28.32164135      20.22974382      25.62434218       0.00000000       0.00000000      -0.00000000
Si      29.67029094      21.57839341      24.27569259      -0.00000000       0.00000000       0.00000000
Si      31.01894053      22.92704300      25.62434218      -0.00000000       0.00000000      -0.00000000
Si      32.36759012      24.27569259      24.27569259       0.00000000      -0.00000000       0.00000000
Si      33.71623971      25.62434218      25.62434218      -0.00000000      -0.00000000      -0.00000000
Si      35.06488929      26.97299176      24.27569259      -0.00000000      -0.00000000      -0.00000000
Si      36.41353888      28.32164135      25.62434218       0.00000000       0.00000000       0.00000000
Si      37.76218847      29.67029094      24.27569259       0.00000000       0.00000000       0.00000000
Si      39.11083806      31.01894053      25.62434218      -0.00000000      -0.00000000      -0.00000000
Si      40.45948765      32.36759012      24.27569259      -0.00000000       0.00000000       0.00000000
Si      41.80813723      33.71623971      25.62434218      -0.00000000      -0.00000000       0.00000000
Si      18.88109424       8.09189753      26.97299176       0.00000000       0.00000000      -0.00000000
Si      20.22974382       9.44054712      28.32164135      -0.00000000      -0.00000000      -0.00000000
Si      21.57839341      10.78919671      26.97299176       0.00000000       0.00000000       0.00000000
Si      22.92704300      12.13784629      28.32164135      -0.00000000       0.00000000      -0.00000000
Si      24.27569259      13.48649588      26.97299176       0.00000000       0.00000000       0.00000000
Si      25.62434218      14.83514547      28.32164135      -0.00000000       0.00000000      -0.00000000
Si      26.97299176      16.18379506      26.97299176       0.00000000      -0.00000000       0.00000000
Si      28.32164135      17.53244465      28.32164135      -0.00000000      -0.00000000      -0.00000000
Si      29.67029094      18.88109424      26.97299176       0.00000000       0.00000000      -0.00000000
Si      31.01894053      20.22974382      28.32164135      -0.00000000      -0.00000000       0.00000000
Si      32.36759012      21.57839341      26.97299176       0.00000000       0.00000000       0.00000000
Si      33.71623971      22.92704300      28.32164135      -0.00000000       0.00000000      -0.00000000
Si      35.06488929      24.27569259      26.97299176      -0.00000000       0.00000000       0.00000000
Si      36.41353888      25.62434218      28.32164135      -0.00000000      -0.00000000      -0.00000000
Si      37.76218847      26.97299176      26.97299176       0.00000000       0.00000000       0.00000000
Si      39.11083806      28.32164135      28.32164135      -0.00000000      -0.00000000      -0.00000000
Si      40.45948765      29.67029094      26.97299176       0.00000000       0.00000000      -0.00000000
Si      41.80813723      31.01894053      28.32164135       0.00000000      -0.00000000      -0.00000000
Si      43.15678682      32.36759012      26.97299176      -0.00000000      -0.00000000       0.00000000
Si      44.50543641      33.71623971      28.32164135      -0.00000000      -0.00000000       0.00000000
Si      21.57839341       8.09189753      29.67029094       0.00000000       0.00000000      -0.00000000
Si      22.92704300       9.44054712      31.01894053      -0.00000000      -0.00000000       0.00000000
Si      24.27569259      10.78919671      29.67029094       0.00000000       0.00000000       0.00000000
Si      25.62434218      12.13784629      31.01894053      -0.00000000      -0.00000000      -0.00000000
Si      26.97299176      13.48649588      29.67029094       0.00000000       0.00000000       0.00000000
Si      28.32164135      14.83514547      31.01894053      -0.00000000      -0.00000000      -0.00000000
Si      29.67029094      16.18379506      29.67029094       0.00000000      -0.00000000       0.00000000
Si      31.01894053      17.53244465      31.01894053      -0.00000000      -0.00000000       0.00000000
Si      32.36759012      18.88109424      29.67029094       0.00000000      -0.00000000      -0.00000000
Si      33.71623971      20.22974382      31.01894053       0.00000000      -0.00000000       0.00000000
Si      35.06488929      21.57839341      29.67029094       0.00000000      -0.00000000       0.00000000
Si      36.41353888      22.92704300      31.01894053      -0.00000000      -0.00000000      -0.00000000
Si      37.76218847      24.27569259      29.67029094       0.00000000       0.00000000       0.00000000
Si      39.11083806      25.62434218      31.01894053       0.00000000      -0.00000000       0.00000000
Si      40.45948765      26.97299176      29.67029094       0.00000000      -0.00000000       0.00000000
Si      41.80813723      28.32164135      31.01894053       0.00000000      -0.00000000       0.00000000
Si      43.15678682      29.67029094      29.67029094       0.00000000       0.00000000       0.00000000
Si      44.50543641      31.01894053      31.01894053       0.00000000      -0.00000000       0.00000000
Si      45.85408600      32.36759012      29.67029094       0.00000000       0.00000000       0.00000000
Si      47.20273559      33.71623971      31.01894053      -0.00000000      -0.00000000       0.00000000
Si      24.27569259       8.09189753      32.36759012       0.00000000       0.00000000      -0.00000000
Si      25.62434218       9.44054712      33.71623971      -0.00000000       0.00000000      -0.00000000
Si      26.97299176      10.78919671      32.36759012       0.00000000       0.00000000      -0.00000000
Si      28.32164135      12.13784629      33.71623971      -0.00000000       0.00000000      -0.00000000
Si      29.67029094      13.48649588      32.36759012       0.00000000      -0.00000000       0.00000000
Si      31.01894053      14.83514547      33.71623971      -0.00000000       0.00000000      -0.00000000
Si      32.36759012      16.18379506      32.36759012      -0.00000000       0.00000000      -0.00000000
Si      33.71623971      17.53244465      33.71623971      -0.00000000      -0.00000000      -0.00000000
Si      35.06488929      18.88109424      32.36759012      -0.00000000       0.00000000      -0.00000000
Si      36.41353888      20.22974382      33.71623971      -0.00000000       0.00000000      -0.00000000
Si      37.76218847      21.57839341      32.36759012      -0.00000000      -0.00000000       0.00000000
Si      39.11083806      22.92704300      33.71623971      -0.00000000       0.00000000      -0.00000000
Si      40.45948765      24.27569259      32.36759012      -0.00000000       0.00000000      -0.00000000
Si      41.80813723      25.62434218      33.71623971      -0.00000000       0.00000000      -0.00000000
Si      43.15678682      26.97299176      32.36759012      -0.00000000       0.00000000      -0.00000000
Si      44.50543641      28.32164135      33.71623971      -0.00000000       0.00000000      -0.00000000
Si      45.85408600      29.67029094      32.36759012      -0.00000000       0.00000000      -0.00000000
Si      47.20273559      31.01894053      33.71623971      -0.00000000      -0.00000000      -0.00000000
Si      48.55138518      32.36759012      32.36759012      -0.00000000       0.00000000       0.00000000
Si      49.90003476      33.71623971      33.71623971      -0.00000000      -0.00000000       0.00000000
Si       0.00000000      10.78919671      10.78919671      -0.00000000      -0.00000000      -0.00000000
Si       1.34864959      12.13784629      12.13784629       0.00000000       0.00000000       0.00000000
Si       2.69729918      13.48649588      10.78919671      -0.00000000      -0.00000000       0.00000000
Si       4.04594876      14.83514547      12.13784629       0.00000000       0.00000000       0.00000000
Si       5.39459835      16.18379506      10.78919671       0.00000000      -0.00000000      -0.00000000
Si       6.74324794      17.53244465      12.13784629      -0.00000000      -0.00000000       0.00000000
Si       8.09189753      18.88109424      10.78919671       0.00000000       0.00000000       0.00000000
Si       9.44054712      20.22974382      12.13784629      -0.00000000       0.00000000      -0.00000000
Si      10.78919671      21.57839341      10.78919671       0.00000000      -0.00000000       0.00000000
Si      12.13784629      22.92704300      12.13784629      -0.00000000       0.00000000       0.00000000
Si      13.48649588      24.27569259      10.78919671      -0.00000000      -0.00000000      -0.00000000
Si      14.83514547      25.62434218      12.13784629       0.00000000       0.00000000       0.00000000
Si      16.18379506      26.97299176      10.78919671       0.00000000      -0.00000000       0.00000000
Si      17.53244465      28.32164135      12.13784629      -0.00000000       0.00000000       0.00000000
Si      18.88109424      29.67029094      10.78919671      -0.00000000      -0.00000000       0.00000000
Si      20.22974382      31.01894053      12.13784629      -0.00000000      -0.00000000       0.00000000
Si      21.57839341      32.36759012      10.78919671       0.00000000       0.00000000       0.00000000
Si      22.92704300      33.71623971      12.13784629      -0.00000000      -0.00000000       0.00000000
Si      24.27569259      35.06488929      10.78919671       0.00000000      -0.00000000       0.00000000
Si      25.62434218      36.41353888      12.13784629       0.00000000      -0.00000000       0.00000000
Si       2.69729918      10.78919671      13.48649588      -0.00000000      -0.00000000      -0.00000000
Si       4.04594876      12.13784629      14.83514547       0.00000000       0.00000000       0.00000000
Si       5.39459835      13.48649588      13.48649588       0.00000000      -0.00000000      -0.00000000
Si       6.74324794      14.83514547      14.83514547      -0.00000000       0.00000000       0.00000000
Si       8.09189753      16.18379506      13.48649588      -0.00000000      -0.00000000      -0.00000000
Si       9.44054712      17.53244465      14.83514547      -0.00000000      -0.00000000       0.00000000
Si      10.78919671      18.88109424      13.48649588       0.00000000       0.00000000      -0.00000000
Si      12.13784629      20.22974382      14.83514547      -0.00000000       0.00000000       0.00000000
Si      13.48649588      21.57839341      13.48649588       0.00000000      -0.00000000      -0.00000000
Si      14.83514547      22.92704300      14.83514547      -0.00000000      -0.00000000       0.00000000
Si      16.18379506      24.27569259      13.48649588       0.00000000       0.00000000      -0.00000000
Si      17.53244465      25.62434218      14.83514547       0.00000000      -0.00000000      -0.00000000
Si      18.88109424      26.97299176      13.48649588      -0.00000000       0.00000000       0.00000000
Si      20.22974382      28.32164135      14.83514547      -0.00000000      -0.00000000       0.00000000
Si      21.57839341      29.67029094      13.48649588       0.00000000       0.00000000      -0.00000000
Si      22.92704300      31.01894053      14.83514547       0.00000000       0.00000000      -0.00000000
Si      24.27569259      32.36759012      13.48649588      -0.00000000      -0.00000000       0.00000000
Si      25.62434218      33.71623971      14.83514547       0.00000000       0.00000000      -0.00000000
Si      26.97299176      35.06488929      13.48649588      -0.00000000      -0.00000000       0.00000000
Si      28.32164135      36.41353888      14.83514547      -0.00000000      -0.00000000      -0.00000000
Si       5.39459835      10.78919671      16.18379506       0.00000000       0.00000000      -0.00000000
Si       6.74324794      12.13784629      17.53244465       0.00000000       0.00000000      -0.00000000
Si       8.09189753      13.48649588      16.18379506      -0.00000000       0.00000000       0.00000000
Si       9.44054712      14.83514547      17.53244465      -0.00000000       0.00000000       0.00000000
Si      10.78919671      16.18379506      16.18379506       0.00000000       0.00000000      -0.00000000
Si      12.13784629      17.53244465      17.53244465       0.00000000       0.00000000      -0.00000000
Si      13.48649588      18.88109424      16.18379506      -0.00000000       0.00000000       0.00000000
Si      14.83514547      20.22974382      17.53244465      -0.00000000      -0.00000000       0.00000000
Si      16.18379506      21.57839341      16.18379506       0.00000000       0.00000000       0.00000000
Si      17.53244465      22.92704300      17.53244465       0.00000000       0.00000000      -0.00000000
Si      18.88109424      24.27569259      16.18379506      -0.00000000      -0.00000000       0.00000000
Si      20.22974382      25.62434218      17.53244465      -0.00000000      -0.00000000      -0.00000000
Si      21.57839341      26.97299176      16.18379506      -0.00000000       0.00000000       0.00000000
Si      22.92704300      28.32164135      17.53244465      -0.00000000      -0.00000000       0.00000000
Si      24.27569259      29.67029094      16.18379506       0.00000000       0.00000000       0.00000000
Si      25.62434218      31.01894053      17.53244465      -0.00000000      -0.00000000       0.00000000
Si      26.97299176      32.36759012      16.18379506       0.00000000       0.00000000       0.00000000
Si      28.32164135      33.71623971      17.53244465       0.00000000      -0.00000000      -0.00000000
Si      29.67029094      35.06488929      16.18379506       0.00000000      -0.00000000       0.00000000
Si      31.01894053      36.41353888      17.53244465      -0.00000000      -0.00000000       0.00000000
Si       8.09189753      10.78919671      18.88109424       0.00000000       0.00000000      -0.00000000
Si       9.44054712      12.13784629      20.22974382      -0.00000000       0.00000000      -0.00000000
Si      10.78919671      13.48649588      18.88109424       0.00000000       0.00000000       0.00000000
Si      12.13784629      14.83514547      20.22974382      -0.00000000       0.00000000      -0.00000000
Si      13.48649588      16.18379506      18.88109424       0.00000000       0.00000000      -0.00000000
Si      14.83514547      17.53244465      20.22974382       0.00000000       0.00000000      -0.00000000
Si      16.18379506      18.88109424      18.88109424      -0.00000000       0.00000000       0.00000000
Si      17.53244465      20.22974382      20.22974382      -0.00000000       0.00000000      -0.00000000
Si      18.88109424      21.57839341      18.88109424      -0.00000000       0.00000000      -0.00000000
Si      20.22974382      22.92704300      20.22974382      -0.00000000       0.00000000      -0.00000000
Si      21.57839341      24.27569259      18.88109424       0.00000000       0.00000000       0.00000000
Si      22.92704300      25.62434218      20.22974382       0.00000000       0.00000000      -0.00000000
Si      24.27569259      26.97299176      18.88109424      -0.00000000       0.00000000       0.00000000
Si      25.62434218      28.32164135      20.22974382      -0.00000000      -0.00000000      -0.00000000
Si      26.97299176      29.67029094      18.88109424      -0.00000000      -0.00000000      -0.00000000
Si      28.32164135      31.01894053      20.22974382       0.00000000       0.00000000       0.00000000
Si      29.67029094      32.36759012      18.88109424      -0.00000000      -0.00000000       0.00000000
Si      31.01894053      33.71623971      20.22974382      -0.00000000       0.00000000      -0.00000000
Si      32.36759012      35.06488929      18.88109424      -0.00000000      -0.00000000       0.00000000
Si      33.71623971      36.41353888      20.22974382      -0.00000000      -0.00000000       0.00000000
Si      10.78919671      10.78919671      21.57839341       0.00000000       0.00000000       0.00000000
Si      12.13784629      12.13784629      22.92704300      -0.00000000       0.00000000      -0.00000000
Si      13.48649588      13.48649588      21.57839341      -0.00000000      -0.00000000       0.00000000
Si      14.83514547      14.83514547      22.92704300       0.00000000       0.00000000       0.00000000
Si      16.18379506      16.18379506      21.57839341      -0.00000000       0.00000000       0.00000000
Si      17.53244465      17.53244465      22.92704300      -0.00000000      -0.00000000       0.00000000
Si      18.88109424      18.88109424      21.57839341       0.00000000       0.00000000       0.00000000
Si      20.22974382      20.22974382      22.92704300      -0.00000000       0.00000000      -0.00000000
Si      21.57839341      21.57839341      21.57839341       0.00000000      -0.00000000       0.00000000
Si      22.92704300      22.92704300      22.92704300      -0.00000000       0.00000000       0.00000000
Si      24.27569259      24.27569259      21.57839341       0.00000000       0.00000000       0.00000000
Si      25.62434218      25.62434218      22.92704300      -0.00000000      -0.00000000      -0.00000000
Si      26.97299176      26.97299176      21.57839341       0.00000000       0.00000000       0.00000000
Si      28.32164135      28.32164135      22.92704300      -0.00000000      -0.00000000       0.00000000
Si      29.67029094      29.67029094      21.57839341       0.00000000       0.00000000      -0.00000000
Si      31.01894053      31.01894053      22.92704300      -0.00000000      -0.00000000      -0.00000000
Si      32.36759012      32.36759012      21.57839341       0.00000000       0.00000000       0.00000000
Si      33.71623971      33.71623971      22.92704300      -0.00000000      -0.00000000      -0.00000000
Si      35.06488929      35.06488929      21.57839341      -0.00000000      -0.00000000       0.00000000
Si      36.41353888      36.41353888      22.92704300      -0.00000000      -0.00000000       0.00000000
Si      13.48649588      10.78919671      24.27569259       0.00000000       0.00000000       0.00000000
Si      14.83514547      12.13784629      25.62434218      -0.00000000       0.00000000      -0.00000000
Si      16.18379506      13.48649588      24.27569259      -0.00000000       0.00000000       0.00000000
Si      17.53244465      14.83514547      25.62434218      -0.00000000      -0.00000000      -0.00000000
Si      18.88109424      16.18379506      24.27569259      -0.00000000       0.00000000       0.00000000
Si      20.22974382      17.53244465      25.62434218      -0.00000000       0.00000000      -0.00000000
Si      21.57839341      18.88109424      24.27569259      -0.00000000       0.00000000       0.00000000
Si      22.92704300      20.22974382      25.62434218      -0.00000000      -0.00000000       0.00000000
Si      24.27569259      21.57839341      24.27569259      -0.00000000       0.00000000       0.00000000
Si      25.62434218      22.92704300      25.62434218      -0.00000000       0.00000000      -0.00000000
Si      26.97299176      24.27569259      24.27569259       0.00000000       0.00000000       0.00000000
Si      28.32164135      25.62434218      25.62434218      -0.00000000       0.00000000      -0.00000000
Si      29.67029094      26.97299176      24.27569259      -0.00000000       0.00000000       0.00000000
Si      31.01894053      28.32164135      25.62434218      -0.00000000      -0.00000000      -0.00000000
Si      32.36759012      29.67029094      24.27569259       0.00000000      -0.00000000       0.00000000
Si      33.71623971      31.01894053      25.62434218       0.00000000       0.00000000      -0.00000000
Si      35.06488929      32.36759012      24.27569259      -0.00000000       0.00000000       0.00000000
Si      36.41353888      33.71623971      25.62434218      -0.00000000       0.00000000      -0.00000000
Si      37.76218847      35.06488929      24.27569259      -0.00000000       0.00000000       0.00000000
Si      39.11083806      36.41353888      25.62434218      -0.00000000      -0.00000000      -0.00000000
Si      16.18379506      10.78919671      26.97299176       0.00000000      -0.00000000       0.00000000
Si      17.53244465      12.13784629      28.32164135       0.00000000      -0.00000000       0.00000000
Si      18.88109424      13.48649588      26.97299176       0.00000000      -0.00000000       0.00000000
Si      20.22974382      14.83514547      28.32164135       0.00000000      -0.00000000      -0.00000000
Si      21.57839341      16.18379506      26.97299176       0.00000000      -0.00000000       0.00000000
Si      22.92704300      17.53244465      28.32164135      -0.00000000      -0.00000000      -0.00000000
Si      24.27569259      18.88109424      26.97299176       0.00000000      -0.00000000       0.00000000
Si      25.62434218      20.22974382      28.32164135      -0.00000000      -0.00000000      -0.00000000
Si      26.97299176      21.57839341      26.97299176      -0.00000000       0.00000000       0.00000000
Si      28.32164135      22.92704300      28.32164135       0.00000000       0.00000000      -0.00000000
Si      29.67029094      24.27569259      26.97299176       0.00000000      -0.00000000       0.00000000
Si      31.01894053      25.62434218      28.32164135      -0.00000000      -0.00000000       0.00000000
Si      32.36759012      26.97299176      26.97299176       0.00000000       0.00000000       0.00000000
Si      33.71623971      28.32164135      28.32164135      -0.00000000      -0.00000000      -0.00000000
Si      35.06488929      29.67029094      26.97299176       0.00000000       0.00000000       0.00000000
Si      36.41353888      31.01894053      28.32164135      -0.00000000      -0.00000000      -0.00000000
Si      37.76218847      32.36759012      26.97299176       0.00000000       0.00000000       0.00000000
Si      39.11083806      33.71623971      28.32164135       0.00000000      -0.00000000      -0.00000000
Si      40.45948765      35.06488929      26.97299176      -0.00000000      -0.00000000       0.00000000
Si      41.80813723      36.41353888      28.32164135      -0.00000000      -0.00000000       0.00000000
Si      18.88109424      10.78919671      29.67029094       0.00000000       0.00000000      -0.00000000
Si      20.22974382      12.13784629      31.01894053      -0.00000000       0.00000000      -0.00000000
Si      21.57839341      13.48649588      29.67029094       0.00000000       0.00000000      -0.00000000
Si      22.92704300      14.83514547      31.01894053      -0.00000000       0.00000000      -0.00000000
Si      24.27569259      16.18379506      29.67029094       0.00000000      -0.00000000       0.00000000
Si      25.62434218      17.53244465      31.01894053       0.00000000      -0.00000000      -0.00000000
Si      26.97299176      18.88109424      29.67029094      -0.00000000       0.00000000       0.00000000
Si      28.32164135      20.22974382      31.01894053      -0.00000000      -0.00000000      -0.00000000
Si      29.67029094      21.57839341      29.67029094      -0.00000000      -0.00000000      -0.00000000
Si      31.01894053      22.92704300      31.01894053       0.00000000       0.00000000       0.00000000
Si      32.36759012      24.27569259      29.67029094      -0.00000000      -0.00000000       0.00000000
Si      33.71623971      25.62434218      31.01894053      -0.00000000      -0.00000000      -0.00000000
Si      35.06488929      26.97299176      29.67029094      -0.00000000      -0.00000000      -0.00000000
Si      36.41353888      28.32164135      31.01894053       0.00000000       0.00000000      -0.00000000
Si      37.76218847      29.67029094      29.67029094      -0.00000000      -0.00000000       0.00000000
Si      39.11083806      31.01894053      31.01894053      -0.00000000      -0.00000000       0.00000000
Si      40.45948765      32.36759012      29.67029094       0.00000000       0.00000000      -0.00000000
Si      41.80813723      33.71623971      31.01894053      -0.00000000      -0.00000000      -0.00000000
Si      43.15678682      35.06488929      29.67029094       0.00000000       0.00000000       0.00000000
Si      44.50543641      36.41353888      31.01894053      -0.00000000      -0.00000000       0.00000000
Si      21.57839341      10.78919671      32.36759012       0.00000000      -0.00000000      -0.00000000
Si      22.92704300      12.13784629      33.71623971       0.00000000       0.00000000       0.00000000
Si      24.27569259      13.48649588      32.36759012       0.00000000      -0.00000000       0.00000000
Si      25.62434218      14.83514547      33.71623971      -0.00000000      -0.00000000       0.00000000
Si      26.97299176      16.18379506      32.36759012       0.00000000       0.00000000       0.00000000
Si      28.32164135      17.53244465      33.71623971      -0.00000000      -0.00000000      -0.00000000
Si      29.67029094      18.88109424      32.36759012       0.00000000      -0.00000000       0.00000000
Si      31.01894053      20.22974382      33.71623971       0.00000000      -0.00000000       0.00000000
Si      32.36759012      21.57839341      32.36759012       0.00000000      -0.00000000       0.00000000
Si      33.71623971      22.92704300      33.71623971      -0.00000000      -0.00000000      -0.00000000
Si      35.06488929      24.27569259      32.36759012      -0.00000000      -0.00000000       0.00000000
Si      36.41353888      25.62434218      33.71623971      -0.00000000      -0.00000000       0.00000000
Si      37.76218847      26.97299176      32.36759012       0.00000000      -0.00000000       0.00000000
Si      39.11083806      28.32164135      33.71623971       0.00000000      -0.00000000       0.00000000
Si      40.45948765      29.67029094      32.36759012       0.00000000       0.00000000       0.00000000
Si      41.80813723      31.01894053      33.71623971       0.00000000      -0.00000000      -0.00000000
Si      43.15678682      32.36759012      32.36759012      -0.00000000      -0.00000000       0.00000000
Si      44.50543641      33.71623971      33.71623971       0.00000000       0.00000000       0.00000000
Si      45.85408600      35.06488929      32.36759012      -0.00000000      -0.00000000       0.00000000
Si      47.20273559      36.41353888      33.71623971      -0.00000000      -0.00000000       0.00000000
Si      24.27569259      10.78919671      35.06488929       0.00000000       0.00000000      -0.00000000
Si      25.62434218      12.13784629      36.41353888      -0.00000000       0.00000000      -0.00000000
Si      26.97299176      13.48649588      35.06488929      -0.00000000       0.00000000      -0.00000000
Si      28.32164135      14.83514547      36.41353888      -0.00000000       0.00000000      -0.00000000
Si      29.67029094      16.18379506      35.06488929       0.00000000      -0.00000000       0.00000000
Si      31.01894053      17.53244465      36.41353888      -0.00000000      -0.00000000      -0.00000000
Si      32.36759012      18.88109424      35.06488929      -0.00000000       0.00000000      -0.00000000
Si      33.71623971      20.22974382      36.41353888      -0.00000000       0.00000000      -0.00000000
Si      35.06488929      21.57839341      35.06488929      -0.00000000       0.00000000       0.00000000
Si      36.41353888      22.92704300      36.41353888      -0.00000000       0.00000000      -0.00000000
Si      37.76218847      24.27569259      35.06488929      -0.00000000       0.00000000       0.00000000
Si      39.11083806      25.62434218      36.41353888      -0.00000000      -0.00000000      -0.00000000
Si      40.45948765      26.97299176      35.06488929       0.00000000       0.00000000      -0.00000000
Si      41.80813723      28.32164135      36.41353888      -0.00000000       0.00000000      -0.00000000
Si      43.15678682      29.67029094      35.06488929      -0.00000000       0.00000000      -0.00000000
Si      44.50543641      31.01894053      36.41353888      -0.00000000      -0.00000000      -0.00000000
Si      45.85408600      32.36759012      35.06488929       0.00000000       0.00000000      -0.00000000
Si      47.20273559      33.71623971      36.41353888      -0.00000000      -0.00000000      -0.00000000
Si      48.55138518      35.06488929      35.06488929       0.00000000       0.00000000      -0.00000000
Si      49.90003476      36.41353888      36.41353888      -0.00000000      -0.00000000       0.00000000
Si       0.00000000      13.48649588      13.48649588      -0.00000000      -0.00000000      -0.00000000
Si       1.34864959      14.83514547      14.83514547       0.00000000       0.00000000       0.00000000
Si       2.69729918      16.18379506      13.48649588       0.00000000      -0.00000000       0.00000000
Si       4.04594876      17.53244465      14.83514547      -0.00000000      -0.00000000       0.00000000
Si       5.39459835      18.88109424      13.48649588       0.00000000       0.00000000       0.00000000
Si       6.74324794      20.22974382      14.83514547      -0.00000000       0.00000000       0.00000000
Si       8.09189753      21.57839341      13.48649588       0.00000000      -0.00000000       0.00000000
Si       9.44054712      22.92704300      14.83514547      -0.00000000      -0.00000000       0.00000000
Si      10.78919671      24.27569259      13.48649588       0.00000000      -0.00000000       0.00000000
Si      12.13784629      25.62434218      14.83514547      -0.00000000      -0.00000000       0.00000000
Si      13.48649588      26.97299176      13.48649588       0.00000000      -0.00000000       0.00000000
Si      14.83514547      28.32164135      14.83514547      -0.00000000       0.00000000       0.00000000
Si      16.18379506      29.67029094      13.48649588       0.00000000      -0.00000000      -0.00000000
Si      17.53244465      31.01894053      14.83514547      -0.00000000       0.00000000       0.00000000
Si      18.88109424      32.36759012      13.48649588       0.00000000      -0.00000000      -0.00000000
Si      20.22974382      33.71623971      14.83514547       0.00000000      -0.00000000      -0.00000000
Si      21.57839341      35.06488929      13.48649588      -0.00000000      -0.00000000      -0.00000000
Si      22.92704300      36.41353888      14.83514547       0.00000000       0.00000000       0.00000000
Si      24.27569259      37.76218847      13.48649588       0.00000000       0.00000000       0.00000000
Si      25.62434218      39.11083806      14.83514547      -0.00000000      -0.00000000      -0.00000000
Si       2.69729918      13.48649588      16.18379506       0.00000000       0.00000000       0.00000000
Si       4.04594876      14.83514547      17.53244465      -0.00000000      -0.00000000      -0.00000000
Si       5.39459835      16.18379506      16.18379506       0.00000000      -0.00000000      -0.00000000
Si       6.74324794      17.53244465      17.53244465      -0.00000000      -0.00000000      -0.00000000
Si       8.09189753      18.88109424      16.18379506       0.00000000       0.00000000       0.00000000
Si       9.44054712      20.22974382      17.53244465      -0.00000000      -0.00000000      -0.00000000
Si      10.78919671      21.57839341      16.18379506       0.00000000      -0.00000000      -0.00000000
Si      12.13784629      22.92704300      17.53244465      -0.00000000       0.00000000      -0.00000000
Si      13.48649588      24.27569259      16.18379506       0.00000000      -0.00000000      -0.00000000
Si      14.83514547      25.62434218      17.53244465      -0.00000000      -0.00000000      -0.00000000
Si      16.18379506      26.97299176      16.18379506       0.00000000       0.00000000       0.00000000
Si      17.53244465      28.32164135      17.53244465      -0.00000000      -0.00000000      -0.00000000
Si      18.88109424      29.67029094      16.18379506      -0.00000000      -0.00000000       0.00000000
Si      20.22974382      31.01894053      17.53244465      -0.00000000      -0.00000000       0.00000000
Si      21.57839341      32.36759012      16.18379506       0.00000000       0.00000000       0.00000000
Si      22.92704300      33.71623971      17.53244465      -0.00000000      -0.00000000       0.00000000
Si      24.27569259      35.06488929      16.18379506       0.00000000       0.00000000       0.00000000
Si      25.62434218      36.41353888      17.53244465      -0.00000000      -0.00000000      -0.00000000
Si      26.97299176      37.76218847      16.18379506       0.00000000       0.00000000       0.00000000
Si      28.32164135      39.11083806      17.53244465       0.00000000      -0.00000000       0.00000000
Si       5.39459835      13.48649588      18.88109424       0.00000000       0.00000000      -0.00000000
Si       6.74324794      14.83514547      20.22974382       0.00000000       0.00000000      -0.00000000
Si       8.09189753      16.18379506      18.88109424       0.00000000      -0.00000000      -0.00000000
Si       9.44054712      17.53244465      20.22974382      -0.00000000      -0.00000000      -0.00000000
Si      10.78919671      18.88109424      18.88109424       0.00000000       0.00000000      -0.00000000
Si      12.13784629      20.22974382      20.22974382      -0.00000000       0.00000000      -0.00000000
Si      13.48649588      21.57839341      18.88109424       0.00000000      -0.00000000      -0.00000000
Si      14.83514547      22.92704300      20.22974382      -0.00000000       0.00000000      -0.00000000
Si      16.18379506      24.27569259      18.88109424      -0.00000000      -0.00000000       0.00000000
Si      17.53244465      25.62434218      20.22974382      -0.00000000      -0.00000000      -0.00000000
Si      18.88109424      26.97299176      18.88109424       0.00000000       0.00000000       0.00000000
Si      20.22974382      28.32164135      20.22974382      -0.00000000      -0.00000000      -0.00000000
Si      21.57839341      29.67029094      18.88109424      -0.00000000      -0.00000000      -0.00000000
Si      22.92704300      31.01894053      20.22974382       0.00000000       0.00000000      -0.00000000
Si      24.27569259      32.36759012      18.88109424      -0.00000000      -0.00000000      -0.00000000
Si      25.62434218      33.71623971      20.22974382       0.00000000       0.00000000      -0.00000000
Si      26.97299176      35.06488929      18.88109424      -0.00000000      -0.00000000       0.00000000
Si      28.32164135      36.41353888      20.22974382       0.00000000       0.00000000       0.00000000
Si      29.67029094      37.76218847      18.88109424       0.00000000       0.00000000      -0.00000000
Si      31.01894053      39.11083806      20.22974382      -0.00000000      -0.00000000       0.00000000
Si       8.09189753      13.48649588      21.57839341       0.00000000       0.00000000       0.00000000
Si       9.44054712      14.83514547      22.92704300      -0.00000000      -0.00000000      -0.00000000
Si      10.78919671      16.18379506      21.57839341       0.00000000      -0.00000000       0.00000000
Si      12.13784629      17.53244465      22.92704300      -0.00000000      -0.00000000      -0.00000000
Si      13.48649588      18.88109424      21.57839341       0.00000000       0.00000000       0.00000000
Si      14.83514547      20.22974382      22.92704300      -0.00000000      -0.00000000      -0.00000000
Si      16.18379506      21.57839341      21.57839341       0.00000000       0.00000000       0.00000000
Si      17.53244465      22.92704300      22.92704300      -0.00000000      -0.00000000      -0.00000000
Si      18.88109424      24.27569259      21.57839341       0.00000000      -0.00000000       0.00000000
Si      20.22974382      25.62434218      22.92704300      -0.00000000      -0.00000000      -0.00000000
Si      21.57839341      26.97299176      21.57839341       0.00000000       0.00000000       0.00000000
Si      22.92704300      28.32164135      22.92704300      -0.00000000      -0.00000000      -0.00000000
Si      24.27569259      29.67029094      21.57839341       0.00000000       0.00000000       0.00000000
Si      25.62434218      31.01894053      22.92704300      -0.00000000      -0.00000000      -0.00000000
Si      26.97299176      32.36759012      21.57839341       0.00000000       0.00000000       0.00000000
Si      28.32164135      33.71623971      22.92704300      -0.00000000      -0.00000000      -0.00000000
Si      29.67029094      35.06488929      21.57839341       0.00000000       0.00000000      -0.00000000
Si      31.01894053      36.41353888      22.92704300      -0.00000000      -0.00000000      -0.00000000
Si      32.36759012      37.76218847      21.57839341       0.00000000       0.00000000       0.00000000
Si      33.71623971      39.11083806      22.92704300      -0.00000000      -0.00000000      -0.00000000
Si      10.78919671      13.48649588      24.27569259       0.00000000       0.00000000      -0.00000000
Si      12.13784629      14.83514547      25.62434218      -0.00000000       0.00000000      -0.00000000
Si      13.48649588      16.18379506      24.27569259       0.00000000       0.00000000       0.00000000
Si      14.83514547      17.53244465      25.62434218      -0.00000000      -0.00000000      -0.00000000
Si      16.18379506      18.88109424      24.27569259       0.00000000      -0.00000000       0.00000000
Si      17.53244465      20.22974382      25.62434218      -0.00000000       0.00000000       0.00000000
Si      18.88109424      21.57839341      24.27569259       0.00000000       0.00000000       0.00000000
Si      20.22974382      22.92704300      25.62434218      -0.00000000      -0.00000000      -0.00000000
Si      21.57839341      24.27569259      24.27569259       0.00000000       0.00000000      -0.00000000
Si      22.92704300      25.62434218      25.62434218       0.00000000       0.00000000      -0.00000000
Si      24.27569259      26.97299176      24.27569259       0.00000000      -0.00000000       0.00000000
Si      25.62434218      28.32164135      25.62434218      -0.00000000       0.00000000      -0.00000000
Si      26.97299176      29.67029094      24.27569259      -0.00000000      -0.00000000      -0.00000000
Si      28.32164135      31.01894053      25.62434218      -0.00000000       0.00000000       0.00000000
Si      29.67029094      32.36759012      24.27569259      -0.00000000      -0.00000000      -0.00000000
Si      31.01894053      33.71623971      25.62434218       0.00000000       0.00000000       0.00000000
Si      32.36759012      35.06488929      24.27569259       0.00000000      -0.00000000       0.00000000
Si      33.71623971      36.41353888      25.62434218      -0.00000000      -0.00000000      -0.00000000
Si      35.06488929      37.76218847      24.27569259       0.00000000       0.00000000       0.00000000
Si      36.41353888      39.11083806      25.62434218      -0.00000000      -0.00000000       0.00000000
Si      13.48649588      13.48649588      26.97299176       0.00000000       0.00000000      -0.00000000
Si      14.83514547      14.83514547      28.32164135       0.00000000      -0.00000000      -0.00000000
Si      16.18379506      16.18379506      26.97299176       0.00000000      -0.00000000       0.00000000
Si      17.53244465      17.53244465      28.32164135      -0.00000000      -0.00000000      -0.00000000
Si      18.88109424      18.88109424      26.97299176       0.00000000       0.00000000       0.00000000
Si      20.22974382      20.22974382      28.32164135      -0.00000000      -0.00000000       0.00000000
Si      21.57839341      21.57839341      26.97299176       0.00000000       0.00000000      -0.00000000
Si      22.92704300      22.92704300      28.32164135      -0.00000000       0.00000000       0.00000000
Si      24.27569259      24.27569259      26.97299176       0.00000000      -0.00000000       0.00000000
Si      25.62434218      25.62434218      28.32164135       0.00000000       0.00000000      -0.00000000
Si      26.97299176      26.97299176      26.97299176       0.00000000      -0.00000000       0.00000000
Si      28.32164135      28.32164135      28.32164135      -0.00000000      -0.00000000      -0.00000000
Si      29.67029094      29.67029094      26.97299176       0.00000000       0.00000000       0.00000000
Si      31.01894053      31.01894053      28.32164135      -0.00000000      -0.00000000      -0.00000000
Si      32.36759012      32.36759012      26.97299176       0.00000000       0.00000000       0.00000000
Si      33.71623971      33.71623971      28.32164135      -0.00000000       0.00000000      -0.00000000
Si      35.06488929      35.06488929      26.97299176      -0.00000000       0.00000000       0.00000000
Si      36.41353888      36.41353888      28.32164135      -0.00000000       0.00000000      -0.00000000
Si      37.76218847      37.76218847      26.97299176      -0.00000000      -0.00000000       0.00000000
Si      39.11083806      39.11083806      28.32164135      -0.00000000      -0.00000000       0.00000000
Si      16.18379506      13.48649588      29.67029094      -0.00000000       0.00000000      -0.00000000
Si      17.53244465      14.83514547      31.01894053       0.00000000       0.00000000      -0.00000000
Si      18.88109424      16.18379506      29.67029094       0.00000000      -0.00000000       0.00000000
Si      20.22974382      17.53244465      31.01894053       0.00000000      -0.00000000      -0.00000000
Si      21.57839341      18.88109424      29.67029094      -0.00000000      -0.00000000      -0.00000000
Si      22.92704300      20.22974382      31.01894053       0.00000000       0.00000000       0.00000000
Si      24.27569259      21.57839341      29.67029094      -0.00000000       0.00000000      -0.00000000
Si      25.62434218      22.92704300      31.01894053       0.00000000       0.00000000      -0.00000000
Si      26.97299176      24.27569259      29.67029094      -0.00000000      -0.00000000       0.00000000
Si      28.32164135      25.62434218      31.01894053      -0.00000000       0.00000000      -0.00000000
Si      29.67029094      26.97299176      29.67029094      -0.00000000      -0.00000000      -0.00000000
Si      31.01894053      28.32164135      31.01894053       0.00000000       0.00000000      -0.00000000
Si      32.36759012      29.67029094      29.67029094      -0.00000000      -0.00000000       0.00000000
Si      33.71623971      31.01894053      31.01894053       0.00000000       0.00000000      -0.00000000
Si      35.06488929      32.36759012      29.67029094      -0.00000000       0.00000000       0.00000000
Si      36.41353888      33.71623971      31.01894053      -0.00000000      -0.00000000       0.00000000
Si      37.76218847      35.06488929      29.67029094       0.00000000       0.00000000       0.00000000
Si      39.11083806      36.41353888      31.01894053      -0.00000000      -0.00000000      -0.00000000
Si      40.45948765      37.76218847      29.67029094       0.00000000      -0.00000000       0.00000000
Si      41.80813723      39.11083806      31.01894053      -0.00000000      -0.00000000      -0.00000000
Si      18.88109424      13.48649588      32.36759012       0.00000000       0.00000000       0.00000000
Si      20.22974382      14.83514547      33.71623971      -0.00000000      -0.00000000      -0.00000000
Si      21.57839341      16.18379506      32.36759012       0.00000000      -0.00000000       0.00000000
Si      22.92704300      17.53244465      33.71623971       0.00000000      -0.00000000      -0.00000000
Si      24.27569259      18.88109424      32.36759012       0.00000000       0.00000000       0.00000000
Si      25.62434218      20.22974382      33.71623971      -0.00000000      -0.00000000      -0.00000000
Si      26.97299176      21.57839341      32.36759012       0.00000000       0.00000000       0.00000000
Si      28.32164135      22.92704300      33.71623971      -0.00000000       0.00000000      -0.00000000
Si      29.67029094      24.27569259      32.36759012       0.00000000      -0.00000000       0.00000000
Si      31.01894053      25.62434218      33.71623971      -0.00000000      -0.00000000       0.00000000
Si      32.36759012      26.97299176      32.36759012       0.00000000       0.00000000       0.00000000
Si      33.71623971      28.32164135      33.71623971      -0.00000000      -0.00000000      -0.00000000
Si      35.06488929      29.67029094      32.36759012       0.00000000       0.00000000       0.00000000
Si      36.41353888      31.01894053      33.71623971      -0.00000000      -0.00000000      -0.00000000
Si      37.76218847      32.36759012      32.36759012      -0.00000000       0.00000000       0.00000000
Si      39.11083806      33.71623971      33.71623971      -0.00000000       0.00000000      -0.00000000
Si      40.45948765      35.06488929      32.36759012       0.00000000      -0.00000000      -0.00000000
Si      41.80813723      36.41353888      33.71623971       0.00000000       0.00000000      -0.00000000
Si      43.15678682      37.76218847      32.36759012      -0.00000000      -0.00000000       0.00000000
Si      44.50543641      39.11083806      33.71623971      -0.00000000      -0.00000000       0.00000000
Si      21.57839341      13.48649588      35.06488929       0.00000000       0.00000000      -0.00000000
Si      22.92704300      14.83514547      36.41353888       0.00000000      -0.00000000      -0.00000000
Si      24.27569259      16.18379506      35.06488929      -0.00000000      -0.00000000      -0.00000000
Si      25.62434218      17.53244465      36.41353888      -0.00000000      -0.00000000       0.00000000
Si      26.97299176      18.88109424      35.06488929       0.00000000       0.00000000      -0.00000000
Si      28.32164135      20.22974382      36.41353888       0.00000000      -0.00000000       0.00000000
Si      29.67029094      21.57839341      35.06488929      -0.00000000      -0.00000000       0.00000000
Si      31.01894053      22.92704300      36.41353888       0.00000000      -0.00000000       0.00000000
Si      32.36759012      24.27569259      35.06488929       0.00000000       0.00000000       0.00000000
Si      33.71623971      25.62434218      36.41353888      -0.00000000      -0.00000000      -0.00000000
Si      35.06488929      26.97299176      35.06488929      -0.00000000      -0.00000000      -0.00000000
Si      36.41353888      28.32164135      36.41353888       0.00000000       0.00000000       0.00000000
Si      37.76218847      29.67029094      35.06488929       0.00000000       0.00000000       0.00000000
Si      39.11083806      31.01894053      36.41353888      -0.00000000      -0.00000000      -0.00000000
Si      40.45948765      32.36759012      35.06488929       0.00000000       0.00000000       0.00000000
Si      41.80813723      33.71623971      36.41353888      -0.00000000      -0.00000000       0.00000000
Si      43.15678682      35.06488929      35.06488929       0.00000000       0.00000000       0.00000000
Si      44.50543641      36.41353888      36.41353888      -0.00000000      -0.00000000      -0.00000000
Si      45.85408600      37.76218847      35.06488929       0.00000000       0.00000000       0.00000000
Si      47.20273559      39.11083806      36.41353888      -0.00000000      -0.00000000       0.00000000
Si      24.27569259      13.48649588      37.76218847       0.00000000       0.00000000      -0.00000000
Si      25.62434218      14.83514547      39.11083806       0.00000000       0.00000000      -0.00000000
Si      26.97299176      16.18379506      37.76218847      -0.00000000       0.00000000      -0.00000000
Si      28.32164135      17.53244465      39.11083806      -0.00000000      -0.00000000      -0.00000000
Si      29.67029094      18.88109424      37.76218847       0.00000000       0.00000000       0.00000000
Si      31.01894053      20.22974382      39.11083806      -0.00000000      -0.00000000      -0.00000000
Si      32.36759012      21.57839341      37.76218847       0.00000000       0.00000000      -0.00000000
Si      33.71623971      22.92704300      39.11083806      -0.00000000       0.00000000      -0.00000000
Si      35.06488929      24.27569259      37.76218847      -0.00000000       0.00000000       0.00000000
Si      36.41353888      25.62434218      39.11083806      -0.00000000      -0.00000000      -0.00000000
Si      37.76218847      26.97299176      37.76218847       0.00000000       0.00000000       0.00000000
Si      39.11083806      28.32164135      39.11083806      -0.00000000      -0.00000000      -0.00000000
Si      40.45948765      29.67029094      37.76218847       0.00000000       0.00000000      -0.00000000
Si      41.80813723      31.01894053      39.11083806      -0.00000000      -0.00000000      -0.00000000
Si      43.15678682      32.36759012      37.76218847      -0.00000000       0.00000000      -0.00000000
Si      44.50543641      33.71623971      39.11083806       0.00000000       0.00000000      -0.00000000
Si      45.85408600      35.06488929      37.76218847      -0.00000000      -0.00000000      -0.00000000
Si      47.20273559      36.41353888      39.11083806       0.00000000       0.00000000      -0.00000000
Si      48.55138518      37.76218847      37.76218847      -0.00000000      -0.00000000       0.00000000
Si      49.90003476      39.11083806      39.11083806      -0.00000000      -0.00000000       0.00000000
Si       0.00000000      16.18379506      16.18379506       0.00000000      -0.00000000       0.00000000
Si       1.34864959      17.53244465      17.53244465       0.00000000      -0.00000000      -0.00000000
Si       2.69729918      18.88109424      16.18379506       0.00000000      -0.00000000       0.00000000
Si       4.04594876      20.22974382      17.53244465       0.00000000       0.00000000      -0.00000000
Si       5.39459835      21.57839341      16.18379506       0.00000000      -0.00000000       0.00000000
Si       6.74324794      22.92704300      17.53244465       0.00000000       0.00000000      -0.00000000
Si       8.09189753      24.27569259      16.18379506       0.00000000      -0.00000000       0.00000000
Si       9.44054712      25.62434218      17.53244465       0.00000000      -0.00000000      -0.00000000
Si      10.78919671      26.97299176      16.18379506       0.00000000      -0.00000000       0.00000000
Si      12.13784629      28.32164135      17.53244465       0.00000000       0.00000000      -0.00000000
Si      13.48649588      29.67029094      16.18379506       0.00000000      -0.00000000       0.00000000
Si      14.83514547      31.01894053      17.53244465       0.00000000      -0.00000000      -0.00000000
Si      16.18379506      32.36759012      16.18379506       0.00000000      -0.00000000       0.00000000
Si      17.53244465      33.71623971      17.53244465       0.00000000      -0.00000000      -0.00000000
Si      18.88109424      35.06488929      16.18379506       0.00000000      -0.00000000       0.00000000
Si      20.22974382      36.41353888      17.53244465       0.00000000      -0.00000000      -0.00000000
Si      21.57839341      37.76218847      16.18379506       0.00000000      -0.00000000       0.00000000
Si      22.92704300      39.11083806      17.53244465       0.00000000       0.00000000      -0.00000000
Si      24.27569259      40.45948765      16.18379506      -0.00000000      -0.00000000       0.00000000
Si      25.62434218      41.80813723      17.53244465       0.00000000       0.00000000       0.00000000
Si       2.69729918      16.18379506      18.88109424       0.00000000       0.00000000      -0.00000000
Si       4.04594876      17.53244465      20.22974382      -0.00000000      -0.00000000      -0.00000000
Si       5.39459835      18.88109424      18.88109424       0.00000000       0.00000000      -0.00000000
Si       6.74324794      20.22974382      20.22974382      -0.00000000       0.00000000      -0.00000000
Si       8.09189753      21.57839341      18.88109424       0.00000000       0.00000000       0.00000000
Si       9.44054712      22.92704300      20.22974382      -0.00000000      -0.00000000      -0.00000000
Si      10.78919671      24.27569259      18.88109424       0.00000000      -0.00000000      -0.00000000
Si      12.13784629      25.62434218      20.22974382      -0.00000000      -0.00000000      -0.00000000
Si      13.48649588      26.97299176      18.88109424       0.00000000       0.00000000       0.00000000
Si      14.83514547      28.32164135      20.22974382      -0.00000000       0.00000000      -0.00000000
Si      16.18379506      29.67029094      18.88109424      -0.00000000       0.00000000       0.00000000
Si      17.53244465      31.01894053      20.22974382      -0.00000000       0.00000000      -0.00000000
Si      18.88109424      32.36759012      18.88109424       0.00000000      -0.00000000       0.00000000
Si      20.22974382      33.71623971      20.22974382       0.00000000      -0.00000000      -0.00000000
Si      21.57839341      35.06488929      18.88109424      -0.00000000      -0.00000000       0.00000000
Si      22.92704300      36.41353888      20.22974382      -0.00000000      -0.00000000       0.00000000
Si      24.27569259      37.76218847      18.88109424       0.00000000       0.00000000       0.00000000
Si      25.62434218      39.11083806      20.22974382      -0.00000000      -0.00000000      -0.00000000
Si      26.97299176      40.45948765      18.88109424       0.00000000       0.00000000       0.00000000
Si      28.32164135      41.80813723      20.22974382      -0.00000000      -0.00000000      -0.00000000
Si       5.39459835      16.18379506      21.57839341       0.00000000       0.00000000      -0.00000000
Si       6.74324794      17.53244465      22.92704300       0.00000000      -0.00000000      -0.00000000
Si       8.09189753      18.88109424      21.57839341       0.00000000       0.00000000       0.00000000
Si       9.44054712      20.22974382      22.92704300       0.00000000      -0.00000000      -0.00000000
Si      10.78919671      21.57839341      21.57839341       0.00000000      -0.00000000       0.00000000
Si      12.13784629      22.92704300      22.92704300       0.00000000      -0.00000000      -0.00000000
Si      13.48649588      24.27569259      21.57839341       0.00000000      -0.00000000       0.00000000
Si      14.83514547      25.62434218      22.92704300       0.00000000      -0.00000000      -0.00000000
Si      16.18379506      26.97299176      21.57839341       0.00000000       0.00000000       0.00000000
Si      17.53244465      28.32164135      22.92704300       0.00000000      -0.00000000      -0.00000000
Si      18.88109424      29.67029094      21.57839341       0.00000000       0.00000000       0.00000000
Si      20.22974382      31.01894053      22.92704300      -0.00000000      -0.00000000       0.00000000
Si      21.57839341      32.36759012      21.57839341       0.00000000       0.00000000       0.00000000
Si      22.92704300      33.71623971      22.92704300      -0.00000000      -0.00000000      -0.00000000
Si      24.27569259      35.06488929      21.57839341       0.00000000       0.00000000       0.00000000
Si      25.62434218      36.41353888      22.92704300      -0.00000000      -0.00000000      -0.00000000
Si      26.97299176      37.76218847      21.57839341       0.00000000       0.00000000      -0.00000000
Si      28.32164135      39.11083806      22.92704300       0.00000000       0.00000000       0.00000000
Si      29.67029094      40.45948765      21.57839341       0.00000000       0.00000000      -0.00000000
Si      31.01894053      41.80813723      22.92704300      -0.00000000       0.00000000       0.00000000
Si       8.09189753      16.18379506      24.27569259       0.00000000       0.00000000      -0.00000000
Si       9.44054712      17.53244465      25.62434218      -0.00000000       0.00000000      -0.00000000
Si      10.78919671      18.88109424      24.27569259      -0.00000000       0.00000000      -0.00000000
Si      12.13784629      20.22974382      25.62434218      -0.00000000       0.00000000      -0.00000000
Si      13.48649588      21.57839341      24.27569259      -0.00000000      -0.00000000       0.00000000
Si      14.83514547      22.92704300      25.62434218      -0.00000000      -0.00000000      -0.00000000
Si      16.18379506      24.27569259      24.27569259      -0.00000000      -0.00000000       0.00000000
Si      17.53244465      25.62434218      25.62434218      -0.00000000      -0.00000000      -0.00000000
Si      18.88109424      26.97299176      24.27569259       0.00000000       0.00000000      -0.00000000
Si      20.22974382      28.32164135      25.62434218      -0.00000000       0.00000000      -0.00000000
Si      21.57839341      29.67029094      24.27569259      -0.00000000      -0.00000000      -0.00000000
Si      22.92704300      31.01894053      25.62434218       0.00000000       0.00000000      -0.00000000
Si      24.27569259      32.36759012      24.27569259      -0.00000000      -0.00000000       0.00000000
Si      25.62434218      33.71623971      25.62434218       0.00000000       0.00000000      -0.00000000
Si      26.97299176      35.06488929      24.27569259      -0.00000000      -0.00000000       0.00000000
Si      28.32164135      36.41353888      25.62434218      -0.00000000      -0.00000000       0.00000000
Si      29.67029094      37.76218847      24.27569259       0.00000000       0.00000000      -0.00000000
Si      31.01894053      39.11083806      25.62434218      -0.00000000       0.00000000       0.00000000
Si      32.36759012      40.45948765      24.27569259       0.00000000       0.00000000       0.00000000
Si      33.71623971      41.80813723      25.62434218      -0.00000000      -0.00000000      -0.00000000
Si      10.78919671      16.18379506      26.97299176       0.00000000       0.00000000      -0.00000000
Si      12.13784629      17.53244465      28.32164135       0.00000000      -0.00000000      -0.00000000
Si      13.48649588      18.88109424      26.97299176       0.00000000       0.00000000       0.00000000
Si      14.83514547      20.22974382      28.32164135       0.00000000      -0.00000000      -0.00000000
Si      16.18379506      21.57839341      26.97299176       0.00000000      -0.00000000       0.00000000
Si      17.53244465      22.92704300      28.32164135       0.00000000      -0.00000000      -0.00000000
Si      18.88109424      24.27569259      26.97299176       0.00000000       0.00000000       0.00000000
Si      20.22974382      25.62434218      28.32164135      -0.00000000      -0.00000000      -0.00000000
Si      21.57839341      26.97299176      26.97299176       0.00000000       0.00000000       0.00000000
Si      22.92704300      28.32164135      28.32164135      -0.00000000      -0.00000000       0.00000000
Si      24.27569259      29.67029094      26.97299176       0.00000000       0.00000000       0.00000000
Si      25.62434218      31.01894053      28.32164135      -0.00000000      -0.00000000      -0.00000000
Si      26.97299176      32.36759012      26.97299176       0.00000000      -0.00000000       0.00000000
Si      28.32164135      33.71623971      28.32164135      -0.00000000      -0.00000000       0.00000000
Si      29.67029094      35.06488929      26.97299176       0.00000000      -0.00000000      -0.00000000
Si      31.01894053      36.41353888      28.32164135      -0.00000000      -0.00000000       0.00000000
Si      32.36759012      37.76218847      26.97299176       0.00000000       0.00000000      -0.00000000
Si      33.71623971      39.11083806      28.32164135       0.00000000      -0.00000000      -0.00000000
Si      35.06488929      40.45948765      26.97299176       0.00000000      -0.00000000       0.00000000
Si      36.41353888      41.80813723      28.32164135       0.00000000      -0.00000000       0.00000000
Si      13.48649588      16.18379506      29.67029094       0.00000000       0.00000000      -0.00000000
Si      14.83514547      17.53244465      31.01894053      -0.00000000      -0.00000000      -0.00000000
Si      16.18379506      18.88109424      29.67029094      -0.00000000       0.00000000      -0.00000000
Si      17.53244465      20.22974382      31.01894053      -0.00000000       0.00000000      -0.00000000
Si      18.88109424      21.57839341      29.67029094       0.00000000       0.00000000       0.00000000
Si      20.22974382      22.92704300      31.01894053      -0.00000000      -0.00000000      -0.00000000
Si      21.57839341      24.27569259      29.67029094       0.00000000       0.00000000       0.00000000
Si      22.92704300      25.62434218      31.01894053      -0.00000000      -0.00000000      -0.00000000
Si      24.27569259      26.97299176      29.67029094       0.00000000       0.00000000       0.00000000
Si      25.62434218      28.32164135      31.01894053       0.00000000       0.00000000      -0.00000000
Si      26.97299176      29.67029094      29.67029094      -0.00000000       0.00000000      -0.00000000
Si      28.32164135      31.01894053      31.01894053       0.00000000       0.00000000      -0.00000000
Si      29.67029094      32.36759012      29.67029094       0.00000000      -0.00000000      -0.00000000
Si      31.01894053      33.71623971      31.01894053       0.00000000      -0.00000000      -0.00000000
Si      32.36759012      35.06488929      29.67029094       0.00000000      -0.00000000      -0.00000000
Si      33.71623971      36.41353888      31.01894053      -0.00000000      -0.00000000       0.00000000
Si      35.06488929      37.76218847      29.67029094       0.00000000       0.00000000      -0.00000000
Si      36.41353888      39.11083806      31.01894053      -0.00000000      -0.00000000      -0.00000000
Si      37.76218847      40.45948765      29.67029094      -0.00000000       0.00000000      -0.00000000
Si      39.11083806      41.80813723      31.01894053      -0.00000000      -0.00000000       0.00000000
Si      16.18379506      16.18379506      32.36759012       0.00000000       0.00000000      -0.00000000
Si      17.53244465      17.53244465      33.71623971       0.00000000      -0.00000000      -0.00000000
Si      18.88109424      18.88109424      32.36759012       0.00000000       0.00000000       0.00000000
Si      20.22974382      20.22974382      33.71623971       0.00000000      -0.00000000      -0.00000000
Si      21.57839341      21.57839341      32.36759012       0.00000000      -0.00000000       0.00000000
Si      22.92704300      22.92704300      33.71623971       0.00000000      -0.00000000      -0.00000000
Si      24.27569259      24.27569259      32.36759012       0.00000000      -0.00000000       0.00000000
Si      25.62434218      25.62434218      33.71623971      -0.00000000      -0.00000000      -0.00000000
Si      26.97299176      26.97299176      32.36759012       0.00000000       0.00000000       0.00000000
Si      28.32164135      28.32164135      33.71623971      -0.00000000      -0.00000000      -0.00000000
Si      29.67029094      29.67029094      32.36759012       0.00000000      -0.00000000       0.00000000
Si      31.01894053      31.01894053      33.71623971       0.00000000      -0.00000000      -0.00000000
Si      32.36759012      32.36759012      32.36759012      -0.00000000      -0.00000000       0.00000000
Si      33.71623971      33.71623971      33.71623971       0.00000000      -0.00000000      -0.00000000
Si      35.06488929      35.06488929      32.36759012       0.00000000      -0.00000000       0.00000000
Si      36.41353888      36.41353888      33.71623971      -0.00000000      -0.00000000       0.00000000
Si      37.76218847      37.76218847      32.36759012       0.00000000       0.00000000      -0.00000000
Si      39.11083806      39.11083806      33.71623971       0.00000000      -0.00000000      -0.00000000
Si      40.45948765      40.45948765      32.36759012       0.00000000       0.00000000       0.00000000
Si      41.80813723      41.80813723      33.71623971      -0.00000000      -0.00000000      -0.00000000
Si      18.88109424      16.18379506      35.06488929       0.00000000       0.00000000       0.00000000
Si      20.22974382      17.53244465      36.41353888      -0.00000000      -0.00000000       0.00000000
Si      21.57839341      18.88109424      35.06488929       0.00000000       0.00000000       0.00000000
Si      22.92704300      20.22974382      36.41353888      -0.00000000       0.00000000      -0.00000000
Si      24.27569259      21.57839341      35.06488929       0.00000000       0.00000000       0.00000000
Si      25.62434218      22.92704300      36.41353888      -0.00000000      -0.00000000      -0.00000000
Si      26.97299176      24.27569259      35.06488929       0.00000000      -0.00000000       0.00000000
Si      28.32164135      25.62434218      36.41353888       0.00000000      -0.00000000      -0.00000000
Si      29.67029094      26.97299176      35.06488929      -0.00000000      -0.00000000      -0.00000000
Si      31.01894053      28.32164135      36.41353888      -0.00000000       0.00000000      -0.00000000
Si      32.36759012      29.67029094      35.06488929       0.00000000       0.00000000      -0.00000000
Si      33.71623971      31.01894053      36.41353888       0.00000000       0.00000000      -0.00000000
Si      35.06488929      32.36759012      35.06488929      -0.00000000       0.00000000       0.00000000
Si      36.41353888      33.71623971      36.41353888      -0.00000000       0.00000000      -0.00000000
Si      37.76218847      35.06488929      35.06488929      -0.00000000      -0.00000000       0.00000000
Si      39.11083806      36.41353888      36.41353888      -0.00000000      -0.00000000      -0.00000000
Si      40.45948765      37.76218847      35.06488929       0.00000000       0.00000000      -0.00000000
Si      41.80813723      39.11083806      36.41353888       0.00000000       0.00000000      -0.00000000
Si      43.15678682      40.45948765      35.06488929      -0.00000000      -0.00000000       0.00000000
Si      44.50543641      41.80813723      36.41353888       0.00000000       0.00000000       0.00000000
Si      21.57839341      16.18379506      37.76218847       0.00000000       0.00000000      -0.00000000
Si      22.92704300      17.53244465      39.11083806       0.00000000      -0.00000000      -0.00000000
Si      24.27569259      18.88109424      37.76218847       0.00000000       0.00000000      -0.00000000
Si      25.62434218      20.22974382      39.11083806       0.00000000      -0.00000000      -0.00000000
Si      26.97299176      21.57839341      37.76218847       0.00000000      -0.00000000       0.00000000
Si      28.32164135      22.92704300      39.11083806       0.00000000      -0.00000000      -0.00000000
Si      29.67029094      24.27569259      37.76218847       0.00000000      -0.00000000      -0.00000000
Si      31.01894053      25.62434218      39.11083806       0.00000000      -0.00000000      -0.00000000
Si      32.36759012      26.97299176      37.76218847       0.00000000       0.00000000       0.00000000
Si      33.71623971      28.32164135      39.11083806      -0.00000000      -0.00000000      -0.00000000
Si      35.06488929      29.67029094      37.76218847       0.00000000       0.00000000      -0.00000000
Si      36.41353888      31.01894053      39.11083806       0.00000000      -0.00000000      -0.00000000
Si      37.76218847      32.36759012      37.76218847      -0.00000000      -0.00000000       0.00000000
Si      39.11083806      33.71623971      39.11083806       0.00000000      -0.00000000      -0.00000000
Si      40.45948765      35.06488929      37.76218847      -0.00000000      -0.00000000       0.00000000
Si      41.80813723      36.41353888      39.11083806       0.00000000      -0.00000000      -0.00000000
Si      43.15678682      37.76218847      37.76218847       0.00000000       0.00000000      -0.00000000
Si      44.50543641      39.11083806      39.11083806       0.00000000      -0.00000000      -0.00000000
Si      45.85408600      40.45948765      37.76218847       0.00000000       0.00000000       0.00000000
Si      47.20273559      41.80813723      39.11083806      -0.00000000      -0.00000000      -0.00000000
Si      24.27569259      16.18379506      40.45948765      -0.00000000       0.00000000       0.00000000
Si      25.62434218      17.53244465      41.80813723      -0.00000000      -0.00000000      -0.00000000
Si      26.97299176      18.88109424      40.45948765      -0.00000000       0.00000000      -0.00000000
Si      28.32164135      20.22974382      41.80813723       0.00000000       0.00000000      -0.00000000
Si      29.67029094      21.57839341      40.45948765      -0.00000000      -0.00000000       0.00000000
Si      31.01894053      22.92704300      41.80813723       0.00000000       0.00000000      -0.00000000
Si      32.36759012      24.27569259      40.45948765      -0.00000000      -0.00000000       0.00000000
Si      33.71623971      25.62434218      41.80813723      -0.00000000      -0.00000000      -0.00000000
Si      35.06488929      26.97299176      40.45948765      -0.00000000      -0.00000000      -0.00000000
Si      36.41353888      28.32164135      41.80813723       0.00000000       0.00000000      -0.00000000
Si      37.76218847      29.67029094      40.45948765       0.00000000       0.00000000      -0.00000000
Si      39.11083806      31.01894053      41.80813723      -0.00000000      -0.00000000      -0.00000000
Si      40.45948765      32.36759012      40.45948765       0.00000000       0.00000000      -0.00000000
Si      41.80813723      33.71623971      41.80813723      -0.00000000      -0.00000000      -0.00000000
Si      43.15678682      35.06488929      40.45948765       0.00000000       0.00000000      -0.00000000
Si      44.50543641      36.41353888      41.80813723      -0.00000000      -0.00000000      -0.00000000
Si      45.85408600      37.76218847      40.45948765       0.00000000       0.00000000      -0.00000000
Si      47.20273559      39.11083806      41.80813723       0.00000000       0.00000000      -0.00000000
Si      48.55138518      40.45948765      40.45948765      -0.00000000      -0.00000000       0.00000000
Si      49.90003476      41.80813723      41.80813723       0.00000000       0.00000000      -0.00000000
Si       0.00000000      18.88109424      18.88109424      -0.00000000      -0.00000000       0.00000000
Si       1.34864959      20.22974382      20.22974382       0.00000000       0.00000000       0.00000000
Si       2.69729918      21.57839341      18.88109424      -0.00000000      -0.00000000       0.00000000
Si       4.04594876      22.92704300      20.22974382       0.00000000       0.00000000       0.00000000
Si       5.39459835      24.27569259      18.88109424      -0.00000000      -0.00000000       0.00000000
Si       6.74324794      25.62434218      20.22974382       0.00000000       0.00000000       0.00000000
Si       8.09189753      26.97299176      18.88109424      -0.00000000      -0.00000000       0.00000000
Si       9.44054712      28.32164135      20.22974382       0.00000000       0.00000000       0.00000000
Si      10.78919671      29.67029094      18.88109424      -0.00000000      -0.00000000       0.00000000
Si      12.13784629      31.01894053      20.22974382       0.00000000       0.00000000       0.00000000
Si      13.48649588      32.36759012      18.88109424       0.00000000      -0.00000000       0.00000000
Si      14.83514547      33.71623971      20.22974382       0.00000000       0.00000000       0.00000000
Si      16.18379506      35.06488929      18.88109424      -0.00000000       0.00000000       0.00000000
Si      17.53244465      36.41353888      20.22974382       0.00000000      -0.00000000      -0.00000000
Si      18.88109424      37.76218847      18.88109424      -0.00000000       0.00000000       0.00000000
Si      20.22974382      39.11083806      20.22974382      -0.00000000      -0.00000000      -0.00000000
Si      21.57839341      40.45948765      18.88109424       0.00000000      -0.00000000       0.00000000
Si      22.92704300      41.80813723      20.22974382      -0.00000000      -0.00000000      -0.00000000
Si      24.27569259      43.15678682      18.88109424       0.00000000      -0.00000000       0.00000000
Si      25.62434218      44.50543641      20.22974382      -0.00000000      -0.00000000      -0.00000000
Si       2.69729918      18.88109424      21.57839341      -0.00000000       0.00000000      -0.00000000
Si       4.04594876      20.22974382      22.92704300       0.00000000       0.00000000       0.00000000
Si       5.39459835      21.57839341      21.57839341      -0.00000000      -0.00000000      -0.00000000
Si       6.74324794      22.92704300      22.92704300       0.00000000       0.00000000       0.00000000
Si       8.09189753      24.27569259      21.57839341      -0.00000000      -0.00000000      -0.00000000
Si       9.44054712      25.62434218      22.92704300      -0.00000000      -0.00000000       0.00000000
Si      10.78919671      26.97299176      21.57839341      -0.00000000       0.00000000      -0.00000000
Si      12.13784629      28.32164135      22.92704300       0.00000000       0.00000000      -0.00000000
Si      13.48649588      29.67029094      21.57839341      -0.00000000      -0.00000000       0.00000000
Si      14.83514547      31.01894053      22.92704300      -0.00000000       0.00000000       0.00000000
Si      16.18379506      32.36759012      21.57839341       0.00000000       0.00000000       0.00000000
Si      17.53244465      33.71623971      22.92704300      -0.00000000      -0.00000000       0.00000000
Si      18.88109424      35.06488929      21.57839341       0.00000000       0.00000000       0.00000000
Si      20.22974382      36.41353888      22.92704300      -0.00000000      -0.00000000      -0.00000000
Si      21.57839341      37.76218847      21.57839341      -0.00000000      -0.00000000      -0.00000000
Si      22.92704300      39.11083806      22.92704300       0.00000000       0.00000000       0.00000000
Si      24.27569259      40.45948765      21.57839341       0.00000000      -0.00000000       0.00000000
Si      25.62434218      41.80813723      22.92704300       0.00000000       0.00000000      -0.00000000
Si      26.97299176      43.15678682      21.57839341      -0.00000000      -0.00000000      -0.00000000
Si      28.32164135      44.50543641      22.92704300      -0.00000000       0.00000000       0.00000000
Si       5.39459835      18.88109424      24.27569259      -0.00000000       0.00000000      -0.00000000
Si       6.74324794      20.22974382      25.62434218       0.00000000       0.00000000       0.00000000
Si       8.09189753      21.57839341      24.27569259      -0.00000000       0.00000000       0.00000000
Si       9.44054712      22.92704300      25.62434218      -0.00000000       0.00000000       0.00000000
Si      10.78919671      24.27569259      24.27569259       0.00000000       0.00000000       0.00000000
Si      12.13784629      25.62434218      25.62434218      -0.00000000      -0.00000000      -0.00000000
Si      13.48649588      26.97299176      24.27569259       0.00000000       0.00000000       0.00000000
Si      14.83514547      28.32164135      25.62434218      -0.00000000      -0.00000000      -0.00000000
Si      16.18379506      29.67029094      24.27569259       0.00000000       0.00000000       0.00000000
Si      17.53244465      31.01894053      25.62434218      -0.00000000      -0.00000000      -0.00000000
Si      18.88109424      32.36759012      24.27569259      -0.00000000       0.00000000       0.00000000
Si      20.22974382      33.71623971      25.62434218      -0.00000000      -0.00000000       0.00000000
Si      21.57839341      35.06488929      24.27569259      -0.00000000       0.00000000       0.00000000
Si      22.92704300      36.41353888      25.62434218      -0.00000000      -0.00000000       0.00000000
Si      24.27569259      37.76218847      24.27569259       0.00000000       0.00000000       0.00000000
Si      25.62434218      39.11083806      25.62434218      -0.00000000      -0.00000000      -0.00000000
Si      26.97299176      40.45948765      24.27569259       0.00000000       0.00000000       0.00000000
Si      28.32164135      41.80813723      25.62434218      -0.00000000      -0.00000000      -0.00000000
Si      29.67029094      43.15678682      24.27569259       0.00000000      -0.00000000      -0.00000000
Si      31.01894053      44.50543641      25.62434218      -0.00000000       0.00000000       0.00000000
Si       8.09189753      18.88109424      26.97299176      -0.00000000       0.00000000      -0.00000000
Si       9.44054712      20.22974382      28.32164135       0.00000000       0.00000000       0.00000000
Si      10.78919671      21.57839341      26.97299176       0.00000000       0.00000000       0.00000000
Si      12.13784629      22.92704300      28.32164135      -0.00000000       0.00000000      -0.00000000
Si      13.48649588      24.27569259      26.97299176      -0.00000000      -0.00000000      -0.00000000
Si      14.83514547      25.62434218      28.32164135      -0.00000000       0.00000000       0.00000000
Si      16.18379506      26.97299176      26.97299176      -0.00000000       0.00000000       0.00000000
Si      17.53244465      28.32164135      28.32164135      -0.00000000       0.00000000      -0.00000000
Si      18.88109424      29.67029094      26.97299176      -0.00000000      -0.00000000      -0.00000000
Si      20.22974382      31.01894053      28.32164135      -0.00000000       0.00000000       0.00000000
Si      21.57839341      32.36759012      26.97299176       0.00000000       0.00000000       0.00000000
Si      22.92704300      33.71623971      28.32164135      -0.00000000      -0.00000000      -0.00000000
Si      24.27569259      35.06488929      26.97299176       0.00000000       0.00000000       0.00000000
Si      25.62434218      36.41353888      28.32164135      -0.00000000       0.00000000      -0.00000000
Si      26.97299176      37.76218847      26.97299176      -0.00000000      -0.00000000      -0.00000000
Si      28.32164135      39.11083806      28.32164135       0.00000000       0.00000000       0.00000000
Si      29.67029094      40.45948765      26.97299176       0.00000000       0.00000000      -0.00000000
Si      31.01894053      41.80813723      28.32164135      -0.00000000       0.00000000      -0.00000000
Si      32.36759012      43.15678682      26.97299176       0.00000000      -0.00000000       0.00000000
Si      33.71623971      44.50543641      28.32164135      -0.00000000      -0.00000000       0.00000000
Si      10.78919671      18.88109424      29.67029094       0.00000000       0.00000000      -0.00000000
Si      12.13784629      20.22974382      31.01894053      -0.00000000       0.00000000       0.00000000
Si      13.48649588      21.57839341      29.67029094       0.00000000      -0.00000000       0.00000000
Si      14.83514547      22.92704300      31.01894053      -0.00000000      -0.00000000       0.00000000
Si      16.18379506      24.27569259      29.67029094      -0.00000000       0.00000000       0.00000000
Si      17.53244465      25.62434218      31.01894053      -0.00000000      -0.00000000      -0.00000000
Si      18.88109424      26.97299176      29.67029094      -0.00000000       0.00000000       0.00000000
Si      20.22974382      28.32164135      31.01894053      -0.00000000      -0.00000000      -0.00000000
Si      21.57839341      29.67029094      29.67029094       0.00000000       0.00000000       0.00000000
Si      22.92704300      31.01894053      31.01894053       0.00000000       0.00000000      -0.00000000
Si      24.27569259      32.36759012      29.67029094      -0.00000000      -0.00000000       0.00000000
Si      25.62434218      33.71623971      31.01894053       0.00000000       0.00000000       0.00000000
Si      26.97299176      35.06488929      29.67029094      -0.00000000      -0.00000000       0.00000000
Si      28.32164135      36.41353888      31.01894053      -0.00000000      -0.00000000       0.00000000
Si      29.67029094      37.76218847      29.67029094       0.00000000       0.00000000      -0.00000000
Si      31.01894053      39.11083806      31.01894053      -0.00000000      -0.00000000       0.00000000
Si      32.36759012      40.45948765      29.67029094       0.00000000       0.00000000       0.00000000
Si      33.71623971      41.80813723      31.01894053       0.00000000       0.00000000      -0.00000000
Si      35.06488929      43.15678682      29.67029094      -0.00000000      -0.00000000       0.00000000
Si      36.41353888      44.50543641      31.01894053      -0.00000000      -0.00000000       0.00000000
Si      13.48649588      18.88109424      32.36759012       0.00000000       0.00000000      -0.00000000
Si      14.83514547      20.22974382      33.71623971       0.00000000       0.00000000      -0.00000000
Si      16.18379506      21.57839341      32.36759012      -0.00000000       0.00000000       0.00000000
Si      17.53244465      22.92704300      33.71623971      -0.00000000      -0.00000000       0.00000000
Si      18.88109424      24.27569259      32.36759012       0.00000000       0.00000000       0.00000000
Si      20.22974382      25.62434218      33.71623971      -0.00000000      -0.00000000      -0.00000000
Si      21.57839341      26.97299176      32.36759012       0.00000000       0.00000000       0.00000000
Si      22.92704300      28.32164135      33.71623971      -0.00000000      -0.00000000       0.00000000
Si      24.27569259      29.67029094      32.36759012       0.00000000       0.00000000       0.00000000
Si      25.62434218      31.01894053      33.71623971      -0.00000000      -0.00000000       0.00000000
Si      26.97299176      32.36759012      32.36759012       0.00000000       0.00000000       0.00000000
Si      28.32164135      33.71623971      33.71623971      -0.00000000      -0.00000000      -0.00000000
Si      29.67029094      35.06488929      32.36759012      -0.00000000      -0.00000000      -0.00000000
Si      31.01894053      36.41353888      33.71623971      -0.00000000      -0.00000000       0.00000000
Si      32.36759012      37.76218847      32.36759012       0.00000000       0.00000000      -0.00000000
Si      33.71623971      39.11083806      33.71623971       0.00000000      -0.00000000       0.00000000
Si      35.06488929      40.45948765      32.36759012      -0.00000000       0.00000000       0.00000000
Si      36.41353888      41.80813723      33.71623971       0.00000000       0.00000000      -0.00000000
Si      37.76218847      43.15678682      32.36759012      -0.00000000      -0.00000000       0.00000000
Si      39.11083806      44.50543641      33.71623971      -0.00000000      -0.00000000       0.00000000
Si      16.18379506      18.88109424      35.06488929       0.00000000       0.00000000      -0.00000000
Si      17.53244465      20.22974382      36.41353888      -0.00000000       0.00000000      -0.00000000
Si      18.88109424      21.57839341      35.06488929      -0.00000000       0.00000000       0.00000000
Si      20.22974382      22.92704300      36.41353888      -0.00000000      -0.00000000      -0.00000000
Si      21.57839341      24.27569259      35.06488929      -0.00000000       0.00000000       0.00000000
Si      22.92704300      25.62434218      36.41353888      -0.00000000      -0.00000000      -0.00000000
Si      24.27569259      26.97299176      35.06488929      -0.00000000       0.00000000      -0.00000000
Si      25.62434218      28.32164135      36.41353888       0.00000000       0.00000000      -0.00000000
Si      26.97299176      29.67029094      35.06488929      -0.00000000      -0.00000000       0.00000000
Si      28.32164135      31.01894053      36.41353888       0.00000000       0.00000000      -0.00000000
Si      29.67029094      32.36759012      35.06488929      -0.00000000      -0.00000000       0.00000000
Si      31.01894053      33.71623971      36.41353888       0.00000000       0.00000000      -0.00000000
Si      32.36759012      35.06488929      35.06488929      -0.00000000       0.00000000       0.00000000
Si      33.71623971      36.41353888      36.41353888      -0.00000000      -0.00000000      -0.00000000
Si      35.06488929      37.76218847      35.06488929      -0.00000000       0.00000000      -0.00000000
Si      36.41353888      39.11083806      36.41353888      -0.00000000       0.00000000      -0.00000000
Si      37.76218847      40.45948765      35.06488929      -0.00000000       0.00000000       0.00000000
Si      39.11083806      41.80813723      36.41353888      -0.00000000       0.00000000      -0.00000000
Si      40.45948765      43.15678682      35.06488929      -0.00000000       0.00000000       0.00000000
Si      41.80813723      44.50543641      36.41353888      -0.00000000      -0.00000000       0.00000000
Si      18.88109424      18.88109424      37.76218847       0.00000000       0.00000000      -0.00000000
Si      20.22974382      20.22974382      39.11083806      -0.00000000       0.00000000      -0.00000000
Si      21.57839341      21.57839341      37.76218847       0.00000000       0.00000000       0.00000000
Si      22.92704300      22.92704300      39.11083806       0.00000000       0.00000000      -0.00000000
Si      24.27569259      24.27569259      37.76218847      -0.00000000      -0.00000000       0.00000000
Si      25.62434218      25.62434218      39.11083806      -0.00000000       0.00000000      -0.00000000
Si      26.97299176      26.97299176      37.76218847       0.00000000       0.00000000       0.00000000
Si      28.32164135      28.32164135      39.11083806      -0.00000000       0.00000000      -0.00000000
Si      29.67029094      29.67029094      37.76218847       0.00000000       0.00000000       0.00000000
Si      31.01894053      31.01894053      39.11083806      -0.00000000       0.00000000      -0.00000000
Si      32.36759012      32.36759012      37.76218847       0.00000000       0.00000000       0.00000000
Si      33.71623971      33.71623971      39.11083806      -0.00000000       0.00000000      -0.00000000
Si      35.06488929      35.06488929      37.76218847      -0.00000000      -0.00000000      -0.00000000
Si      36.41353888      36.41353888      39.11083806      -0.00000000       0.00000000      -0.00000000
Si      37.76218847      37.76218847      37.76218847      -0.00000000       0.00000000       0.00000000
Si      39.11083806      39.11083806      39.11083806      -0.00000000       0.00000000      -0.00000000
Si      40.45948765      40.45948765      37.76218847       0.00000000       0.00000000       0.00000000
Si      41.80813723      41.80813723      39.11083806      -0.00000000      -0.00000000      -0.00000000
Si      43.15678682      43.15678682      37.76218847       0.00000000       0.00000000       0.00000000
Si      44.50543641      44.50543641      39.11083806      -0.00000000      -0.00000000      -0.00000000
Si      21.57839341      18.88109424      40.45948765       0.00000000       0.00000000       0.00000000
Si      22.92704300      20.22974382      41.80813723      -0.00000000      -0.00000000      -0.00000000
Si      24.27569259      21.57839341      40.45948765       0.00000000       0.00000000       0.00000000
Si      25.62434218      22.92704300      41.80813723      -0.00000000       0.00000000       0.00000000
Si      26.97299176      24.27569259      40.45948765      -0.00000000       0.00000000       0.00000000
Si      28.32164135      25.62434218      41.80813723       0.00000000      -0.00000000       0.00000000
Si      29.67029094      26.97299176      40.45948765      -0.00000000      -0.00000000       0.00000000
Si      31.01894053      28.32164135      41.80813723       0.00000000       0.00000000       0.00000000
Si      32.36759012      29.67029094      40.45948765      -0.00000000      -0.00000000       0.00000000
Si      33.71623971      31.01894053      41.80813723       0.00000000       0.00000000       0.00000000
Si      35.06488929      32.36759012      40.45948765       0.00000000      -0.00000000       0.00000000
Si      36.41353888      33.71623971      41.80813723      -0.00000000      -0.00000000       0.00000000
Si      37.76218847      35.06488929      40.45948765       0.00000000       0.00000000       0.00000000
Si      39.11083806      36.41353888      41.80813723      -0.00000000      -0.00000000       0.00000000
Si      40.45948765      37.76218847      40.45948765       0.00000000       0.00000000       0.00000000
Si      41.80813723      39.11083806      41.80813723      -0.00000000       0.00000000       0.00000000
Si      43.15678682      40.45948765      40.45948765       0.00000000      -0.00000000       0.00000000
Si      44.50543641      41.80813723      41.80813723       0.00000000       0.00000000       0.00000000
Si      45.85408600      43.15678682      40.45948765      -0.00000000      -0.00000000       0.00000000
Si      47.20273559      44.50543641      41.80813723      -0.00000000      -0.00000000       0.00000000
Si      24.27569259      18.88109424      43.15678682      -0.00000000       0.00000000       0.00000000
Si      25.62434218      20.22974382      44.50543641      -0.00000000       0.00000000      -0.00000000
Si      26.97299176      21.57839341      43.15678682      -0.00000000       0.00000000       0.00000000
Si      28.32164135      22.92704300      44.50543641      -0.00000000       0.00000000      -0.00000000
Si      29.67029094      24.27569259      43.15678682      -0.00000000       0.00000000      -0.00000000
Si      31.01894053      25.62434218      44.50543641      -0.00000000       0.00000000       0.00000000
Si      32.36759012      26.97299176      43.15678682      -0.00000000       0.00000000       0.00000000
Si      33.71623971      28.32164135      44.50543641      -0.00000000       0.00000000      -0.00000000
Si      35.06488929      29.67029094      43.15678682      -0.00000000       0.00000000       0.00000000
Si      36.41353888      31.01894053      44.50543641      -0.00000000       0.00000000      -0.00000000
Si      37.76218847      32.36759012      43.15678682      -0.00000000       0.00000000       0.00000000
Si      39.11083806      33.71623971      44.50543641      -0.00000000       0.00000000      -0.00000000
Si      40.45948765      35.06488929      43.15678682      -0.00000000       0.00000000      -0.00000000
Si      41.80813723      36.41353888      44.50543641      -0.00000000      -0.00000000      -0.00000000
Si      43.15678682      37.76218847      43.15678682       0.00000000       0.00000000       0.00000000
Si      44.50543641      39.11083806      44.50543641      -0.00000000      -0.00000000      -0.00000000
Si      45.85408600      40.45948765      43.15678682       0.00000000       0.00000000       0.00000000
Si      47.20273559      41.80813723      44.50543641      -0.00000000      -0.00000000      -0.00000000
Si      48.55138518      43.15678682      43.15678682      -0.00000000       0.00000000       0.00000000
Si      49.90003476      44.50543641      44.50543641      -0.00000000      -0.00000000      -0.00000000
Si       0.00000000      21.57839341      21.57839341      -0.00000000      -0.00000000       0.00000000
Si       1.34864959      22.92704300      22.92704300       0.00000000       0.00000000       0.00000000
Si       2.69729918      24.27569259      21.57839341      -0.00000000      -0.00000000      -0.00000000
Si       4.04594876      25.62434218      22.92704300       0.00000000       0.00000000       0.00000000
Si       5.39459835      26.97299176      21.57839341       0.00000000      -0.00000000       0.00000000
Si       6.74324794      28.32164135      22.92704300       0.00000000       0.00000000      -0.00000000
Si       8.09189753      29.67029094      21.57839341       0.00000000      -0.00000000       0.00000000
Si       9.44054712      31.01894053      22.92704300       0.00000000       0.00000000       0.00000000
Si      10.78919671      32.36759012      21.57839341      -0.00000000      -0.00000000      -0.00000000
Si      12.13784629      33.71623971      22.92704300       0.00000000       0.00000000       0.00000000
Si      13.48649588      35.06488929      21.57839341       0.00000000      -0.00000000       0.00000000
Si      14.83514547      36.41353888      22.92704300      -0.00000000      -0.00000000       0.00000000
Si      16.18379506      37.76218847      21.57839341       0.00000000       0.00000000       0.00000000
Si      17.53244465      39.11083806      22.92704300      -0.00000000      -0.00000000      -0.00000000
Si      18.88109424      40.45948765      21.57839341       0.00000000      -0.00000000       0.00000000
Si      20.22974382      41.80813723      22.92704300       0.00000000      -0.00000000       0.00000000
Si      21.57839341      43.15678682      21.57839341       0.00000000      -0.00000000       0.00000000
Si      22.92704300      44.50543641      22.92704300      -0.00000000       0.00000000      -0.00000000
Si      24.27569259      45.85408600      21.57839341      -0.00000000      -0.00000000      -0.00000000
Si      25.62434218      47.20273559      22.92704300       0.00000000       0.00000000       0.00000000
Si       2.69729918      21.57839341      24.27569259      -0.00000000      -0.00000000      -0.00000000
Si       4.04594876      22.92704300      25.62434218       0.00000000       0.00000000       0.00000000
Si       5.39459835      24.27569259      24.27569259       0.00000000       0.00000000       0.00000000
Si       6.74324794      25.62434218      25.62434218      -0.00000000       0.00000000      -0.00000000
Si       8.09189753      26.97299176      24.27569259       0.00000000       0.00000000       0.00000000
Si       9.44054712      28.32164135      25.62434218      -0.00000000      -0.00000000       0.00000000
Si      10.78919671      29.67029094      24.27569259       0.00000000       0.00000000      -0.00000000
Si      12.13784629      31.01894053      25.62434218      -0.00000000       0.00000000      -0.00000000
Si      13.48649588      32.36759012      24.27569259       0.00000000      -0.00000000       0.00000000
Si      14.83514547      33.71623971      25.62434218      -0.00000000       0.00000000       0.00000000
Si      16.18379506      35.06488929      24.27569259       0.00000000      -0.00000000       0.00000000
Si      17.53244465      36.41353888      25.62434218      -0.00000000      -0.00000000       0.00000000
Si      18.88109424      37.76218847      24.27569259       0.00000000       0.00000000       0.00000000
Si      20.22974382      39.11083806      25.62434218      -0.00000000      -0.00000000      -0.00000000
Si      21.57839341      40.45948765      24.27569259       0.00000000       0.00000000       0.00000000
Si      22.92704300      41.80813723      25.62434218      -0.00000000      -0.00000000      -0.00000000
Si      24.27569259      43.15678682      24.27569259       0.00000000       0.00000000       0.00000000
Si      25.62434218      44.50543641      25.62434218      -0.00000000      -0.00000000      -0.00000000
Si      26.97299176      45.85408600      24.27569259       0.00000000       0.00000000       0.00000000
Si      28.32164135      47.20273559      25.62434218      -0.00000000      -0.00000000       0.00000000
Si       5.39459835      21.57839341      26.97299176      -0.00000000      -0.00000000      -0.00000000
Si       6.74324794      22.92704300      28.32164135       0.00000000       0.00000000       0.00000000
Si       8.09189753      24.27569259      26.97299176       0.00000000      -0.00000000      -0.00000000
Si       9.44054712      25.62434218      28.32164135      -0.00000000       0.00000000       0.00000000
Si      10.78919671      26.97299176      26.97299176       0.00000000      -0.00000000      -0.00000000
Si      12.13784629      28.32164135      28.32164135      -0.00000000      -0.00000000       0.00000000
Si      13.48649588      29.67029094      26.97299176       0.00000000       0.00000000       0.00000000
Si      14.83514547      31.01894053      28.32164135      -0.00000000       0.00000000      -0.00000000
Si      16.18379506      32.36759012      26.97299176      -0.00000000      -0.00000000       0.00000000
Si      17.53244465      33.71623971      28.32164135      -0.00000000      -0.00000000       0.00000000
Si      18.88109424      35.06488929      26.97299176      -0.00000000      -0.00000000      -0.00000000
Si      20.22974382      36.41353888      28.32164135      -0.00000000      -0.00000000       0.00000000
Si      21.57839341      37.76218847      26.97299176       0.00000000      -0.00000000      -0.00000000
Si      22.92704300      39.11083806      28.32164135       0.00000000       0.00000000      -0.00000000
Si      24.27569259      40.45948765      26.97299176      -0.00000000      -0.00000000       0.00000000
Si      25.62434218      41.80813723      28.32164135       0.00000000       0.00000000      -0.00000000
Si      26.97299176      43.15678682      26.97299176      -0.00000000      -0.00000000       0.00000000
Si      28.32164135      44.50543641      28.32164135      -0.00000000       0.00000000       0.00000000
Si      29.67029094      45.85408600      26.97299176       0.00000000      -0.00000000      -0.00000000
Si      31.01894053      47.20273559      28.32164135      -0.00000000       0.00000000       0.00000000
Si       8.09189753      21.57839341      29.67029094      -0.00000000      -0.00000000      -0.00000000
Si       9.44054712      22.92704300      31.01894053       0.00000000       0.00000000       0.00000000
Si      10.78919671      24.27569259      29.67029094      -0.00000000      -0.00000000       0.00000000
Si      12.13784629      25.62434218      31.01894053      -0.00000000      -0.00000000      -0.00000000
Si      13.48649588      26.97299176      29.67029094       0.00000000       0.00000000      -0.00000000
Si      14.83514547      28.32164135      31.01894053      -0.00000000       0.00000000      -0.00000000
Si      16.18379506      29.67029094      29.67029094       0.00000000       0.00000000      -0.00000000
Si      17.53244465      31.01894053      31.01894053      -0.00000000       0.00000000      -0.00000000
Si      18.88109424      32.36759012      29.67029094      -0.00000000      -0.00000000      -0.00000000
Si      20.22974382      33.71623971      31.01894053       0.00000000       0.00000000      -0.00000000
Si      21.57839341      35.06488929      29.67029094      -0.00000000      -0.00000000      -0.00000000
Si      22.92704300      36.41353888      31.01894053      -0.00000000       0.00000000       0.00000000
Si      24.27569259      37.76218847      29.67029094       0.00000000       0.00000000       0.00000000
Si      25.62434218      39.11083806      31.01894053      -0.00000000      -0.00000000      -0.00000000
Si      26.97299176      40.45948765      29.67029094       0.00000000       0.00000000       0.00000000
Si      28.32164135      41.80813723      31.01894053      -0.00000000      -0.00000000       0.00000000
Si      29.67029094      43.15678682      29.67029094       0.00000000       0.00000000      -0.00000000
Si      31.01894053      44.50543641      31.01894053      -0.00000000      -0.00000000      -0.00000000
Si      32.36759012      45.85408600      29.67029094       0.00000000      -0.00000000       0.00000000
Si      33.71623971      47.20273559      31.01894053      -0.00000000      -0.00000000       0.00000000
Si      10.78919671      21.57839341      32.36759012       0.00000000       0.00000000      -0.00000000
Si      12.13784629      22.92704300      33.71623971      -0.00000000       0.00000000      -0.00000000
Si      13.48649588      24.27569259      32.36759012       0.00000000      -0.00000000       0.00000000
Si      14.83514547      25.62434218      33.71623971      -0.00000000      -0.00000000      -0.00000000
Si      16.18379506      26.97299176      32.36759012       0.00000000       0.00000000       0.00000000
Si      17.53244465      28.32164135      33.71623971      -0.00000000       0.00000000       0.00000000
Si      18.88109424      29.67029094      32.36759012       0.00000000       0.00000000       0.00000000
Si      20.22974382      31.01894053      33.71623971      -0.00000000      -0.00000000      -0.00000000
Si      21.57839341      32.36759012      32.36759012       0.00000000       0.00000000       0.00000000
Si      22.92704300      33.71623971      33.71623971      -0.00000000      -0.00000000      -0.00000000
Si      24.27569259      35.06488929      32.36759012       0.00000000       0.00000000       0.00000000
Si      25.62434218      36.41353888      33.71623971      -0.00000000      -0.00000000      -0.00000000
Si      26.97299176      37.76218847      32.36759012      -0.00000000      -0.00000000      -0.00000000
Si      28.32164135      39.11083806      33.71623971       0.00000000       0.00000000       0.00000000
Si      29.67029094      40.45948765      32.36759012       0.00000000      -0.00000000      -0.00000000
Si      31.01894053      41.80813723      33.71623971       0.00000000       0.00000000       0.00000000
Si      32.36759012      43.15678682      32.36759012       0.00000000       0.00000000       0.00000000
Si      33.71623971      44.50543641      33.71623971       0.00000000       0.00000000      -0.00000000
Si      35.06488929      45.85408600      32.36759012      -0.00000000      -0.00000000       0.00000000
Si      36.41353888      47.20273559      33.71623971      -0.00000000      -0.00000000       0.00000000
Si      13.48649588      21.57839341      35.06488929       0.00000000       0.00000000      -0.00000000
Si      14.83514547      22.92704300      36.41353888       0.00000000      -0.00000000      -0.00000000
Si      16.18379506      24.27569259      35.06488929       0.00000000      -0.00000000       0.00000000
Si      17.53244465      25.62434218      36.41353888      -0.00000000      -0.00000000       0.00000000
Si      18.88109424      26.97299176      35.06488929       0.00000000       0.00000000       0.00000000
Si      20.22974382      28.32164135      36.41353888      -0.00000000      -0.00000000      -0.00000000
Si      21.57839341      29.67029094      35.06488929       0.00000000       0.00000000      -0.00000000
Si      22.92704300      31.01894053      36.41353888       0.00000000       0.00000000      -0.00000000
Si      24.27569259      32.36759012      35.06488929      -0.00000000      -0.00000000       0.00000000
Si      25.62434218      33.71623971      36.41353888       0.00000000       0.00000000      -0.00000000
Si      26.97299176      35.06488929      35.06488929      -0.00000000      -0.00000000       0.00000000
Si      28.32164135      36.41353888      36.41353888       0.00000000      -0.00000000       0.00000000
Si      29.67029094      37.76218847      35.06488929       0.00000000       0.00000000      -0.00000000
Si      31.01894053      39.11083806      36.41353888      -0.00000000      -0.00000000       0.00000000
Si      32.36759012      40.45948765      35.06488929       0.00000000       0.00000000      -0.00000000
Si      33.71623971      41.80813723      36.41353888       0.00000000      -0.00000000       0.00000000
Si      35.06488929      43.15678682      35.06488929       0.00000000       0.00000000       0.00000000
Si      36.41353888      44.50543641      36.41353888       0.00000000       0.00000000      -0.00000000
Si      37.76218847      45.85408600      35.06488929      -0.00000000      -0.00000000       0.00000000
Si      39.11083806      47.20273559      36.41353888      -0.00000000      -0.00000000       0.00000000
Si      16.18379506      21.57839341      37.76218847       0.00000000       0.00000000      -0.00000000
Si      17.53244465      22.92704300      39.11083806      -0.00000000       0.00000000      -0.00000000
Si      18.88109424      24.27569259      37.76218847       0.00000000       0.00000000       0.00000000
Si      20.22974382      25.62434218      39.11083806      -0.00000000      -0.00000000       0.00000000
Si      21.57839341      26.97299176      37.76218847       0.00000000       0.00000000       0.00000000
Si      22.92704300      28.32164135      39.11083806      -0.00000000      -0.00000000      -0.00000000
Si      24.27569259      29.67029094      37.76218847       0.00000000       0.00000000       0.00000000
Si      25.62434218      31.01894053      39.11083806      -0.00000000      -0.00000000      -0.00000000
Si      26.97299176      32.36759012      37.76218847       0.00000000       0.00000000       0.00000000
Si      28.32164135      33.71623971      39.11083806      -0.00000000      -0.00000000      -0.00000000
Si      29.67029094      35.06488929      37.76218847       0.00000000       0.00000000       0.00000000
Si      31.01894053      36.41353888      39.11083806      -0.00000000      -0.00000000      -0.00000000
Si      32.36759012      37.76218847      37.76218847      -0.00000000      -0.00000000      -0.00000000
Si      33.71623971      39.11083806      39.11083806       0.00000000       0.00000000       0.00000000
Si      35.06488929      40.45948765      37.76218847      -0.00000000       0.00000000      -0.00000000
Si      36.41353888      41.80813723      39.11083806      -0.00000000      -0.00000000      -0.00000000
Si      37.76218847      43.15678682      37.76218847      -0.00000000       0.00000000      -0.00000000
Si      39.11083806      44.50543641      39.11083806      -0.00000000       0.00000000      -0.00000000
Si      40.45948765      45.85408600      37.76218847      -0.00000000      -0.00000000       0.00000000
Si      41.80813723      47.20273559      39.11083806      -0.00000000      -0.00000000       0.00000000
Si      18.88109424      21.57839341      40.45948765      -0.00000000      -0.00000000      -0.00000000
Si      20.22974382      22.92704300      41.80813723      -0.00000000       0.00000000      -0.00000000
Si      21.57839341      24.27569259      40.45948765      -0.00000000      -0.00000000       0.00000000
Si      22.92704300      25.62434218      41.80813723      -0.00000000       0.00000000      -0.00000000
Si      24.27569259      26.97299176      40.45948765      -0.00000000      -0.00000000      -0.00000000
Si      25.62434218      28.32164135      41.80813723       0.00000000       0.00000000       0.00000000
Si      26.97299176      29.67029094      40.45948765      -0.00000000      -0.00000000      -0.00000000
Si      28.32164135      31.01894053      41.80813723       0.00000000       0.00000000      -0.00000000
Si      29.67029094      32.36759012      40.45948765      -0.00000000      -0.00000000       0.00000000
Si      31.01894053      33.71623971      41.80813723      -0.00000000       0.00000000      -0.00000000
Si      32.36759012      35.06488929      40.45948765      -0.00000000      -0.00000000       0.00000000
Si      33.71623971      36.41353888      41.80813723      -0.00000000       0.00000000      -0.00000000
Si      35.06488929      37.76218847      40.45948765      -0.00000000       0.00000000      -0.00000000
Si      36.41353888      39.11083806      41.80813723       0.00000000       0.00000000      -0.00000000
Si      37.76218847      40.45948765      40.45948765      -0.00000000      -0.00000000       0.00000000
Si      39.11083806      41.80813723      41.80813723      -0.00000000       0.00000000      -0.00000000
Si      40.45948765      43.15678682      40.45948765      -0.00000000      -0.00000000       0.00000000
Si      41.80813723      44.50543641      41.80813723       0.00000000       0.00000000      -0.00000000
Si      43.15678682      45.85408600      40.45948765      -0.00000000      -0.00000000       0.00000000
Si      44.50543641      47.20273559      41.80813723       0.00000000       0.00000000       0.00000000
Si      21.57839341      21.57839341      43.15678682       0.00000000       0.00000000       0.00000000
Si      22.92704300      22.92704300      44.50543641      -0.00000000       0.00000000       0.00000000
Si      24.27569259      24.27569259      43.15678682       0.00000000      -0.00000000       0.00000000
Si      25.62434218      25.62434218      44.50543641       0.00000000      -0.00000000       0.00000000
Si      26.97299176      26.97299176      43.15678682       0.00000000      -0.00000000       0.00000000
Si      28.32164135      28.32164135      44.50543641      -0.00000000      -0.00000000       0.00000000
Si      29.67029094      29.67029094      43.15678682       0.00000000       0.00000000       0.00000000
Si      31.01894053      31.01894053      44.50543641      -0.00000000      -0.00000000       0.00000000
Si      32.36759012      32.36759012      43.15678682       0.00000000       0.00000000       0.00000000
Si      33.71623971      33.71623971      44.50543641      -0.00000000      -0.00000000       0.00000000
Si      35.06488929      35.06488929      43.15678682       0.00000000      -0.00000000       0.00000000
Si      36.41353888      36.41353888      44.50543641      -0.00000000      -0.00000000       0.00000000
Si      37.76218847      37.76218847      43.15678682       0.00000000       0.00000000       0.00000000
Si      39.11083806      39.11083806      44.50543641      -0.00000000       0.00000000       0.00000000
Si      40.45948765      40.45948765      43.15678682       0.00000000      -0.00000000       0.00000000
Si      41.80813723      41.80813723      44.50543641      -0.00000000       0.00000000       0.00000000
Si      43.15678682      43.15678682      43.15678682       0.00000000       0.00000000       0.00000000
Si      44.50543641      44.50543641      44.50543641      -0.00000000      -0.00000000       0.00000000
Si      45.85408600      45.85408600      43.15678682       0.00000000       0.00000000       0.00000000
Si      47.20273559      47.20273559      44.50543641      -0.00000000      -0.00000000       0.00000000
Si      24.27569259      21.57839341      45.85408600       0.00000000      -0.00000000       0.00000000
Si      25.62434218      22.92704300      47.20273559       0.00000000       0.00000000      -0.00000000
Si      26.97299176      24.27569259      45.85408600      -0.00000000       0.00000000      -0.00000000
Si      28.32164135      25.62434218      47.20273559      -0.00000000       0.00000000      -0.00000000
Si      29.67029094      26.97299176      45.85408600      -0.00000000       0.00000000      -0.00000000
Si      31.01894053      28.32164135      47.20273559      -0.00000000       0.00000000       0.00000000
Si      32.36759012      29.67029094      45.85408600      -0.00000000       0.00000000      -0.00000000
Si      33.71623971      31.01894053      47.20273559      -0.00000000       0.00000000      -0.00000000
Si      35.06488929      32.36759012      45.85408600      -0.00000000       0.00000000      -0.00000000
Si      36.41353888      33.71623971      47.20273559      -0.00000000       0.00000000      -0.00000000
Si      37.76218847      35.06488929      45.85408600      -0.00000000       0.00000000      -0.00000000
Si      39.11083806      36.41353888      47.20273559      -0.00000000       0.00000000      -0.00000000
Si      40.45948765      37.76218847      45.85408600       0.00000000       0.00000000      -0.00000000
Si      41.80813723      39.11083806      47.20273559       0.00000000       0.00000000      -0.00000000
Si      43.15678682      40.45948765      45.85408600      -0.00000000      -0.00000000       0.00000000
Si      44.50543641      41.80813723      47.20273559       0.00000000       0.00000000      -0.00000000
Si      45.85408600      43.15678682      45.85408600      -0.00000000      -0.00000000      -0.00000000
Si      47.20273559      44.50543641      47.20273559       0.00000000       0.00000000      -0.00000000
Si      48.55138518      45.85408600      45.85408600      -0.00000000      -0.00000000       0.00000000
Si      49.90003476      47.20273559      47.20273559      -0.00000000       0.00000000       0.00000000
Si       0.00000000      24.27569259      24.27569259       0.00000000       0.00000000      -0.00000000
Si       1.34864959      25.62434218      25.62434218       0.00000000      -0.00000000      -0.00000000
Si       2.69729918      26.97299176      24.27569259       0.00000000      -0.00000000       0.00000000
Si       4.04594876      28.32164135      25.62434218       0.00000000      -0.00000000      -0.00000000
Si       5.39459835      29.67029094      24.27569259      -0.00000000      -0.00000000       0.00000000
Si       6.74324794      31.01894053      25.62434218       0.00000000      -0.00000000      -0.00000000
Si       8.09189753      32.36759012      24.27569259       0.00000000      -0.00000000       0.00000000
Si       9.44054712      33.71623971      25.62434218       0.00000000      -0.00000000      -0.00000000
Si      10.78919671      35.06488929      24.27569259      -0.00000000      -0.00000000       0.00000000
Si      12.13784629      36.41353888      25.62434218       0.00000000      -0.00000000      -0.00000000
Si      13.48649588      37.76218847      24.27569259      -0.00000000      -0.00000000       0.00000000
Si      14.83514547      39.11083806      25.62434218       0.00000000      -0.00000000      -0.00000000
Si      16.18379506      40.45948765      24.27569259       0.00000000      -0.00000000       0.00000000
Si      17.53244465      41.80813723      25.62434218       0.00000000      -0.00000000      -0.00000000
Si      18.88109424      43.15678682      24.27569259       0.00000000      -0.00000000       0.00000000
Si      20.22974382      44.50543641      25.62434218       0.00000000       0.00000000      -0.00000000
Si      21.57839341      45.85408600      24.27569259       0.00000000      -0.00000000       0.00000000
Si      22.92704300      47.20273559      25.62434218       0.00000000      -0.00000000      -0.00000000
Si      24.27569259      48.55138518      24.27569259       0.00000000      -0.00000000       0.00000000
Si      25.62434218      49.90003476      25.62434218      -0.00000000      -0.00000000      -0.00000000
Si       2.69729918      24.27569259      26.97299176       0.00000000      -0.00000000      -0.00000000
Si       4.04594876      25.62434218      28.32164135       0.00000000      -0.00000000      -0.00000000
Si       5.39459835      26.97299176      26.97299176       0.00000000      -0.00000000       0.00000000
Si       6.74324794      28.32164135      28.32164135       0.00000000      -0.00000000      -0.00000000
Si       8.09189753      29.67029094      26.97299176       0.00000000      -0.00000000       0.00000000
Si       9.44054712      31.01894053      28.32164135       0.00000000      -0.00000000      -0.00000000
Si      10.78919671      32.36759012      26.97299176       0.00000000      -0.00000000       0.00000000
Si      12.13784629      33.71623971      28.32164135       0.00000000      -0.00000000      -0.00000000
Si      13.48649588      35.06488929      26.97299176       0.00000000      -0.00000000       0.00000000
Si      14.83514547      36.41353888      28.32164135       0.00000000      -0.00000000      -0.00000000
Si      16.18379506      37.76218847      26.97299176       0.00000000      -0.00000000       0.00000000
Si      17.53244465      39.11083806      28.32164135       0.00000000      -0.00000000      -0.00000000
Si      18.88109424      40.45948765      26.97299176       0.00000000       0.00000000      -0.00000000
Si      20.22974382      41.80813723      28.32164135       0.00000000      -0.00000000      -0.00000000
Si      21.57839341      43.15678682      26.97299176       0.00000000      -0.00000000       0.00000000
Si      22.92704300      44.50543641      28.32164135       0.00000000      -0.00000000      -0.00000000
Si      24.27569259      45.85408600      26.97299176       0.00000000      -0.00000000      -0.00000000
Si      25.62434218      47.20273559      28.32164135       0.00000000       0.00000000      -0.00000000
Si      26.97299176      48.55138518      26.97299176      -0.00000000      -0.00000000       0.00000000
Si      28.32164135      49.90003476      28.32164135       0.00000000      -0.00000000       0.00000000
Si       5.39459835      24.27569259      29.67029094       0.00000000      -0.00000000      -0.00000000
Si       6.74324794      25.62434218      31.01894053       0.00000000      -0.00000000      -0.00000000
Si       8.09189753      26.97299176      29.67029094       0.00000000      -0.00000000      -0.00000000
Si       9.44054712      28.32164135      31.01894053       0.00000000      -0.00000000      -0.00000000
Si      10.78919671      29.67029094      29.67029094      -0.00000000      -0.00000000       0.00000000
Si      12.13784629      31.01894053      31.01894053       0.00000000      -0.00000000      -0.00000000
Si      13.48649588      32.36759012      29.67029094       0.00000000      -0.00000000      -0.00000000
Si      14.83514547      33.71623971      31.01894053       0.00000000      -0.00000000      -0.00000000
Si      16.18379506      35.06488929      29.67029094       0.00000000      -0.00000000       0.00000000
Si      17.53244465      36.41353888      31.01894053       0.00000000      -0.00000000      -0.00000000
Si      18.88109424      37.76218847      29.67029094       0.00000000      -0.00000000      -0.00000000
Si      20.22974382      39.11083806      31.01894053       0.00000000      -0.00000000      -0.00000000
Si      21.57839341      40.45948765      29.67029094       0.00000000       0.00000000      -0.00000000
Si      22.92704300      41.80813723      31.01894053       0.00000000      -0.00000000      -0.00000000
Si      24.27569259      43.15678682      29.67029094       0.00000000       0.00000000       0.00000000
Si      25.62434218      44.50543641      31.01894053      -0.00000000      -0.00000000      -0.00000000
Si      26.97299176      45.85408600      29.67029094       0.00000000       0.00000000      -0.00000000
Si      28.32164135      47.20273559      31.01894053      -0.00000000      -0.00000000      -0.00000000
Si      29.67029094      48.55138518      29.67029094       0.00000000      -0.00000000      -0.00000000
Si      31.01894053      49.90003476      31.01894053      -0.00000000      -0.00000000      -0.00000000
Si       8.09189753      24.27569259      32.36759012       0.00000000       0.00000000      -0.00000000
Si       9.44054712      25.62434218      33.71623971       0.00000000      -0.00000000      -0.00000000
Si      10.78919671      26.97299176      32.36759012       0.00000000       0.00000000      -0.00000000
Si      12.13784629      28.32164135      33.71623971       0.00000000      -0.00000000      -0.00000000
Si      13.48649588      29.67029094      32.36759012       0.00000000      -0.00000000       0.00000000
Si      14.83514547      31.01894053      33.71623971       0.00000000      -0.00000000      -0.00000000
Si      16.18379506      32.36759012      32.36759012       0.00000000      -0.00000000      -0.00000000
Si      17.53244465      33.71623971      33.71623971       0.00000000      -0.00000000      -0.00000000
Si      18.88109424      35.06488929      32.36759012       0.00000000      -0.00000000       0.00000000
Si      20.22974382      36.41353888      33.71623971       0.00000000      -0.00000000      -0.00000000
Si      21.57839341      37.76218847      32.36759012       0.00000000       0.00000000      -0.00000000
Si      22.92704300      39.11083806      33.71623971      -0.00000000      -0.00000000      -0.00000000
Si      24.27569259      40.45948765      32.36759012       0.00000000      -0.00000000      -0.00000000
Si      25.62434218      41.80813723      33.71623971       0.00000000       0.00000000      -0.00000000
Si      26.97299176      43.15678682      32.36759012      -0.00000000      -0.00000000      -0.00000000
Si      28.32164135      44.50543641      33.71623971       0.00000000       0.00000000      -0.00000000
Si      29.67029094      45.85408600      32.36759012       0.00000000       0.00000000       0.00000000
Si      31.01894053      47.20273559      33.71623971       0.00000000       0.00000000      -0.00000000
Si      32.36759012      48.55138518      32.36759012      -0.00000000      -0.00000000       0.00000000
Si      33.71623971      49.90003476      33.71623971      -0.00000000      -0.00000000       0.00000000
Si      10.78919671      24.27569259      35.06488929       0.00000000       0.00000000      -0.00000000
Si      12.13784629      25.62434218      36.41353888       0.00000000      -0.00000000      -0.00000000
Si      13.48649588      26.97299176      35.06488929       0.00000000       0.00000000      -0.00000000
Si      14.83514547      28.32164135      36.41353888       0.00000000      -0.00000000      -0.00000000
Si      16.18379506      29.67029094      35.06488929       0.00000000      -0.00000000      -0.00000000
Si      17.53244465      31.01894053      36.41353888       0.00000000      -0.00000000      -0.00000000
Si      18.88109424      32.36759012      35.06488929       0.00000000      -0.00000000      -0.00000000
Si      20.22974382      33.71623971      36.41353888       0.00000000      -0.00000000      -0.00000000
Si      21.57839341      35.06488929      35.06488929       0.00000000      -0.00000000      -0.00000000
Si      22.92704300      36.41353888      36.41353888       0.00000000      -0.00000000      -0.00000000
Si      24.27569259      37.76218847      35.06488929      -0.00000000      -0.00000000       0.00000000
Si      25.62434218      39.11083806      36.41353888       0.00000000      -0.00000000      -0.00000000
Si      26.97299176      40.45948765      35.06488929       0.00000000       0.00000000      -0.00000000
Si      28.32164135      41.80813723      36.41353888      -0.00000000      -0.00000000      -0.00000000
Si      29.67029094      43.15678682      35.06488929       0.00000000       0.00000000      -0.00000000
Si      31.01894053      44.50543641      36.41353888      -0.00000000      -0.00000000      -0.00000000
Si      32.36759012      45.85408600      35.06488929       0.00000000       0.00000000       0.00000000
Si      33.71623971      47.20273559      36.41353888       0.00000000      -0.00000000      -0.00000000
Si      35.06488929      48.55138518      35.06488929      -0.00000000      -0.00000000       0.00000000
Si      36.41353888      49.90003476      36.41353888      -0.00000000      -0.00000000       0.00000000
Si      13.48649588      24.27569259      37.76218847       0.00000000       0.00000000      -0.00000000
Si      14.83514547      25.62434218      39.11083806       0.00000000      -0.00000000      -0.00000000
Si      16.18379506      26.97299176      37.76218847       0.00000000       0.00000000      -0.00000000
Si      17.53244465      28.32164135      39.11083806       0.00000000      -0.00000000      -0.00000000
Si      18.88109424      29.67029094      37.76218847       0.00000000      -0.00000000      -0.00000000
Si      20.22974382      31.01894053      39.11083806       0.00000000      -0.00000000      -0.00000000
Si      21.57839341      32.36759012      37.76218847       0.00000000       0.00000000       0.00000000
Si      22.92704300      33.71623971      39.11083806      -0.00000000      -0.00000000      -0.00000000
Si      24.27569259      35.06488929      37.76218847       0.00000000       0.00000000      -0.00000000
Si      25.62434218      36.41353888      39.11083806       0.00000000      -0.00000000      -0.00000000
Si      26.97299176      37.76218847      37.76218847       0.00000000       0.00000000      -0.00000000
Si      28.32164135      39.11083806      39.11083806       0.00000000      -0.00000000      -0.00000000
Si      29.67029094      40.45948765      37.76218847       0.00000000       0.00000000      -0.00000000
Si      31.01894053      41.80813723      39.11083806       0.00000000      -0.00000000      -0.00000000
Si      32.36759012      43.15678682      37.76218847       0.00000000       0.00000000      -0.00000000
Si      33.71623971      44.50543641      39.11083806       0.00000000      -0.00000000      -0.00000000
Si      35.06488929      45.85408600      37.76218847       0.00000000      -0.00000000       0.00000000
Si      36.41353888      47.20273559      39.11083806       0.00000000      -0.00000000      -0.00000000
Si      37.76218847      48.55138518      37.76218847      -0.00000000      -0.00000000       0.00000000
Si      39.11083806      49.90003476      39.11083806      -0.00000000      -0.00000000       0.00000000
Si      16.18379506      24.27569259      40.45948765       0.00000000       0.00000000      -0.00000000
Si      17.53244465      25.62434218      41.80813723       0.00000000      -0.00000000      -0.00000000
Si      18.88109424      26.97299176      40.45948765       0.00000000      -0.00000000      -0.00000000
Si      20.22974382      28.32164135      41.80813723       0.00000000      -0.00000000      -0.00000000
Si      21.57839341      29.67029094      40.45948765      -0.00000000      -0.00000000      -0.00000000
Si      22.92704300      31.01894053      41.80813723       0.00000000      -0.00000000      -0.00000000
Si      24.27569259      32.36759012      40.45948765      -0.00000000      -0.00000000      -0.00000000
Si      25.62434218      33.71623971      41.80813723       0.00000000       0.00000000      -0.00000000
Si      26.97299176      35.06488929      40.45948765      -0.00000000      -0.00000000      -0.00000000
Si      28.32164135      36.41353888      41.80813723       0.00000000       0.00000000      -0.00000000
Si      29.67029094      37.76218847      40.45948765      -0.00000000      -0.00000000      -0.00000000
Si      31.01894053      39.11083806      41.80813723       0.00000000      -0.00000000      -0.00000000
Si      32.36759012      40.45948765      40.45948765       0.00000000       0.00000000       0.00000000
Si      33.71623971      41.80813723      41.80813723       0.00000000      -0.00000000      -0.00000000
Si      35.06488929      43.15678682      40.45948765      -0.00000000       0.00000000      -0.00000000
Si      36.41353888      44.50543641      41.80813723       0.00000000      -0.00000000      -0.00000000
Si      37.76218847      45.85408600      40.45948765      -0.00000000      -0.00000000      -0.00000000
Si      39.11083806      47.20273559      41.80813723       0.00000000       0.00000000      -0.00000000
Si      40.45948765      48.55138518      40.45948765      -0.00000000      -0.00000000       0.00000000
Si      41.80813723      49.90003476      41.80813723      -0.00000000      -0.00000000      -0.00000000
Si      18.88109424      24.27569259      43.15678682       0.00000000       0.00000000      -0.00000000
Si      20.22974382      25.62434218      44.50543641       0.00000000      -0.00000000      -0.00000000
Si      21.57839341      26.97299176      43.15678682       0.00000000       0.00000000      -0.00000000
Si      22.92704300      28.32164135      44.50543641       0.00000000      -0.00000000      -0.00000000
Si      24.27569259      29.67029094      43.15678682       0.00000000      -0.00000000       0.00000000
Si      25.62434218      31.01894053      44.50543641      -0.00000000      -0.00000000      -0.00000000
Si      26.97299176      32.36759012      43.15678682       0.00000000       0.00000000      -0.00000000
Si      28.32164135      33.71623971      44.50543641      -0.00000000      -0.00000000      -0.00000000
Si      29.67029094      35.06488929      43.15678682       0.00000000      -0.00000000      -0.00000000
Si      31.01894053      36.41353888      44.50543641      -0.00000000      -0.00000000      -0.00000000
Si      32.36759012      37.76218847      43.15678682       0.00000000      -0.00000000       0.00000000
Si      33.71623971      39.11083806      44.50543641       0.00000000      -0.00000000      -0.00000000
Si      35.06488929      40.45948765      43.15678682       0.00000000       0.00000000      -0.00000000
Si      36.41353888      41.80813723      44.50543641       0.00000000      -0.00000000      -0.00000000
Si      37.76218847      43.15678682      43.15678682       0.00000000      -0.00000000       0.00000000
Si      39.11083806      44.50543641      44.50543641      -0.00000000      -0.00000000      -0.00000000
Si      40.45948765      45.85408600      43.15678682       0.00000000       0.00000000       0.00000000
Si      41.80813723      47.20273559      44.50543641       0.00000000      -0.00000000      -0.00000000
Si      43.15678682      48.55138518      43.15678682       0.00000000       0.00000000       0.00000000
Si      44.50543641      49.90003476      44.50543641      -0.00000000      -0.00000000      -0.00000000
Si      21.57839341      24.27569259      45.85408600       0.00000000      -0.00000000      -0.00000000
Si      22.92704300      25.62434218      47.20273559       0.00000000      -0.00000000      -0.00000000
Si      24.27569259      26.97299176      45.85408600       0.00000000      -0.00000000       0.00000000
Si      25.62434218      28.32164135      47.20273559       0.00000000      -0.00000000      -0.00000000
Si      26.97299176      29.67029094      45.85408600       0.00000000      -0.00000000       0.00000000
Si      28.32164135      31.01894053      47.20273559       0.00000000      -0.00000000       0.00000000
Si      29.67029094      32.36759012      45.85408600       0.00000000      -0.00000000      -0.00000000
Si      31.01894053      33.71623971      47.20273559       0.00000000      -0.00000000      -0.00000000
Si      32.36759012      35.06488929      45.85408600       0.00000000      -0.00000000       0.00000000
Si      33.71623971      36.41353888      47.20273559       0.00000000      -0.00000000      -0.00000000
Si      35.06488929      37.76218847      45.85408600       0.00000000      -0.00000000       0.00000000
Si      36.41353888      39.11083806      47.20273559      -0.00000000      -0.00000000       0.00000000
Si      37.76218847      40.45948765      45.85408600       0.00000000      -0.00000000      -0.00000000
Si      39.11083806      41.80813723      47.20273559       0.00000000      -0.00000000      -0.00000000
Si      40.45948765      43.15678682      45.85408600       0.00000000      -0.00000000       0.00000000
Si      41.80813723      44.50543641      47.20273559       0.00000000      -0.00000000      -0.00000000
Si      43.15678682      45.85408600      45.85408600       0.00000000      -0.00000000       0.00000000
Si      44.50543641      47.20273559      47.20273559       0.00000000      -0.00000000      -0.00000000
Si      45.85408600      48.55138518      45.85408600      -0.00000000      -0.00000000      -0.00000000
Si      47.20273559      49.90003476      47.20273559       0.00000000      -0.00000000       0.00000000
Si      24.27569259      24.27569259      48.55138518       0.00000000       0.00000000      -0.00000000
Si      25.62434218      25.62434218      49.90003476       0.00000000      -0.00000000      -0.00000000
Si      26.97299176      26.97299176      48.55138518      -0.00000000       0.00000000      -0.00000000
Si      28.32164135      28.32164135      49.90003476       0.00000000      -0.00000000      -0.00000000
Si      29.67029094      29.67029094      48.55138518       0.00000000       0.00000000      -0.00000000
Si      31.01894053      31.01894053      49.90003476      -0.00000000      -0.00000000      -0.00000000
Si      32.36759012      32.36759012      48.55138518       0.00000000       0.00000000      -0.00000000
Si      33.71623971      33.71623971      49.90003476       0.00000000      -0.00000000      -0.00000000
Si      35.06488929      35.06488929      48.55138518       0.00000000      -0.00000000      -0.00000000
Si      36.41353888      36.41353888      49.90003476       0.00000000      -0.00000000      -0.00000000
Si      37.76218847      37.76218847      48.55138518      -0.00000000       0.00000000      -0.00000000
Si      39.11083806      39.11083806      49.90003476      -0.00000000      -0.00000000      -0.00000000
Si      40.45948765      40.45948765      48.55138518       0.00000000       0.00000000      -0.00000000
Si      41.80813723      41.80813723      49.90003476      -0.00000000      -0.00000000      -0.00000000
Si      43.15678682      43.15678682      48.55138518       0.00000000       0.00000000      -0.00000000
Si      44.50543641      44.50543641      49.90003476      -0.00000000      -0.00000000      -0.00000000
Si      45.85408600      45.85408600      48.55138518       0.00000000       0.00000000      -0.00000000
Si      47.20273559      47.20273559      49.90003476      -0.00000000      -0.00000000      -0.00000000
Si      48.55138518      48.55138518      48.55138518       0.00000000       0.00000000      -0.00000000
Si      49.90003476      49.90003476      49.90003476      -0.00000000      -0.00000000      -0.00000000
