250
Lattice="1.3653639963033807e-15 13.486495882171559 13.486495882171559 13.486495882171559 9.290615442480222e-16 13.48649588217156 13.486495882171559 13.486495882171559 7.028102353673633e-16" Properties=species:S:1:pos:R:3:forces:R:3 energy=-1366.2321229515182 stress="-6.9019528507885665e-06 -0.000153408252744539 6.683227972359026e-11 -0.000153408252744539 -6.901952850795072e-06 6.683224313385157e-11 6.683227972359026e-11 6.683224313385157e-11 -1.022636469993819e-07" pbc="T T T"
Si       0.00000000       0.00000000       0.00000000      -0.07430992      -0.07430992      -0.07746180
Si       1.34864959       1.34864959       1.34864959      -0.00000140      -0.00000140       0.34311659
Si       2.69729918       2.69729918       0.00000000       0.07442204       0.07442204      -0.07750057
Si       4.04594876       4.04594876       1.34864959      -0.00076507      -0.00076507       0.00209369
Si       5.39459835       5.39459835       0.00000000       0.00038817       0.00038817      -0.00007202
Si       6.74324794       6.74324794       1.34864959      -0.00036972      -0.00036972       0.00061189
Si       8.09189753       8.09189753       0.00000000       0.00142631       0.00142631      -0.00426778
Si       9.44054712       9.44054712       1.34864959      -0.00003484      -0.00003484       0.00002049
Si      10.78919671      10.78919671       0.00000000      -0.00192656      -0.00192656      -0.00437774
Si      12.13784629      12.13784629       1.34864959       0.00117091       0.00117091       0.00271898
Si       2.69729918       0.00000000       2.69729918      -0.06801167       0.06801167      -0.07420629
Si       4.04594876       1.34864959       4.04594876      -0.00439415       0.00069659      -0.00385212
Si       5.39459835       2.69729918       2.69729918      -0.00151460      -0.00069251      -0.00029160
Si       6.74324794       4.04594876       4.04594876       0.00024980       0.00017002       0.00015212
Si       8.09189753       5.39459835       2.69729918       0.00000034      -0.00001532       0.00004551
Si       9.44054712       6.74324794       4.04594876       0.00001812      -0.00000982       0.00003407
Si      10.78919671       8.09189753       2.69729918      -0.00000112      -0.00000816       0.00005181
Si      12.13784629       9.44054712       4.04594876      -0.00015892      -0.00026773       0.00018762
Si      13.48649588      10.78919671       2.69729918       0.00070924       0.00152213      -0.00024944
Si      14.83514547      12.13784629       4.04594876      -0.00069659       0.00439268      -0.00385250
Si       5.39459835       0.00000000       5.39459835      -0.00023218       0.00037307      -0.00051597
Si       6.74324794       1.34864959       6.74324794       0.00017326      -0.00028007       0.00012796
Si       8.09189753       2.69729918       5.39459835       0.00001732      -0.00001342       0.00004145
Si       9.44054712       4.04594876       6.74324794      -0.00000633      -0.00000961       0.00000383
Si      10.78919671       5.39459835       5.39459835      -0.00000021       0.00000131      -0.00000120
Si      12.13784629       6.74324794       6.74324794      -0.00000021       0.00000130      -0.00000131
Si      13.48649588       8.09189753       5.39459835      -0.00000282      -0.00001634       0.00001956
Si      14.83514547       9.44054712       6.74324794       0.00004367      -0.00000327      -0.00001548
Si      16.18379506      10.78919671       5.39459835      -0.00047283       0.00034611      -0.00053428
Si      17.53244465      12.13784629       6.74324794       0.00049205      -0.00041079       0.00076780
Si       8.09189753       0.00000000       8.09189753      -0.00067860       0.00145826      -0.00024442
Si       9.44054712       1.34864959       9.44054712       0.00001131       0.00004101      -0.00020120
Si      10.78919671       2.69729918       8.09189753      -0.00002621      -0.00000920       0.00000696
Si      12.13784629       4.04594876       9.44054712       0.00039778      -0.00037431       0.00062516
Si      13.48649588       5.39459835       8.09189753       0.00000750      -0.00001447       0.00004126
Si      14.83514547       6.74324794       9.44054712      -0.00005473      -0.00001625      -0.00002314
Si      16.18379506       8.09189753       8.09189753       0.00000157       0.00004402      -0.00003742
Si      17.53244465       9.44054712       9.44054712      -0.00000460       0.00000121      -0.00018293
Si      18.88109424      10.78919671       8.09189753      -0.00146132       0.00067843      -0.00024473
Si      20.22974382      12.13784629       9.44054712      -0.00063127       0.00062986       0.00221148
Si      10.78919671       0.00000000      10.78919671      -0.00102292      -0.00201880      -0.00083038
Si      12.13784629       1.34864959      12.13784629      -0.00442568      -0.00044254      -0.00370075
Si      13.48649588       2.69729918      10.78919671      -0.00154457       0.00155385      -0.00465655
Si      14.83514547       4.04594876      12.13784629       0.00069215       0.00459443      -0.00385430
Si      16.18379506       5.39459835      10.78919671       0.00049635       0.00032906      -0.00053547
Si      17.53244465       6.74324794      12.13784629      -0.00041797      -0.00057352       0.00030801
Si      18.88109424       8.09189753      10.78919671       0.00151663       0.00069570      -0.00029341
Si      20.22974382       9.44054712      12.13784629       0.00439266      -0.00069510      -0.00385136
Si      21.57839341      10.78919671      10.78919671       0.06800847      -0.06801370      -0.07420810
Si      22.92704300      12.13784629      12.13784629       0.00110008      -0.00422451      -0.00369660
Si       0.00000000       2.69729918       2.69729918       0.06801167      -0.06801167      -0.07420629
Si       1.34864959       4.04594876       4.04594876       0.00069659      -0.00439415      -0.00385212
Si       2.69729918       5.39459835       2.69729918      -0.00069251      -0.00151460      -0.00029160
Si       4.04594876       6.74324794       4.04594876       0.00017002       0.00024980       0.00015212
Si       5.39459835       8.09189753       2.69729918      -0.00001532       0.00000034       0.00004551
Si       6.74324794       9.44054712       4.04594876      -0.00000982       0.00001812       0.00003407
Si       8.09189753      10.78919671       2.69729918      -0.00000816      -0.00000112       0.00005181
Si       9.44054712      12.13784629       4.04594876      -0.00026773      -0.00015892       0.00018762
Si      10.78919671      13.48649588       2.69729918       0.00152213       0.00070924      -0.00024944
Si      12.13784629      14.83514547       4.04594876       0.00439268      -0.00069659      -0.00385250
Si       2.69729918       2.69729918       5.39459835      -0.00142631      -0.00142631      -0.00426695
Si       4.04594876       4.04594876       6.74324794       0.00040454       0.00040454       0.00062425
Si       5.39459835       5.39459835       5.39459835       0.00011212       0.00011212       0.00003878
Si       6.74324794       6.74324794       6.74324794      -0.00000128      -0.00000128      -0.00000090
Si       8.09189753       8.09189753       5.39459835       0.00000322       0.00000322      -0.00001907
Si       9.44054712       9.44054712       6.74324794       0.00000128       0.00000128      -0.00000594
Si      10.78919671      10.78919671       5.39459835      -0.00011535      -0.00011535       0.00001971
Si      12.13784629      12.13784629       6.74324794      -0.00040456      -0.00040456       0.00062440
Si      13.48649588      13.48649588       5.39459835       0.00142631       0.00142631      -0.00426695
Si      14.83514547      14.83514547       6.74324794       0.00000002       0.00000002       0.00003286
Si       5.39459835       2.69729918       8.09189753       0.00001760       0.00000018       0.00004552
Si       6.74324794       4.04594876       9.44054712       0.00000370      -0.00001825      -0.00000473
Si       8.09189753       5.39459835       8.09189753       0.00000001       0.00000331       0.00000001
Si       9.44054712       6.74324794       9.44054712      -0.00000130       0.00000128      -0.00000091
Si      10.78919671       8.09189753       8.09189753      -0.00000000      -0.00000000       0.00000000
Si      12.13784629       9.44054712       9.44054712       0.00000019       0.00000129      -0.00000128
Si      13.48649588      10.78919671       8.09189753      -0.00001084      -0.00001674       0.00004217
Si      14.83514547      12.13784629       9.44054712       0.00003618      -0.00001480       0.00003076
Si      16.18379506      13.48649588       8.09189753       0.00000764      -0.00000116       0.00005182
Si      17.53244465      14.83514547       9.44054712       0.00004515      -0.00005345       0.00002173
Si       8.09189753       2.69729918      10.78919671      -0.00002522      -0.00000065      -0.00001337
Si       9.44054712       4.04594876      12.13784629       0.00024117      -0.00015499       0.00015376
Si      10.78919671       5.39459835      10.78919671       0.00011468      -0.00011809       0.00003898
Si      12.13784629       6.74324794      12.13784629       0.00016497      -0.00024623       0.00014860
Si      13.48649588       8.09189753      10.78919671       0.00000416      -0.00001492       0.00002068
Si      14.83514547       9.44054712      12.13784629      -0.00001500      -0.00000476       0.00001031
Si      16.18379506      10.78919671      10.78919671      -0.00000033       0.00004146      -0.00003526
Si      17.53244465      12.13784629      12.13784629      -0.00039332       0.00016533       0.00014732
Si      18.88109424      13.48649588      10.78919671       0.00049033      -0.00049144      -0.00012125
Si      20.22974382      14.83514547      12.13784629      -0.00015550       0.00039834       0.00015247
Si      10.78919671       2.69729918      13.48649588      -0.00145684       0.00069202      -0.00022053
Si      12.13784629       4.04594876      14.83514547      -0.00062972       0.00062862       0.00221141
Si      13.48649588       5.39459835      13.48649588      -0.00067547       0.00145835      -0.00024129
Si      14.83514547       6.74324794      14.83514547       0.00000144       0.00000446      -0.00018300
Si      16.18379506       8.09189753      13.48649588      -0.00005745      -0.00000299      -0.00001353
Si      17.53244465       9.44054712      14.83514547      -0.00000320       0.00005223      -0.00002425
Si      18.88109424      10.78919671      13.48649588       0.00034666      -0.00048754      -0.00055497
Si      20.22974382      12.13784629      14.83514547      -0.00026421       0.00024074       0.00061558
Si      21.57839341      13.48649588      13.48649588       0.00048924      -0.00030598      -0.00058926
Si      22.92704300      14.83514547      14.83514547      -0.00003851       0.00000815      -0.00020232
Si       0.00000000       5.39459835       5.39459835       0.00037307      -0.00023218      -0.00051597
Si       1.34864959       6.74324794       6.74324794      -0.00028007       0.00017326       0.00012796
Si       2.69729918       8.09189753       5.39459835      -0.00001342       0.00001732       0.00004145
Si       4.04594876       9.44054712       6.74324794      -0.00000961      -0.00000633       0.00000383
Si       5.39459835      10.78919671       5.39459835       0.00000131      -0.00000021      -0.00000120
Si       6.74324794      12.13784629       6.74324794       0.00000130      -0.00000021      -0.00000131
Si       8.09189753      13.48649588       5.39459835      -0.00001634      -0.00000282       0.00001956
Si       9.44054712      14.83514547       6.74324794      -0.00000327       0.00004367      -0.00001548
Si      10.78919671      16.18379506       5.39459835       0.00034611      -0.00047283      -0.00053428
Si      12.13784629      17.53244465       6.74324794      -0.00041079       0.00049205       0.00076780
Si       2.69729918       5.39459835       8.09189753       0.00000018       0.00001760       0.00004552
Si       4.04594876       6.74324794       9.44054712      -0.00001825       0.00000370      -0.00000473
Si       5.39459835       8.09189753       8.09189753       0.00000331       0.00000001       0.00000001
Si       6.74324794       9.44054712       9.44054712       0.00000128      -0.00000130      -0.00000091
Si       8.09189753      10.78919671       8.09189753       0.00000000       0.00000000       0.00000000
Si       9.44054712      12.13784629       9.44054712       0.00000129       0.00000019      -0.00000128
Si      10.78919671      13.48649588       8.09189753      -0.00001674      -0.00001084       0.00004217
Si      12.13784629      14.83514547       9.44054712      -0.00001480       0.00003618       0.00003076
Si      13.48649588      16.18379506       8.09189753      -0.00000116       0.00000764       0.00005182
Si      14.83514547      17.53244465       9.44054712      -0.00005345       0.00004515       0.00002173
Si       5.39459835       5.39459835      10.78919671      -0.00000021      -0.00000021      -0.00000000
Si       6.74324794       6.74324794      12.13784629       0.00000002       0.00000002      -0.00000015
Si       8.09189753       8.09189753      10.78919671      -0.00000000       0.00000000       0.00000000
Si       9.44054712       9.44054712      12.13784629      -0.00000002      -0.00000002      -0.00000551
Si      10.78919671      10.78919671      10.78919671       0.00000000       0.00000000       0.00000000
Si      12.13784629      12.13784629      12.13784629      -0.00000000      -0.00000000      -0.00000000
Si      13.48649588      13.48649588      10.78919671       0.00000343       0.00000343      -0.00001907
Si      14.83514547      14.83514547      12.13784629       0.00000019       0.00000019      -0.00000519
Si      16.18379506      16.18379506      10.78919671      -0.00000322      -0.00000322      -0.00001990
Si      17.53244465      17.53244465      12.13784629      -0.00000019      -0.00000019      -0.00000015
Si       8.09189753       5.39459835      13.48649588       0.00000713      -0.00000210       0.00000202
Si       9.44054712       6.74324794      14.83514547       0.00005369      -0.00002536       0.00002227
Si      10.78919671       8.09189753      13.48649588       0.00000435      -0.00001084      -0.00001657
Si      12.13784629       9.44054712      14.83514547      -0.00000499      -0.00003642       0.00003131
Si      13.48649588      10.78919671      13.48649588       0.00000125       0.00000353      -0.00000134
Si      14.83514547      12.13784629      14.83514547       0.00000126       0.00000002      -0.00000136
Si      16.18379506      13.48649588      13.48649588       0.00000297      -0.00000192      -0.00000172
Si      17.53244465      14.83514547      14.83514547       0.00000120      -0.00000118      -0.00000084
Si      18.88109424      16.18379506      13.48649588      -0.00000139      -0.00000298      -0.00000171
Si      20.22974382      17.53244465      14.83514547       0.00001805      -0.00000625      -0.00000480
Si      10.78919671       5.39459835      16.18379506       0.00048393      -0.00047696      -0.00007879
Si      12.13784629       6.74324794      17.53244465      -0.00055803       0.00078602       0.00077609
Si      13.48649588       8.09189753      16.18379506      -0.00005484       0.00000783       0.00000720
Si      14.83514547       9.44054712      17.53244465      -0.00001623      -0.00002636      -0.00001436
Si      16.18379506      10.78919671      16.18379506       0.00000312      -0.00000330      -0.00000314
Si      17.53244465      12.13784629      17.53244465       0.00000134       0.00000007      -0.00000124
Si      18.88109424      13.48649588      16.18379506       0.00000636      -0.00000296      -0.00000344
Si      20.22974382      14.83514547      17.53244465      -0.00001005       0.00000372       0.00000392
Si      21.57839341      16.18379506      16.18379506      -0.00000021       0.00003702      -0.00003718
Si      22.92704300      17.53244465      17.53244465      -0.00035698       0.00017650       0.00012780
Si       0.00000000       8.09189753       8.09189753       0.00145826      -0.00067860      -0.00024442
Si       1.34864959       9.44054712       9.44054712       0.00004101       0.00001131      -0.00020120
Si       2.69729918      10.78919671       8.09189753      -0.00000920      -0.00002621       0.00000696
Si       4.04594876      12.13784629       9.44054712      -0.00037431       0.00039778       0.00062516
Si       5.39459835      13.48649588       8.09189753      -0.00001447       0.00000750       0.00004126
Si       6.74324794      14.83514547       9.44054712      -0.00001625      -0.00005473      -0.00002314
Si       8.09189753      16.18379506       8.09189753       0.00004402       0.00000157      -0.00003742
Si       9.44054712      17.53244465       9.44054712       0.00000121      -0.00000460      -0.00018293
Si      10.78919671      18.88109424       8.09189753       0.00067843      -0.00146132      -0.00024473
Si      12.13784629      20.22974382       9.44054712       0.00062986      -0.00063127       0.00221148
Si       2.69729918       8.09189753      10.78919671      -0.00000065      -0.00002522      -0.00001337
Si       4.04594876       9.44054712      12.13784629      -0.00015499       0.00024117       0.00015376
Si       5.39459835      10.78919671      10.78919671      -0.00011809       0.00011468       0.00003898
Si       6.74324794      12.13784629      12.13784629      -0.00024623       0.00016497       0.00014860
Si       8.09189753      13.48649588      10.78919671      -0.00001492       0.00000416       0.00002068
Si       9.44054712      14.83514547      12.13784629      -0.00000476      -0.00001500       0.00001031
Si      10.78919671      16.18379506      10.78919671       0.00004146      -0.00000033      -0.00003526
Si      12.13784629      17.53244465      12.13784629       0.00016533      -0.00039332       0.00014732
Si      13.48649588      18.88109424      10.78919671      -0.00049144       0.00049033      -0.00012125
Si      14.83514547      20.22974382      12.13784629       0.00039834      -0.00015550       0.00015247
Si       5.39459835       8.09189753      13.48649588      -0.00000210       0.00000713       0.00000202
Si       6.74324794       9.44054712      14.83514547      -0.00002536       0.00005369       0.00002227
Si       8.09189753      10.78919671      13.48649588      -0.00001084       0.00000435      -0.00001657
Si       9.44054712      12.13784629      14.83514547      -0.00003642      -0.00000499       0.00003131
Si      10.78919671      13.48649588      13.48649588       0.00000353       0.00000125      -0.00000134
Si      12.13784629      14.83514547      14.83514547       0.00000002       0.00000126      -0.00000136
Si      13.48649588      16.18379506      13.48649588      -0.00000192       0.00000297      -0.00000172
Si      14.83514547      17.53244465      14.83514547      -0.00000118       0.00000120      -0.00000084
Si      16.18379506      18.88109424      13.48649588      -0.00000298      -0.00000139      -0.00000171
Si      17.53244465      20.22974382      14.83514547      -0.00000625       0.00001805      -0.00000480
Si       8.09189753       8.09189753      16.18379506       0.00000126       0.00000126       0.00005268
Si       9.44054712       9.44054712      17.53244465      -0.00000019      -0.00000019       0.00006904
Si      10.78919671      10.78919671      16.18379506      -0.00000147      -0.00000147       0.00005350
Si      12.13784629      12.13784629      17.53244465      -0.00024980      -0.00024980       0.00063445
Si      13.48649588      13.48649588      16.18379506       0.00000320       0.00000320      -0.00000367
Si      14.83514547      14.83514547      17.53244465       0.00000139       0.00000139      -0.00000632
Si      16.18379506      16.18379506      16.18379506      -0.00000000       0.00000000       0.00000000
Si      17.53244465      17.53244465      17.53244465      -0.00000139      -0.00000139      -0.00000096
Si      18.88109424      18.88109424      16.18379506      -0.00000299      -0.00000299      -0.00000367
Si      20.22974382      20.22974382      17.53244465       0.00024999       0.00024999       0.00063430
Si      10.78919671       8.09189753      18.88109424       0.00154790      -0.00154895      -0.00466162
Si      12.13784629       9.44054712      20.22974382       0.00459438       0.00069091      -0.00385551
Si      13.48649588      10.78919671      18.88109424       0.00033025       0.00050298      -0.00054017
Si      14.83514547      12.13784629      20.22974382      -0.00038645      -0.00015835       0.00018936
Si      16.18379506      13.48649588      18.88109424       0.00000668      -0.00000145      -0.00002174
Si      17.53244465      14.83514547      20.22974382      -0.00000979      -0.00001853       0.00003461
Si      18.88109424      16.18379506      18.88109424      -0.00000079      -0.00000298      -0.00000316
Si      20.22974382      17.53244465      20.22974382       0.00016960       0.00040482       0.00015325
Si      21.57839341      18.88109424      18.88109424      -0.00050125      -0.00033239      -0.00054054
Si      22.92704300      20.22974382      20.22974382      -0.00069099      -0.00459559      -0.00385500
Si       0.00000000      10.78919671      10.78919671      -0.00201880      -0.00102292      -0.00083038
Si       1.34864959      12.13784629      12.13784629      -0.00044254      -0.00442568      -0.00370075
Si       2.69729918      13.48649588      10.78919671       0.00155385      -0.00154457      -0.00465655
Si       4.04594876      14.83514547      12.13784629       0.00459443       0.00069215      -0.00385430
Si       5.39459835      16.18379506      10.78919671       0.00032906       0.00049635      -0.00053547
Si       6.74324794      17.53244465      12.13784629      -0.00057352      -0.00041797       0.00030801
Si       8.09189753      18.88109424      10.78919671       0.00069570       0.00151663      -0.00029341
Si       9.44054712      20.22974382      12.13784629      -0.00069510       0.00439266      -0.00385136
Si      10.78919671      21.57839341      10.78919671      -0.06801370       0.06800847      -0.07420810
Si      12.13784629      22.92704300      12.13784629      -0.00422451       0.00110008      -0.00369660
Si       2.69729918      10.78919671      13.48649588       0.00069202      -0.00145684      -0.00022053
Si       4.04594876      12.13784629      14.83514547       0.00062862      -0.00062972       0.00221141
Si       5.39459835      13.48649588      13.48649588       0.00145835      -0.00067547      -0.00024129
Si       6.74324794      14.83514547      14.83514547       0.00000446       0.00000144      -0.00018300
Si       8.09189753      16.18379506      13.48649588      -0.00000299      -0.00005745      -0.00001353
Si       9.44054712      17.53244465      14.83514547       0.00005223      -0.00000320      -0.00002425
Si      10.78919671      18.88109424      13.48649588      -0.00048754       0.00034666      -0.00055497
Si      12.13784629      20.22974382      14.83514547       0.00024074      -0.00026421       0.00061558
Si      13.48649588      21.57839341      13.48649588      -0.00030598       0.00048924      -0.00058926
Si      14.83514547      22.92704300      14.83514547       0.00000815      -0.00003851      -0.00020232
Si       5.39459835      10.78919671      16.18379506      -0.00047696       0.00048393      -0.00007879
Si       6.74324794      12.13784629      17.53244465       0.00078602      -0.00055803       0.00077609
Si       8.09189753      13.48649588      16.18379506       0.00000783      -0.00005484       0.00000720
Si       9.44054712      14.83514547      17.53244465      -0.00002636      -0.00001623      -0.00001436
Si      10.78919671      16.18379506      16.18379506      -0.00000330       0.00000312      -0.00000314
Si      12.13784629      17.53244465      17.53244465       0.00000007       0.00000134      -0.00000124
Si      13.48649588      18.88109424      16.18379506      -0.00000296       0.00000636      -0.00000344
Si      14.83514547      20.22974382      17.53244465       0.00000372      -0.00001005       0.00000392
Si      16.18379506      21.57839341      16.18379506       0.00003702      -0.00000021      -0.00003718
Si      17.53244465      22.92704300      17.53244465       0.00017650      -0.00035698       0.00012780
Si       8.09189753      10.78919671      18.88109424      -0.00154895       0.00154790      -0.00466162
Si       9.44054712      12.13784629      20.22974382       0.00069091       0.00459438      -0.00385551
Si      10.78919671      13.48649588      18.88109424       0.00050298       0.00033025      -0.00054017
Si      12.13784629      14.83514547      20.22974382      -0.00015835      -0.00038645       0.00018936
Si      13.48649588      16.18379506      18.88109424      -0.00000145       0.00000668      -0.00002174
Si      14.83514547      17.53244465      20.22974382      -0.00001853      -0.00000979       0.00003461
Si      16.18379506      18.88109424      18.88109424      -0.00000298      -0.00000079      -0.00000316
Si      17.53244465      20.22974382      20.22974382       0.00040482       0.00016960       0.00015325
Si      18.88109424      21.57839341      18.88109424      -0.00033239      -0.00050125      -0.00054054
Si      20.22974382      22.92704300      20.22974382      -0.00459559      -0.00069099      -0.00385500
Si      10.78919671      10.78919671      21.57839341       0.07441884       0.07441884      -0.07750425
Si      12.13784629      12.13784629      22.92704300      -0.00051654      -0.00051654       0.00272903
Si      13.48649588      13.48649588      21.57839341       0.00050156       0.00050156      -0.00005730
Si      14.83514547      14.83514547      22.92704300       0.00003484       0.00003484       0.00005668
Si      16.18379506      16.18379506      21.57839341      -0.00000126      -0.00000126       0.00005266
Si      17.53244465      17.53244465      22.92704300      -0.00028464      -0.00028464       0.00062194
Si      18.88109424      18.88109424      21.57839341      -0.00049709      -0.00049709      -0.00011447
Si      20.22974382      20.22974382      22.92704300       0.00076774       0.00076774       0.00209362
Si      21.57839341      21.57839341      21.57839341      -0.07442204      -0.07442204      -0.07750057
Si      22.92704300      22.92704300      22.92704300      -0.00000138      -0.00000138       0.34311666
