432
Lattice="9.471383488283784e-18 17.262499558334248 17.262499558334248 17.262499558334248 1.988335972417244e-18 17.262499558334248 17.262499558334248 17.262499558334248 6.4915137127016614e-18" Properties=species:S:1:pos:R:3:forces:R:3 energy=-1782.0018310546875 free_energy=-1782.0018310546875 stress="1.0886150448641274e-05 -2.88372793875169e-05 1.3753358871326782e-05 -2.88372793875169e-05 -4.603647539624944e-05 -2.0370685888337903e-05 1.3753358871326782e-05 -2.0370685888337903e-05 2.0828054402954876e-05" pbc="T T T"
Ga       0.00000000       0.00000000       0.00000000      -0.07860020      -0.07870845      -0.11014445
As       1.43854163       1.43854163       1.43854163       0.00031644       0.00053179       0.49704683
Ga       2.87708326       2.87708326       0.00000000       0.07848303       0.07833224      -0.11016792
As       4.31562489       4.31562489       1.43854163      -0.00955271      -0.00944235       0.00686581
Ga       5.75416652       5.75416652       0.00000000       0.00235634       0.00229185      -0.00587386
As       7.19270815       7.19270815       1.43854163      -0.00138564      -0.00130598       0.00056419
Ga       8.63124978       8.63124978       0.00000000       0.00009446       0.00001709      -0.00055197
As      10.06979141      10.06979141       1.43854163       0.00009900       0.00017102      -0.00065963
Ga      11.50833304      11.50833304       0.00000000      -0.00057360      -0.00061414       0.00192943
As      12.94687467      12.94687467       1.43854163       0.00178759       0.00186132      -0.00077943
Ga      14.38541630      14.38541630       0.00000000      -0.00299705      -0.00307441      -0.00320199
As      15.82395793      15.82395793       1.43854163       0.00996264       0.01009173       0.00639841
Ga       2.87708326       0.00000000       2.87708326      -0.06854504       0.06833535      -0.10485357
As       4.31562489       1.43854163       4.31562489      -0.01181307       0.00987674      -0.01029631
Ga       5.75416652       2.87708326       2.87708326       0.00210919      -0.00138058      -0.00044839
As       7.19270815       4.31562489       4.31562489      -0.00100735       0.00006078      -0.00047462
Ga       8.63124978       5.75416652       2.87708326       0.00034603      -0.00052496      -0.00005036
As      10.06979141       7.19270815       4.31562489      -0.00004905       0.00033727      -0.00060847
Ga      11.50833304       8.63124978       2.87708326      -0.00034862      -0.00010680       0.00060957
As      12.94687467      10.06979141       4.31562489       0.00031753       0.00061452      -0.00044309
Ga      14.38541630      11.50833304       2.87708326      -0.00025496      -0.00086213       0.00039204
As      15.82395793      12.94687467       4.31562489       0.00052470       0.00148001      -0.00048474
Ga      17.26249956      14.38541630       2.87708326       0.00057308      -0.00233812       0.00010759
As      18.70104119      15.82395793       4.31562489      -0.00948434       0.01210478      -0.01052909
Ga       5.75416652       0.00000000       5.75416652       0.00234552      -0.00739980       0.00254332
As       7.19270815       1.43854163       7.19270815      -0.00192077       0.00182834      -0.00226725
Ga       8.63124978       2.87708326       5.75416652       0.00088406      -0.00036707       0.00003600
As      10.06979141       4.31562489       7.19270815      -0.00030060       0.00065839      -0.00051459
Ga      11.50833304       5.75416652       5.75416652       0.00010253      -0.00062311       0.00055194
As      12.94687467       7.19270815       7.19270815       0.00007332       0.00057718      -0.00073109
Ga      14.38541630       8.63124978       5.75416652      -0.00013304      -0.00069854       0.00068544
As      15.82395793      10.06979141       7.19270815       0.00016283       0.00079157      -0.00068126
Ga      17.26249956      11.50833304       5.75416652      -0.00018226      -0.00132694       0.00034340
As      18.70104119      12.94687467       7.19270815      -0.00150775       0.00242015      -0.00241503
Ga      20.13958282      14.38541630       5.75416652       0.00717325      -0.00267780       0.00271093
As      21.57812445      15.82395793       7.19270815      -0.00140682       0.00152334      -0.00101460
Ga       8.63124978       0.00000000       8.63124978       0.00111724      -0.00168631       0.00140708
As      10.06979141       1.43854163      10.06979141      -0.00125166       0.00145190      -0.00110520
Ga      11.50833304       2.87708326       8.63124978       0.00035762      -0.00123342       0.00018431
As      12.94687467       4.31562489      10.06979141       0.00007861       0.00038587      -0.00062594
Ga      14.38541630       5.75416652       8.63124978       0.00000401      -0.00054561       0.00074392
As      15.82395793       7.19270815      10.06979141       0.00011276       0.00049610      -0.00072572
Ga      17.26249956       8.63124978       8.63124978      -0.00011010      -0.00076020       0.00077935
As      18.70104119      10.06979141      10.06979141       0.00015374       0.00131430      -0.00123595
Ga      20.13958282      11.50833304       8.63124978       0.00120041      -0.00154618       0.00130422
As      21.57812445      12.94687467      10.06979141      -0.00012636       0.00068149      -0.00061521
Ga      23.01666608      14.38541630       8.63124978       0.00166913      -0.00136774       0.00040087
As      24.45520771      15.82395793      10.06979141      -0.00139390       0.00100240      -0.00058534
Ga      11.50833304       0.00000000      11.50833304       0.00006966      -0.00124073       0.00030375
As      12.94687467       1.43854163      12.94687467      -0.00200191      -0.00128119      -0.00202500
Ga      14.38541630       2.87708326      11.50833304      -0.00022022      -0.00057402       0.00082760
As      15.82395793       4.31562489      12.94687467       0.00027059       0.00019944      -0.00074765
Ga      17.26249956       5.75416652      11.50833304       0.00018574      -0.00004384       0.00089262
As      18.70104119       7.19270815      12.94687467       0.00176512       0.00250337      -0.00218087
Ga      20.13958282       8.63124978      11.50833304      -0.00142741      -0.00154370       0.00113849
As      21.57812445      10.06979141      12.94687467       0.00028480       0.00047012      -0.00022865
Ga      23.01666608      11.50833304      11.50833304       0.00007012      -0.00091232       0.00059931
As      24.45520771      12.94687467      12.94687467       0.00011562       0.00042087      -0.00025127
Ga      25.89374934      14.38541630      11.50833304       0.00235350       0.00034705      -0.00016231
As      27.33229097      15.82395793      12.94687467      -0.00930115       0.00953896       0.00657203
Ga      14.38541630       0.00000000      14.38541630       0.00105067       0.00908787       0.00160898
As      15.82395793       1.43854163      15.82395793      -0.01279706      -0.01057671      -0.01073442
Ga      17.26249956       2.87708326      14.38541630      -0.00032743       0.00046331       0.00254447
As      18.70104119       4.31562489      15.82395793       0.00966221       0.01266253      -0.01075321
Ga      20.13958282       5.75416652      14.38541630      -0.00739044      -0.00248802       0.00210898
As      21.57812445       7.19270815      15.82395793       0.00090124       0.00028709      -0.00016835
Ga      23.01666608       8.63124978      14.38541630      -0.00061780      -0.00037822       0.00032740
As      24.45520771      10.06979141      15.82395793       0.00148105       0.00071150      -0.00018550
Ga      25.89374934      11.50833304      14.38541630      -0.00234739       0.00062513      -0.00029882
As      27.33229097      12.94687467      15.82395793       0.01206998      -0.00930533      -0.01011339
Ga      28.77083260      14.38541630      14.38541630       0.06841797      -0.06909449      -0.10439391
As      30.20937423      15.82395793      15.82395793       0.00989609      -0.01204356      -0.01010185
Ga       0.00000000       2.87708326       2.87708326       0.06840448      -0.06863682      -0.10477068
As       1.43854163       4.31562489       4.31562489       0.00981950      -0.01176657      -0.01035698
Ga       2.87708326       5.75416652       2.87708326      -0.00129128       0.00202968      -0.00044723
As       4.31562489       7.19270815       4.31562489      -0.00002007      -0.00092817      -0.00046610
Ga       5.75416652       8.63124978       2.87708326      -0.00045704       0.00026763      -0.00006340
As       7.19270815      10.06979141       4.31562489       0.00026464       0.00003254      -0.00060396
Ga       8.63124978      11.50833304       2.87708326      -0.00002808      -0.00042513       0.00060552
As      10.06979141      12.94687467       4.31562489       0.00053616       0.00039568      -0.00044289
Ga      11.50833304      14.38541630       2.87708326      -0.00078123      -0.00033590       0.00039284
As      12.94687467      15.82395793       4.31562489       0.00139586       0.00060493      -0.00047658
Ga      14.38541630      17.26249956       2.87708326      -0.00223312       0.00049473       0.00012385
As      15.82395793      18.70104119       4.31562489       0.01206278      -0.00939277      -0.01057399
Ga       2.87708326       2.87708326       5.75416652      -0.00029658      -0.00036449       0.00304106
As       4.31562489       4.31562489       7.19270815       0.00031641       0.00039629      -0.00109677
Ga       5.75416652       5.75416652       5.75416652      -0.00007072      -0.00014458       0.00056421
As       7.19270815       7.19270815       7.19270815       0.00033353       0.00041105      -0.00057454
Ga       8.63124978       8.63124978       5.75416652      -0.00016534      -0.00024327       0.00061835
As      10.06979141      10.06979141       7.19270815       0.00026071       0.00033776      -0.00072592
Ga      11.50833304      11.50833304       5.75416652      -0.00032069      -0.00039844       0.00068880
As      12.94687467      12.94687467       7.19270815       0.00019324       0.00027013      -0.00067905
Ga      14.38541630      14.38541630       5.75416652      -0.00037209      -0.00044649       0.00088188
As      15.82395793      15.82395793       7.19270815       0.00003183       0.00010039      -0.00120830
Ga      17.26249956      17.26249956       5.75416652      -0.00001905      -0.00005653       0.00329858
As      18.70104119      18.70104119       7.19270815       0.00008749       0.00015706      -0.00190843
Ga       5.75416652       2.87708326       8.63124978      -0.00036274      -0.00017165       0.00095259
As       7.19270815       4.31562489      10.06979141      -0.00006367       0.00053754      -0.00061559
Ga       8.63124978       5.75416652       8.63124978       0.00003328      -0.00042701       0.00038764
As      10.06979141       7.19270815      10.06979141       0.00007165       0.00036517      -0.00054172
Ga      11.50833304       8.63124978       8.63124978      -0.00010092      -0.00043270       0.00054996
As      12.94687467      10.06979141      10.06979141       0.00020384       0.00048058      -0.00064621
Ga      14.38541630      11.50833304       8.63124978      -0.00024529      -0.00056659       0.00066540
As      15.82395793      12.94687467      10.06979141       0.00018503       0.00043964      -0.00082893
Ga      17.26249956      14.38541630       8.63124978      -0.00031649      -0.00008023       0.00112639
As      18.70104119      15.82395793      10.06979141       0.00014385       0.00029368      -0.00055941
Ga      20.13958282      17.26249956       8.63124978      -0.00004229      -0.00020728       0.00083263
As      21.57812445      18.70104119      10.06979141      -0.00013320       0.00038949      -0.00044743
Ga       8.63124978       2.87708326      11.50833304       0.00013760      -0.00098426       0.00009935
As      10.06979141       4.31562489      12.94687467      -0.00025683       0.00034526      -0.00024157
Ga      11.50833304       5.75416652      11.50833304       0.00012791      -0.00047070       0.00041564
As      12.94687467       7.19270815      12.94687467       0.00021027       0.00027383      -0.00034023
Ga      14.38541630       8.63124978      11.50833304      -0.00001833      -0.00054277       0.00047093
As      15.82395793      10.06979141      12.94687467       0.00012111       0.00070150      -0.00043712
Ga      17.26249956      11.50833304      11.50833304      -0.00010350      -0.00070567       0.00063907
As      18.70104119      12.94687467      12.94687467       0.00021586       0.00045206      -0.00048953
Ga      20.13958282      14.38541630      11.50833304      -0.00006589      -0.00055676       0.00071630
As      21.57812445      15.82395793      12.94687467       0.00013599       0.00038828      -0.00040150
Ga      23.01666608      17.26249956      11.50833304       0.00060820      -0.00033844       0.00022669
As      24.45520771      18.70104119      12.94687467      -0.00148442       0.00180918       0.00032874
Ga      11.50833304       2.87708326      14.38541630       0.00101780      -0.00046252      -0.00019269
As      12.94687467       4.31562489      15.82395793      -0.00092487       0.00069384      -0.00013264
Ga      14.38541630       5.75416652      14.38541630       0.00011334      -0.00041388       0.00052468
As      15.82395793       7.19270815      15.82395793      -0.00022259       0.00136097      -0.00023498
Ga      17.26249956       8.63124978      14.38541630       0.00002069      -0.00127741      -0.00010346
As      18.70104119      10.06979141      15.82395793       0.00033310       0.00029748      -0.00026708
Ga      20.13958282      11.50833304      14.38541630      -0.00014658      -0.00060194       0.00043194
As      21.57812445      12.94687467      15.82395793       0.00022117       0.00030205      -0.00027096
Ga      23.01666608      14.38541630      14.38541630      -0.00010229      -0.00064306       0.00040212
As      24.45520771      15.82395793      15.82395793       0.00002246      -0.00010638      -0.00026254
Ga      25.89374934      17.26249956      14.38541630       0.00253552      -0.00298248      -0.00536459
As      27.33229097      18.70104119      15.82395793       0.00057079       0.00039591      -0.00015935
Ga      14.38541630       2.87708326      17.26249956       0.00213191       0.00153191      -0.00095763
As      15.82395793       4.31562489      18.70104119      -0.00921135       0.00923936       0.00657374
Ga      17.26249956       5.75416652      17.26249956      -0.00105452      -0.00223695      -0.00062183
As      18.70104119       7.19270815      18.70104119       0.00033944       0.00014083      -0.00025413
Ga      20.13958282       8.63124978      17.26249956      -0.00021391      -0.00031773       0.00014598
As      21.57812445      10.06979141      18.70104119       0.00059101       0.00035938      -0.00023034
Ga      23.01666608      11.50833304      17.26249956      -0.00104110      -0.00047050      -0.00012136
As      24.45520771      12.94687467      18.70104119       0.00234068      -0.00127355      -0.00209823
Ga      25.89374934      14.38541630      17.26249956      -0.00250210       0.00661588       0.00236263
As      27.33229097      15.82395793      18.70104119       0.00135580      -0.00086420      -0.00072988
Ga      28.77083260      17.26249956      17.26249956      -0.00719450       0.00178373       0.00231621
As      30.20937423      18.70104119      18.70104119       0.00179139      -0.00182848      -0.00195319
Ga       0.00000000       5.75416652       5.75416652      -0.00733723       0.00226329       0.00255389
As       1.43854163       7.19270815       7.19270815       0.00175823      -0.00185701      -0.00228048
Ga       2.87708326       8.63124978       5.75416652      -0.00028673       0.00080533       0.00003725
As       4.31562489      10.06979141       7.19270815       0.00058078      -0.00022259      -0.00051837
Ga       5.75416652      11.50833304       5.75416652      -0.00054814       0.00002552       0.00055493
As       7.19270815      12.94687467       7.19270815       0.00050200       0.00014933      -0.00073395
Ga       8.63124978      14.38541630       5.75416652      -0.00062231      -0.00021007       0.00068694
As      10.06979141      15.82395793       7.19270815       0.00071331       0.00023976      -0.00068269
Ga      11.50833304      17.26249956       5.75416652      -0.00124763      -0.00026210       0.00034270
As      12.94687467      18.70104119       7.19270815       0.00234488      -0.00142881      -0.00242184
Ga      14.38541630      20.13958282       5.75416652      -0.00258463       0.00708747       0.00270204
As      15.82395793      21.57812445       7.19270815       0.00144478      -0.00132717      -0.00102051
Ga       2.87708326       5.75416652       8.63124978      -0.00009382      -0.00044248       0.00095358
As       4.31562489       7.19270815      10.06979141       0.00046109       0.00001252      -0.00061608
Ga       5.75416652       8.63124978       8.63124978      -0.00035093      -0.00004376       0.00039079
As       7.19270815      10.06979141      10.06979141       0.00028891       0.00014740      -0.00054384
Ga       8.63124978      11.50833304       8.63124978      -0.00035646      -0.00017879       0.00055143
As      10.06979141      12.94687467      10.06979141       0.00040416       0.00028094      -0.00064761
Ga      11.50833304      14.38541630       8.63124978      -0.00048931      -0.00032139       0.00066745
As      12.94687467      15.82395793      10.06979141       0.00036305       0.00026189      -0.00083034
Ga      14.38541630      17.26249956       8.63124978      -0.00000392      -0.00039128       0.00112586
As      15.82395793      18.70104119      10.06979141       0.00021671       0.00021966      -0.00055948
Ga      17.26249956      20.13958282       8.63124978      -0.00012803      -0.00012017       0.00083656
As      18.70104119      21.57812445      10.06979141       0.00031514      -0.00005861      -0.00044841
Ga       5.75416652       5.75416652      11.50833304      -0.00020757      -0.00028251       0.00027656
As       7.19270815       7.19270815      12.94687467       0.00008535       0.00016082      -0.00040905
Ga       8.63124978       8.63124978      11.50833304      -0.00013215      -0.00020831       0.00036655
As      10.06979141      10.06979141      12.94687467       0.00020100       0.00027671      -0.00048905
Ga      11.50833304      11.50833304      11.50833304      -0.00025609      -0.00033328       0.00046037
As      12.94687467      12.94687467      12.94687467       0.00032738       0.00040360      -0.00060376
Ga      14.38541630      14.38541630      11.50833304      -0.00026627      -0.00034215       0.00070592
As      15.82395793      15.82395793      12.94687467       0.00025655       0.00033291      -0.00060256
Ga      17.26249956      17.26249956      11.50833304      -0.00023724      -0.00031261       0.00068085
As      18.70104119      18.70104119      12.94687467       0.00021586       0.00029192      -0.00051287
Ga      20.13958282      20.13958282      11.50833304      -0.00012902      -0.00020340       0.00034816
As      21.57812445      21.57812445      12.94687467       0.00013975       0.00021341      -0.00030567
Ga       8.63124978       5.75416652      14.38541630       0.00018598      -0.00025093       0.00021604
As      10.06979141       7.19270815      15.82395793      -0.00011098       0.00033238      -0.00026412
Ga      11.50833304       8.63124978      14.38541630      -0.00004518      -0.00032079       0.00037654
As      12.94687467      10.06979141      15.82395793       0.00009219       0.00051308      -0.00036452
Ga      14.38541630      11.50833304      14.38541630      -0.00018424      -0.00054106       0.00036913
As      15.82395793      12.94687467      15.82395793       0.00027259       0.00036502      -0.00047323
Ga      17.26249956      14.38541630      14.38541630      -0.00020230      -0.00044444       0.00054904
As      18.70104119      15.82395793      15.82395793       0.00028189       0.00034731      -0.00047529
Ga      20.13958282      17.26249956      14.38541630      -0.00019326      -0.00046992       0.00049831
As      21.57812445      18.70104119      15.82395793       0.00019462       0.00023156      -0.00036972
Ga      23.01666608      20.13958282      14.38541630       0.00036368      -0.00081150      -0.00050876
As      24.45520771      21.57812445      15.82395793       0.00018138       0.00020851      -0.00026226
Ga      11.50833304       5.75416652      17.26249956       0.00058099      -0.00006419      -0.00005174
As      12.94687467       7.19270815      18.70104119      -0.00130976       0.00163268       0.00033830
Ga      14.38541630       8.63124978      17.26249956      -0.00017461      -0.00082329       0.00000840
As      15.82395793      10.06979141      18.70104119       0.00022714       0.00019704      -0.00039021
Ga      17.26249956      11.50833304      17.26249956      -0.00018989      -0.00039895       0.00049209
As      18.70104119      12.94687467      18.70104119       0.00039113       0.00027826      -0.00047943
Ga      20.13958282      14.38541630      17.26249956      -0.00035528      -0.00045881       0.00049823
As      21.57812445      15.82395793      18.70104119       0.00036148       0.00016113      -0.00043651
Ga      23.01666608      17.26249956      17.26249956      -0.00027878      -0.00059329       0.00084025
As      24.45520771      18.70104119      18.70104119       0.00020064       0.00030210      -0.00032269
Ga      25.89374934      20.13958282      17.26249956       0.00010652      -0.00028671       0.00078947
As      27.33229097      21.57812445      18.70104119       0.00033630       0.00015187      -0.00024049
Ga      14.38541630       5.75416652      20.13958282       0.00237653      -0.00248175      -0.00521355
As      15.82395793       7.19270815      21.57812445       0.00065552       0.00026296      -0.00062981
Ga      17.26249956       8.63124978      20.13958282      -0.00003130      -0.00018466       0.00051688
As      18.70104119      10.06979141      21.57812445       0.00041239       0.00018515      -0.00063283
Ga      20.13958282      11.50833304      20.13958282      -0.00045762      -0.00024551       0.00058312
As      21.57812445      12.94687467      21.57812445       0.00123740       0.00019575      -0.00124686
Ga      23.01666608      14.38541630      20.13958282      -0.00131158       0.00092383       0.00118009
As      24.45520771      15.82395793      21.57812445       0.00071253      -0.00004029      -0.00073090
Ga      25.89374934      17.26249956      20.13958282      -0.00116234       0.00048839       0.00079442
As      27.33229097      18.70104119      21.57812445       0.00053728      -0.00017188      -0.00062919
Ga      28.77083260      20.13958282      20.13958282      -0.00144713       0.00059363       0.00109280
As      30.20937423      21.57812445      21.57812445       0.00008039      -0.00114332      -0.00114409
Ga       0.00000000       8.63124978       8.63124978      -0.00160668       0.00103891       0.00140991
As       1.43854163      10.06979141      10.06979141       0.00137138      -0.00117637      -0.00111198
Ga       2.87708326      11.50833304       8.63124978      -0.00115086       0.00027368       0.00019475
As       4.31562489      12.94687467      10.06979141       0.00030671       0.00015282      -0.00063189
Ga       5.75416652      14.38541630       8.63124978      -0.00047057      -0.00007262       0.00074784
As       7.19270815      15.82395793      10.06979141       0.00042400       0.00019279      -0.00073115
Ga       8.63124978      17.26249956       8.63124978      -0.00068442      -0.00018799       0.00078360
As      10.06979141      18.70104119      10.06979141       0.00123838       0.00023222      -0.00124060
Ga      11.50833304      20.13958282       8.63124978      -0.00146807       0.00112112       0.00130855
As      12.94687467      21.57812445      10.06979141       0.00060387      -0.00005335      -0.00062246
Ga      14.38541630      23.01666608       8.63124978      -0.00128319       0.00158770       0.00040167
As      15.82395793      24.45520771      10.06979141       0.00092941      -0.00132120      -0.00058744
Ga       2.87708326       8.63124978      11.50833304      -0.00091098       0.00006145       0.00010222
As       4.31562489      10.06979141      12.94687467       0.00026778      -0.00018277      -0.00024534
Ga       5.75416652      11.50833304      11.50833304      -0.00039543       0.00005082       0.00041912
As       7.19270815      12.94687467      12.94687467       0.00019784       0.00028679      -0.00033947
Ga       8.63124978      14.38541630      11.50833304      -0.00046765      -0.00009498       0.00047378
As      10.06979141      15.82395793      12.94687467       0.00062552       0.00020041      -0.00044003
Ga      11.50833304      17.26249956      11.50833304      -0.00062910      -0.00018079       0.00064188
As      12.94687467      18.70104119      12.94687467       0.00037524       0.00029177      -0.00049148
Ga      14.38541630      20.13958282      11.50833304      -0.00047923      -0.00014162       0.00071835
As      15.82395793      21.57812445      12.94687467       0.00031341       0.00021143      -0.00040311
Ga      17.26249956      23.01666608      11.50833304      -0.00026013       0.00053912       0.00022914
As      18.70104119      24.45520771      12.94687467       0.00173928      -0.00141994       0.00032816
Ga       5.75416652       8.63124978      14.38541630      -0.00017498       0.00011292       0.00021646
As       7.19270815      10.06979141      15.82395793       0.00025850      -0.00003720      -0.00026377
Ga       8.63124978      11.50833304      14.38541630      -0.00024620      -0.00012062       0.00037784
As      10.06979141      12.94687467      15.82395793       0.00043823       0.00016747      -0.00036393
Ga      11.50833304      14.38541630      14.38541630      -0.00046481      -0.00026143       0.00037107
As      12.94687467      15.82395793      15.82395793       0.00028889       0.00034902      -0.00047429
Ga      14.38541630      17.26249956      14.38541630      -0.00036832      -0.00027820       0.00054927
As      15.82395793      18.70104119      15.82395793       0.00027081       0.00035795      -0.00047443
Ga      17.26249956      20.13958282      14.38541630      -0.00039416      -0.00026938       0.00049737
As      18.70104119      21.57812445      15.82395793       0.00015345       0.00027589      -0.00037143
Ga      20.13958282      23.01666608      14.38541630      -0.00074011       0.00029403      -0.00051614
As      21.57812445      24.45520771      15.82395793       0.00013060       0.00025753      -0.00026295
Ga       8.63124978       8.63124978      17.26249956      -0.00000001      -0.00007423       0.00016121
As      10.06979141      10.06979141      18.70104119       0.00011611       0.00019429      -0.00029791
Ga      11.50833304      11.50833304      17.26249956      -0.00020930      -0.00028385       0.00021895
As      12.94687467      12.94687467      18.70104119       0.00020751       0.00028264      -0.00050101
Ga      14.38541630      14.38541630      17.26249956      -0.00025206      -0.00032762       0.00055250
As      15.82395793      15.82395793      18.70104119       0.00028193       0.00035817      -0.00058926
Ga      17.26249956      17.26249956      17.26249956      -0.00032860      -0.00040545       0.00059107
As      18.70104119      18.70104119      18.70104119       0.00034198       0.00041836      -0.00059561
Ga      20.13958282      20.13958282      17.26249956      -0.00032985      -0.00040725       0.00061816
As      21.57812445      21.57812445      18.70104119       0.00020291       0.00028006      -0.00048158
Ga      23.01666608      23.01666608      17.26249956      -0.00010914      -0.00018510       0.00052450
As      24.45520771      24.45520771      18.70104119       0.00007461       0.00014944      -0.00039845
Ga      11.50833304       8.63124978      20.13958282       0.00033235      -0.00059408      -0.00029347
As      12.94687467      10.06979141      21.57812445       0.00030438       0.00020063      -0.00045225
Ga      14.38541630      11.50833304      20.13958282      -0.00009571      -0.00021621       0.00061982
As      15.82395793      12.94687467      21.57812445       0.00021042       0.00018744      -0.00055894
Ga      17.26249956      14.38541630      20.13958282      -0.00029628      -0.00029606       0.00076846
As      18.70104119      15.82395793      21.57812445       0.00064400       0.00051008      -0.00083391
Ga      20.13958282      17.26249956      20.13958282      -0.00058103      -0.00051418       0.00082265
As      21.57812445      18.70104119      21.57812445       0.00040803       0.00029263      -0.00064593
Ga      23.01666608      20.13958282      20.13958282      -0.00030951      -0.00030317       0.00067840
As      24.45520771      21.57812445      21.57812445       0.00026917       0.00014996      -0.00054437
Ga      25.89374934      23.01666608      20.13958282      -0.00001274      -0.00003892       0.00067819
As      27.33229097      24.45520771      21.57812445      -0.00004174      -0.00021410      -0.00063036
Ga      14.38541630       8.63124978      23.01666608      -0.00021052      -0.00043674       0.00143675
As      15.82395793      10.06979141      24.45520771       0.00019190       0.00024344      -0.00105085
Ga      17.26249956      11.50833304      23.01666608       0.00021654       0.00017030       0.00108486
As      18.70104119      12.94687467      24.45520771       0.00242996       0.00166361      -0.00252413
Ga      20.13958282      14.38541630      23.01666608      -0.00130272      -0.00142413       0.00138387
As      21.57812445      15.82395793      24.45520771       0.00041860       0.00031946      -0.00068196
Ga      23.01666608      17.26249956      23.01666608      -0.00067211      -0.00008576       0.00091683
As      24.45520771      18.70104119      24.45520771       0.00049698       0.00017434      -0.00073529
Ga      25.89374934      20.13958282      23.01666608      -0.00064874      -0.00006258       0.00086619
As      27.33229097      21.57812445      24.45520771       0.00025484       0.00001200      -0.00052445
Ga      28.77083260      23.01666608      23.01666608       0.00092780       0.00061274       0.00167898
As      30.20937423      24.45520771      24.45520771      -0.00134388      -0.00193308      -0.00236594
Ga       0.00000000      11.50833304      11.50833304      -0.00115222      -0.00002083       0.00034211
As       1.43854163      12.94687467      12.94687467      -0.00134683      -0.00193708      -0.00204378
Ga       2.87708326      14.38541630      11.50833304      -0.00049316      -0.00029785       0.00083414
As       4.31562489      15.82395793      12.94687467       0.00011997       0.00036327      -0.00075037
Ga       5.75416652      17.26249956      11.50833304       0.00002939       0.00009503       0.00089688
As       7.19270815      18.70104119      12.94687467       0.00242427       0.00185071      -0.00218953
Ga       8.63124978      20.13958282      11.50833304      -0.00146278      -0.00150663       0.00114316
As      10.06979141      21.57812445      12.94687467       0.00039185       0.00036284      -0.00023166
Ga      11.50833304      23.01666608      11.50833304      -0.00082985      -0.00000977       0.00061117
As      12.94687467      24.45520771      12.94687467       0.00034933       0.00018563      -0.00025147
Ga      14.38541630      25.89374934      11.50833304       0.00043991       0.00229157      -0.00012648
As      15.82395793      27.33229097      12.94687467       0.00942834      -0.00924430       0.00657845
Ga       2.87708326      11.50833304      14.38541630      -0.00038891       0.00094527      -0.00019014
As       4.31562489      12.94687467      15.82395793       0.00061960      -0.00085117      -0.00012833
Ga       5.75416652      14.38541630      14.38541630      -0.00033065       0.00003202       0.00052146
As       7.19270815      15.82395793      15.82395793       0.00127980      -0.00013877      -0.00022992
Ga       8.63124978      17.26249956      14.38541630      -0.00119542      -0.00006422      -0.00009602
As      10.06979141      18.70104119      15.82395793       0.00021932       0.00040968      -0.00026853
Ga      11.50833304      20.13958282      14.38541630      -0.00052380      -0.00022282       0.00043285
As      12.94687467      21.57812445      15.82395793       0.00022554       0.00029766      -0.00026917
Ga      14.38541630      23.01666608      14.38541630      -0.00057616      -0.00017235       0.00040014
As      15.82395793      24.45520771      15.82395793      -0.00018792       0.00010779      -0.00026813
Ga      17.26249956      25.89374934      14.38541630      -0.00289856       0.00246938      -0.00539277
As      18.70104119      27.33229097      15.82395793       0.00030857       0.00064398      -0.00016194
Ga       5.75416652      11.50833304      17.26249956       0.00001298       0.00051224      -0.00005195
As       7.19270815      12.94687467      18.70104119       0.00155898      -0.00124158       0.00033691
Ga       8.63124978      14.38541630      17.26249956      -0.00075028      -0.00025172       0.00000759
As      10.06979141      15.82395793      18.70104119       0.00012097       0.00030368      -0.00038963
Ga      11.50833304      17.26249956      17.26249956      -0.00032418      -0.00026760       0.00049209
As      12.94687467      18.70104119      18.70104119       0.00020195       0.00046794      -0.00047821
Ga      14.38541630      20.13958282      17.26249956      -0.00038373      -0.00043099       0.00049620
As      15.82395793      21.57812445      18.70104119       0.00008578       0.00043651      -0.00043304
Ga      17.26249956      23.01666608      17.26249956      -0.00051446      -0.00035852       0.00084547
As      18.70104119      24.45520771      18.70104119       0.00022339       0.00027806      -0.00032382
Ga      20.13958282      25.89374934      17.26249956      -0.00020862       0.00003287       0.00079022
As      21.57812445      27.33229097      18.70104119       0.00007883       0.00040914      -0.00023681
Ga       8.63124978      11.50833304      20.13958282      -0.00051240       0.00026118      -0.00030093
As      10.06979141      12.94687467      21.57812445       0.00011636       0.00037884      -0.00045361
Ga      11.50833304      14.38541630      20.13958282      -0.00014003      -0.00017129       0.00061737
As      12.94687467      15.82395793      21.57812445       0.00011065       0.00028880      -0.00055976
Ga      14.38541630      17.26249956      20.13958282      -0.00022126      -0.00037303       0.00076788
As      15.82395793      18.70104119      21.57812445       0.00043192       0.00072168      -0.00083248
Ga      17.26249956      20.13958282      20.13958282      -0.00043809      -0.00065688       0.00082067
As      18.70104119      21.57812445      21.57812445       0.00021558       0.00048436      -0.00064412
Ga      20.13958282      23.01666608      20.13958282      -0.00022570      -0.00038614       0.00067799
As      21.57812445      24.45520771      21.57812445       0.00007368       0.00034497      -0.00054214
Ga      23.01666608      25.89374934      20.13958282       0.00003417      -0.00008777       0.00067392
As      24.45520771      27.33229097      21.57812445      -0.00029315       0.00003731      -0.00062808
Ga      11.50833304      11.50833304      23.01666608      -0.00023473      -0.00031153       0.00110345
As      12.94687467      12.94687467      24.45520771       0.00010290       0.00015587      -0.00190855
Ga      14.38541630      14.38541630      23.01666608       0.00006443      -0.00001109       0.00107352
As      15.82395793      15.82395793      24.45520771       0.00130663       0.00139395      -0.00122544
Ga      17.26249956      17.26249956      23.01666608      -0.00102692      -0.00110602       0.00105101
As      18.70104119      18.70104119      24.45520771       0.00021007       0.00028657      -0.00068675
Ga      20.13958282      20.13958282      23.01666608      -0.00033756      -0.00041470       0.00087031
As      21.57812445      21.57812445      24.45520771       0.00028944       0.00036569      -0.00072394
Ga      23.01666608      23.01666608      23.01666608      -0.00027995      -0.00035656       0.00081525
As      24.45520771      24.45520771      24.45520771       0.00033190       0.00041078      -0.00058528
Ga      25.89374934      25.89374934      23.01666608       0.00058576       0.00050601       0.00102668
As      27.33229097      27.33229097      24.45520771      -0.00099609      -0.00091063      -0.00111806
Ga      14.38541630      11.50833304      25.89374934       0.00011097      -0.00002690       0.00346611
As      15.82395793      12.94687467      27.33229097       0.01253946       0.00941651      -0.01125702
Ga      17.26249956      14.38541630      25.89374934      -0.00241450      -0.00723435       0.00285284
As      18.70104119      15.82395793      27.33229097       0.00014512       0.00065370      -0.00045519
Ga      20.13958282      17.26249956      25.89374934      -0.00036230      -0.00000385       0.00117017
As      21.57812445      18.70104119      27.33229097       0.00029343       0.00033625      -0.00043945
Ga      23.01666608      20.13958282      25.89374934      -0.00048132      -0.00025116       0.00092773
As      24.45520771      21.57812445      27.33229097       0.00055973       0.00052092      -0.00061231
Ga      25.89374934      23.01666608      25.89374934      -0.00081828      -0.00038511       0.00122824
As      27.33229097      24.45520771      27.33229097      -0.00006752       0.00037231      -0.00043979
Ga      28.77083260      25.89374934      25.89374934       0.00684856       0.00205570       0.00275816
As      30.20937423      27.33229097      27.33229097      -0.00941682      -0.01247253      -0.01104508
Ga       0.00000000      14.38541630      14.38541630       0.00917255       0.00096033       0.00162344
As       1.43854163      15.82395793      15.82395793      -0.01063454      -0.01271030      -0.01080605
Ga       2.87708326      17.26249956      14.38541630       0.00053072      -0.00041608       0.00254847
As       4.31562489      18.70104119      15.82395793       0.01255860       0.00975686      -0.01078438
Ga       5.75416652      20.13958282      14.38541630      -0.00240966      -0.00749034       0.00211188
As       7.19270815      21.57812445      15.82395793       0.00021149       0.00098328      -0.00016123
Ga       8.63124978      23.01666608      14.38541630      -0.00029560      -0.00069813       0.00032654
As      10.06979141      24.45520771      15.82395793       0.00063233       0.00156510      -0.00019258
Ga      11.50833304      25.89374934      14.38541630       0.00070120      -0.00245148      -0.00031473
As      12.94687467      27.33229097      15.82395793      -0.00939912       0.01211074      -0.01006918
Ga      14.38541630      28.77083260      14.38541630      -0.06900297       0.06834726      -0.10447676
As      15.82395793      30.20937423      15.82395793      -0.01209794       0.00996705      -0.01003713
Ga       2.87708326      14.38541630      17.26249956       0.00162883       0.00206500      -0.00092176
As       4.31562489      15.82395793      18.70104119       0.00913165      -0.00915125       0.00658052
Ga       5.75416652      17.26249956      17.26249956      -0.00215427      -0.00114844      -0.00058759
As       7.19270815      18.70104119      18.70104119       0.00007228       0.00041357      -0.00025387
Ga       8.63124978      20.13958282      17.26249956      -0.00024235      -0.00029336       0.00014964
As      10.06979141      21.57812445      18.70104119       0.00028535       0.00066624      -0.00023256
Ga      11.50833304      23.01666608      17.26249956      -0.00039071      -0.00112169      -0.00012582
As      12.94687467      24.45520771      18.70104119      -0.00135203       0.00241798      -0.00208980
Ga      14.38541630      25.89374934      17.26249956       0.00670519      -0.00259447       0.00237481
As      15.82395793      27.33229097      18.70104119      -0.00094845       0.00143336      -0.00072787
Ga      17.26249956      28.77083260      17.26249956       0.00187359      -0.00725861       0.00231670
As      18.70104119      30.20937423      18.70104119      -0.00188851       0.00185363      -0.00193792
Ga       5.75416652      14.38541630      20.13958282      -0.00239934       0.00230972      -0.00524588
As       7.19270815      15.82395793      21.57812445       0.00017902       0.00073249      -0.00062752
Ga       8.63124978      17.26249956      20.13958282      -0.00011587      -0.00010402       0.00051203
As      10.06979141      18.70104119      21.57812445       0.00010547       0.00048498      -0.00062618
Ga      11.50833304      20.13958282      20.13958282      -0.00016713      -0.00053456       0.00057913
As      12.94687467      21.57812445      21.57812445       0.00011761       0.00131338      -0.00124216
Ga      14.38541630      23.01666608      20.13958282       0.00100452      -0.00139093       0.00117701
As      15.82395793      24.45520771      21.57812445      -0.00011653       0.00078956      -0.00072535
Ga      17.26249956      25.89374934      20.13958282       0.00057204      -0.00124237       0.00079706
As      18.70104119      27.33229097      21.57812445      -0.00024640       0.00061151      -0.00062532
Ga      20.13958282      28.77083260      20.13958282       0.00065815      -0.00151150       0.00108552
As      21.57812445      30.20937423      21.57812445      -0.00121674       0.00016520      -0.00113967
Ga       8.63124978      14.38541630      23.01666608      -0.00035907      -0.00028895       0.00143468
As      10.06979141      15.82395793      24.45520771       0.00015864       0.00026428      -0.00104129
Ga      11.50833304      17.26249956      23.01666608       0.00025925       0.00014327       0.00108154
As      12.94687467      18.70104119      24.45520771       0.00157897       0.00250956      -0.00251489
Ga      14.38541630      20.13958282      23.01666608      -0.00134627      -0.00138269       0.00137987
As      15.82395793      21.57812445      24.45520771       0.00024179       0.00049347      -0.00067909
Ga      17.26249956      23.01666608      23.01666608      -0.00000836      -0.00074845       0.00091402
As      18.70104119      24.45520771      24.45520771       0.00009751       0.00057318      -0.00073220
Ga      20.13958282      25.89374934      23.01666608       0.00001239      -0.00072421       0.00086231
As      21.57812445      27.33229097      24.45520771      -0.00006251       0.00032977      -0.00052055
Ga      23.01666608      28.77083260      23.01666608       0.00068733       0.00084569       0.00167945
As      24.45520771      30.20937423      24.45520771      -0.00200387      -0.00126678      -0.00235249
Ga      11.50833304      14.38541630      25.89374934       0.00006102       0.00006103       0.00346042
As      12.94687467      15.82395793      27.33229097       0.00932116       0.01264082      -0.01122716
Ga      14.38541630      17.26249956      25.89374934      -0.00713757      -0.00249081       0.00285101
As      15.82395793      18.70104119      27.33229097       0.00056986       0.00021823      -0.00046194
Ga      17.26249956      20.13958282      25.89374934       0.00007332      -0.00044328       0.00117064
As      18.70104119      21.57812445      27.33229097       0.00025714       0.00037270      -0.00044024
Ga      20.13958282      23.01666608      25.89374934      -0.00017358      -0.00055840       0.00092645
As      21.57812445      24.45520771      27.33229097       0.00044237       0.00063911      -0.00061100
Ga      23.01666608      25.89374934      25.89374934      -0.00030580      -0.00089431       0.00122717
As      24.45520771      27.33229097      27.33229097       0.00028396       0.00002013      -0.00044752
Ga      25.89374934      28.77083260      25.89374934       0.00213465       0.00676708       0.00275659
As      27.33229097      30.20937423      27.33229097      -0.01256035      -0.00937004      -0.01098165
Ga      14.38541630      14.38541630      28.77083260       0.07929063       0.07914171      -0.10966215
As      15.82395793      15.82395793      30.20937423      -0.01077065      -0.01064882       0.00636884
Ga      17.26249956      17.26249956      28.77083260       0.00231777       0.00225433      -0.00530777
As      18.70104119      18.70104119      30.20937423      -0.00134496      -0.00128365      -0.00076297
Ga      20.13958282      20.13958282      28.77083260       0.00040707       0.00032655      -0.00018204
As      21.57812445      21.57812445      30.20937423       0.00139991       0.00148942      -0.00068066
Ga      23.01666608      23.01666608      28.77083260      -0.00158372      -0.00166671      -0.00025996
As      24.45520771      24.45520771      30.20937423       0.00177561       0.00185727       0.00055261
Ga      25.89374934      25.89374934      28.77083260      -0.00291689      -0.00300439      -0.00556448
As      27.33229097      27.33229097      30.20937423       0.00987513       0.01000180       0.00688130
Ga      28.77083260      28.77083260      28.77083260      -0.07874022      -0.07885156      -0.11002287
As      30.20937423      30.20937423      30.20937423       0.00030287       0.00051811       0.49704432
