3456
Lattice="0.0 34.52463503956007 34.52463503956007 34.52463503956007 0.0 34.52463503956007 34.52463503956007 34.52463503956007 0.0" Properties=species:S:1:pos:R:3:forces:R:3 energy=-14256.154296875 stress="5.798754955321783e-06 2.4657916583237238e-05 1.810315552575048e-05 2.4657916583237238e-05 -5.112648432259448e-05 -1.7213813407579437e-05 1.810315552575048e-05 -1.7213813407579437e-05 9.520269486529287e-06" free_energy=-14256.154296875 pbc="T T T"
Ga      -0.00001228      -0.00001706       0.00002268      -0.00002023       0.00002701      -0.00000240
As       1.43853874       1.43854352       1.43850378       0.00001423      -0.00002224       0.00000329
Ga       2.87704064       2.87703586       0.00002268       0.00000183      -0.00000866      -0.00000840
As       4.31559166       4.31559644       1.43850378       0.00000090      -0.00000207      -0.00000092
Ga       5.75409356       5.75408878       0.00002268      -0.00000575       0.00000274      -0.00000238
As       7.19264458       7.19264936       1.43850378      -0.00000035       0.00000177      -0.00000043
Ga       8.63114648       8.63114170       0.00002268       0.00000496      -0.00000212       0.00000273
As      10.06969750      10.06970228       1.43850378       0.00000440       0.00000190       0.00000002
Ga      11.50819940      11.50819462       0.00002268       0.00000132      -0.00000504       0.00000337
As      12.94675042      12.94675520       1.43850378      -0.00000129      -0.00000507       0.00000357
Ga      14.38525232      14.38524754       0.00002268       0.00000276       0.00000159      -0.00000127
As      15.82380334      15.82380812       1.43850378       0.00000120      -0.00000004       0.00000278
Ga      17.26230524      17.26230046       0.00002268       0.00001440      -0.00000412       0.00000268
As      18.70085626      18.70086104       1.43850378      -0.00001089      -0.00000386       0.00000224
Ga      20.13935816      20.13935338       0.00002268      -0.00000366       0.00000234      -0.00000417
As      21.57790918      21.57791396       1.43850378       0.00000009       0.00000870      -0.00000015
Ga      23.01641108      23.01640630       0.00002268      -0.00000679      -0.00000169       0.00000007
As      24.45496210      24.45496688       1.43850378      -0.00000245      -0.00000101       0.00000020
Ga      25.89346400      25.89345922       0.00002268       0.00000806      -0.00000020       0.00000102
As      27.33201502      27.33201980       1.43850378       0.00000778      -0.00000245       0.00000077
Ga      28.77051692      28.77051214       0.00002268       0.00000125      -0.00000063       0.00000272
As      30.20906794      30.20907272       1.43850378      -0.00000255       0.00000436       0.00000283
Ga      31.64756984      31.64756506       0.00002268       0.00000526      -0.00001813       0.00000208
As      33.08612086      33.08612564       1.43850378       0.00000602       0.00000697       0.00000282
Ga       2.87704064      -0.00001706       2.87707560       0.00000014       0.00002619      -0.00000138
As       4.31559166       1.43854352       4.31555670      -0.00001241      -0.00001517      -0.00000381
Ga       5.75409356       2.87703586       2.87707560       0.00000321      -0.00001032      -0.00000511
As       7.19264458       4.31559644       4.31555670       0.00000245      -0.00000252      -0.00000109
Ga       8.63114648       5.75408878       2.87707560      -0.00000097       0.00000044       0.00000131
As      10.06969750       7.19264936       4.31555670       0.00000367       0.00000007       0.00000030
Ga      11.50819940       8.63114170       2.87707560      -0.00000562       0.00000271       0.00000014
As      12.94675042      10.06970228       4.31555670       0.00000060       0.00000060       0.00000163
Ga      14.38525232      11.50819462       2.87707560      -0.00000146       0.00000169      -0.00000076
As      15.82380334      12.94675520       4.31555670       0.00000018      -0.00000392       0.00000310
Ga      17.26230524      14.38524754       2.87707560       0.00001133       0.00000450      -0.00000344
As      18.70085626      15.82380812       4.31555670      -0.00000937       0.00000189       0.00000207
Ga      20.13935816      17.26230046       2.87707560      -0.00000432      -0.00000004       0.00000033
As      21.57790918      18.70086104       4.31555670       0.00000021      -0.00000374       0.00000213
Ga      23.01641108      20.13935338       2.87707560       0.00000090       0.00000141      -0.00000158
As      24.45496210      21.57791396       4.31555670      -0.00000115       0.00000738       0.00000062
Ga      25.89346400      23.01640630       2.87707560      -0.00000028      -0.00000324       0.00000360
As      27.33201502      24.45496688       4.31555670       0.00000699      -0.00000200       0.00000057
Ga      28.77051692      25.89345922       2.87707560      -0.00000847       0.00000334      -0.00000092
As      30.20906794      27.33201980       4.31555670      -0.00000167      -0.00000381       0.00000153
Ga      31.64756984      28.77051214       2.87707560       0.00000224       0.00000656      -0.00000217
As      33.08612086      30.20907272       4.31555670       0.00000743       0.00000566       0.00000255
Ga      34.52462276      31.64756506       2.87707560      -0.00001976      -0.00001444      -0.00000072
As      35.96317378      33.08612564       4.31555670       0.00001566       0.00000806       0.00000363
Ga       5.75409356      -0.00001706       5.75412852       0.00000842       0.00002116       0.00000764
As       7.19264458       1.43854352       7.19260962      -0.00001360      -0.00001695      -0.00000543
Ga       8.63114648       2.87703586       5.75412852       0.00000476      -0.00000904      -0.00000247
As      10.06969750       4.31559644       7.19260962       0.00000484      -0.00000217      -0.00000397
Ga      11.50819940       5.75408878       5.75412852      -0.00000682       0.00000134       0.00000326
As      12.94675042       7.19264936       7.19260962       0.00000064      -0.00000108      -0.00000171
Ga      14.38525232       8.63114170       5.75412852      -0.00000088       0.00000332       0.00000227
As      15.82380334      10.06970228       7.19260962       0.00000115       0.00000075      -0.00000144
Ga      17.26230524      11.50819462       5.75412852       0.00001027       0.00000148       0.00000267
As      18.70085626      12.94675520       7.19260962      -0.00001187      -0.00000466      -0.00000003
Ga      20.13935816      14.38524754       5.75412852      -0.00000198       0.00000498       0.00000007
As      21.57790918      15.82380812       7.19260962       0.00000138       0.00000088      -0.00000136
Ga      23.01641108      17.26230046       5.75412852      -0.00000171      -0.00000006       0.00000252
As      24.45496210      18.70086104       7.19260962      -0.00000179      -0.00000400      -0.00000025
Ga      25.89346400      20.13935338       5.75412852       0.00000306       0.00000249       0.00000051
As      27.33201502      21.57791396       7.19260962       0.00000927       0.00000756      -0.00000268
Ga      28.77051692      23.01640630       5.75412852      -0.00001348      -0.00000272       0.00000651
As      30.20906794      24.45496688       7.19260962      -0.00000202      -0.00000428       0.00000005
Ga      31.64756984      25.89345922       5.75412852       0.00000230       0.00000478       0.00000061
As      33.08612086      27.33201980       7.19260962       0.00000838      -0.00000342      -0.00000134
Ga      34.52462276      28.77051214       5.75412852      -0.00001899       0.00000441       0.00000086
As      35.96317378      30.20907272       7.19260962       0.00001703       0.00000622      -0.00000127
Ga      37.40167568      31.64756506       5.75412852      -0.00001838      -0.00001499       0.00000267
As      38.84022670      33.08612564       7.19260962       0.00001587       0.00000841      -0.00000075
Ga       8.63114648      -0.00001706       8.63118144       0.00002405       0.00002145      -0.00001155
As      10.06969750       1.43854352      10.06966254      -0.00000970      -0.00001662      -0.00000150
Ga      11.50819940       2.87703586       8.63118144       0.00000625      -0.00001733      -0.00001678
As      12.94675042       4.31559644      10.06966254       0.00000247      -0.00000332       0.00000165
Ga      14.38525232       5.75408878       8.63118144       0.00000515      -0.00000370      -0.00001188
As      15.82380334       7.19264936      10.06966254       0.00000194      -0.00000350       0.00000343
Ga      17.26230524       8.63114170       8.63118144       0.00001627      -0.00000216      -0.00001183
As      18.70085626      10.06970228      10.06966254      -0.00000905      -0.00000016       0.00000412
Ga      20.13935816      11.50819462       8.63118144       0.00000412      -0.00000475      -0.00001231
As      21.57790918      12.94675520      10.06966254       0.00000039      -0.00000573       0.00000419
Ga      23.01641108      14.38524754       8.63118144       0.00000731      -0.00000166      -0.00001378
As      24.45496210      15.82380812      10.06966254       0.00000004      -0.00000146       0.00000414
Ga      25.89346400      17.26230046       8.63118144       0.00000774      -0.00000573      -0.00001185
As      27.33201502      18.70086104      10.06966254       0.00000885      -0.00000428       0.00000276
Ga      28.77051692      20.13935338       8.63118144      -0.00000258      -0.00000513      -0.00001256
As      30.20906794      21.57791396      10.06966254       0.00000033       0.00000611       0.00000260
Ga      31.64756984      23.01640630       8.63118144       0.00000485      -0.00000857      -0.00000861
As      33.08612086      24.45496688      10.06966254       0.00000937      -0.00000374       0.00000339
Ga      34.52462276      25.89345922       8.63118144      -0.00001285      -0.00000258      -0.00001162
As      35.96317378      27.33201980      10.06966254       0.00001770      -0.00000384       0.00000347
Ga      37.40167568      28.77051214       8.63118144      -0.00001143      -0.00000079      -0.00001180
As      38.84022670      30.20907272      10.06966254       0.00001982       0.00000538       0.00000292
Ga      40.27872860      31.64756506       8.63118144       0.00000486      -0.00002156      -0.00000987
As      41.71727962      33.08612564      10.06966254      -0.00002126       0.00000752       0.00000407
Ga      11.50819940      -0.00001706      11.50823436       0.00001408       0.00003040       0.00000785
As      12.94675042       1.43854352      12.94671546      -0.00000534      -0.00001941       0.00000059
Ga      14.38525232       2.87703586      11.50823436      -0.00000199      -0.00000736       0.00000506
As      15.82380334       4.31559644      12.94671546       0.00000149      -0.00000072      -0.00000326
Ga      17.26230524       5.75408878      11.50823436       0.00000555       0.00000655       0.00000941
As      18.70085626       7.19264936      12.94671546      -0.00001068       0.00000035      -0.00000085
Ga      20.13935816       8.63114170      11.50823436      -0.00000775       0.00000687       0.00000811
As      21.57790918      10.06970228      12.94671546       0.00000016       0.00000227       0.00000046
Ga      23.01641108      11.50819462      11.50823436      -0.00000591       0.00000584       0.00000838
As      24.45496210      12.94675520      12.94671546      -0.00000376      -0.00000336       0.00000199
Ga      25.89346400      14.38524754      11.50823436      -0.00000195       0.00000972       0.00000632
As      27.33201502      15.82380812      12.94671546       0.00000766       0.00000369      -0.00000077
Ga      28.77051692      17.26230046      11.50823436      -0.00001668       0.00000339       0.00001028
As      30.20906794      18.70086104      12.94671546      -0.00000317      -0.00000293       0.00000176
Ga      31.64756984      20.13935338      11.50823436      -0.00000203       0.00000727       0.00000590
As      33.08612086      21.57791396      12.94671546       0.00000757       0.00000887      -0.00000011
Ga      34.52462276      23.01640630      11.50823436      -0.00002844       0.00000171       0.00001150
As      35.96317378      24.45496688      12.94671546       0.00001512      -0.00000046       0.00000129
Ga      37.40167568      25.89345922      11.50823436      -0.00002308       0.00000827       0.00000761
As      38.84022670      27.33201980      12.94671546       0.00001703      -0.00000152       0.00000073
Ga      40.27872860      28.77051214      11.50823436      -0.00000252       0.00001031       0.00000777
As      41.71727962      30.20907272      12.94671546      -0.00002487       0.00000720       0.00000090
Ga      43.15578152      31.64756506      11.50823436       0.00001394      -0.00001077       0.00000889
As      44.59433254      33.08612564      12.94671546      -0.00002154       0.00000968       0.00000200
Ga      14.38525232      -0.00001706      14.38528728      -0.00002011       0.00002479       0.00000323
As      15.82380334       1.43854352      15.82376838       0.00001432      -0.00002177      -0.00000019
Ga      17.26230524       2.87703586      14.38528728       0.00001570      -0.00001031      -0.00000214
As      18.70085626       4.31559644      15.82376838      -0.00000880      -0.00000177      -0.00000362
Ga      20.13935816       5.75408878      14.38528728      -0.00000349       0.00000156       0.00000217
As      21.57790918       7.19264936      15.82376838       0.00000085      -0.00000104      -0.00000111
Ga      23.01641108       8.63114170      14.38528728      -0.00000033       0.00000277       0.00000098
As      24.45496210      10.06970228      15.82376838      -0.00000091       0.00000100      -0.00000051
Ga      25.89346400      11.50819462      14.38528728       0.00000130       0.00000028       0.00000151
As      27.33201502      12.94675520      15.82376838       0.00000779      -0.00000261      -0.00000089
Ga      28.77051692      14.38524754      14.38528728      -0.00000928       0.00000344       0.00000049
As      30.20906794      15.82380812      15.82376838      -0.00000048       0.00000165      -0.00000048
Ga      31.64756984      17.26230046      14.38528728       0.00000004      -0.00000031       0.00000197
As      33.08612086      18.70086104      15.82376838       0.00000794      -0.00000248      -0.00000043
Ga      34.52462276      20.13935338      14.38528728      -0.00001848       0.00000017      -0.00000079
As      35.96317378      21.57791396      15.82376838       0.00001751       0.00000793      -0.00000119
Ga      37.40167568      23.01640630      14.38528728      -0.00002098      -0.00000365       0.00000396
As      38.84022670      24.45496688      15.82376838       0.00001760      -0.00000153      -0.00000052
Ga      40.27872860      25.89345922      14.38528728       0.00000279       0.00000378       0.00000151
As      41.71727962      27.33201980      15.82376838      -0.00002302      -0.00000312      -0.00000099
Ga      43.15578152      28.77051214      14.38528728       0.00002112       0.00000491       0.00000070
As      44.59433254      30.20907272      15.82376838      -0.00002179       0.00000679       0.00000003
Ga      46.03283444      31.64756506      14.38528728       0.00002157      -0.00001607       0.00000191
As      47.47138546      33.08612564      15.82376838      -0.00000372       0.00000922       0.00000013
Ga      17.26230524      -0.00001706      17.26234020       0.00000094       0.00002546      -0.00000344
As      18.70085626       1.43854352      18.70082130      -0.00001471      -0.00001621       0.00000053
Ga      20.13935816       2.87703586      17.26234020       0.00000380      -0.00000912      -0.00001027
As      21.57790918       4.31559644      18.70082130       0.00000181      -0.00000346       0.00000410
Ga      23.01641108       5.75408878      17.26234020      -0.00000067       0.00000309      -0.00000389
As      24.45496210       7.19264936      18.70082130      -0.00000105      -0.00000264       0.00000543
Ga      25.89346400       8.63114170      17.26234020       0.00000213       0.00000363      -0.00000451
As      27.33201502      10.06970228      18.70082130       0.00000891       0.00000090       0.00000371
Ga      28.77051692      11.50819462      17.26234020      -0.00001099       0.00000072      -0.00000283
As      30.20906794      12.94675520      18.70082130      -0.00000202      -0.00000474       0.00000602
Ga      31.64756984      14.38524754      17.26234020       0.00000242       0.00000462      -0.00000539
As      33.08612086      15.82380812      18.70082130       0.00000871       0.00000112       0.00000380
Ga      34.52462276      17.26230046      17.26234020      -0.00002034      -0.00000112      -0.00000228
As      35.96317378      18.70086104      18.70082130       0.00001627      -0.00000187       0.00000469
Ga      37.40167568      20.13935338      17.26234020      -0.00001659       0.00000081      -0.00000504
As      38.84022670      21.57791396      18.70082130       0.00001956       0.00000774       0.00000378
Ga      40.27872860      23.01640630      17.26234020      -0.00000267      -0.00000370      -0.00000008
As      41.71727962      24.45496688      18.70082130      -0.00002229      -0.00000182       0.00000548
Ga      43.15578152      25.89345922      17.26234020       0.00002025       0.00000250      -0.00000512
As      44.59433254      27.33201980      18.70082130      -0.00001965      -0.00000231       0.00000525
Ga      46.03283444      28.77051214      17.26234020       0.00002310       0.00000426      -0.00000513
As      47.47138546      30.20907272      18.70082130      -0.00000148       0.00000856       0.00000493
Ga      48.90988736      31.64756506      17.26234020      -0.00002258      -0.00001686      -0.00000319
As      50.34843838      33.08612564      18.70082130       0.00001622       0.00000998       0.00000658
Ga      20.13935816      -0.00001706      20.13939312       0.00000780       0.00001979       0.00001182
As      21.57790918       1.43854352      21.57787422      -0.00001186      -0.00001872      -0.00001737
Ga      23.01641108       2.87703586      20.13939312       0.00000522      -0.00000930       0.00000143
As      24.45496210       4.31559644      21.57787422      -0.00000100      -0.00000266      -0.00001582
Ga      25.89346400       5.75408878      20.13939312       0.00000133       0.00000200       0.00000634
As      27.33201502       7.19264936      21.57787422       0.00000924      -0.00000027      -0.00001418
Ga      28.77051692       8.63114170      20.13939312      -0.00001100       0.00000195       0.00000656
As      30.20906794      10.06970228      21.57787422      -0.00000194       0.00000211      -0.00001458
Ga      31.64756984      11.50819462      20.13939312       0.00000067       0.00000075       0.00000630
As      33.08612086      12.94675520      21.57787422       0.00000862      -0.00000277      -0.00001331
Ga      34.52462276      14.38524754      20.13939312      -0.00001818       0.00000240       0.00000557
As      35.96317378      15.82380812      21.57787422       0.00001648       0.00000184      -0.00001314
Ga      37.40167568      17.26230046      20.13939312      -0.00001855      -0.00000160       0.00000691
As      38.84022670      18.70086104      21.57787422       0.00001868      -0.00000246      -0.00001422
Ga      40.27872860      20.13935338      20.13939312       0.00000223       0.00000063       0.00000502
As      41.71727962      21.57791396      21.57787422      -0.00002245       0.00000846      -0.00001558
Ga      43.15578152      23.01640630      20.13939312       0.00001703      -0.00000337       0.00000903
As      44.59433254      24.45496688      21.57787422      -0.00002205      -0.00000242      -0.00001426
Ga      46.03283444      25.89345922      20.13939312       0.00002464       0.00000306       0.00000423
As      47.47138546      27.33201980      21.57787422      -0.00000094      -0.00000288      -0.00001439
Ga      48.90988736      28.77051214      20.13939312      -0.00002012       0.00000386       0.00000591
As      50.34843838      30.20907272      21.57787422       0.00001740       0.00000619      -0.00001440
Ga      51.78694028      31.64756506      20.13939312      -0.00001813      -0.00001692       0.00000675
As      53.22549130      33.08612564      21.57787422       0.00001686       0.00001015      -0.00001435
Ga      23.01641108      -0.00001706      23.01644604       0.00001007       0.00001910       0.00001627
As      24.45496210       1.43854352      24.45492714      -0.00001406      -0.00001942      -0.00000778
Ga      25.89346400       2.87703586      23.01644604       0.00001027      -0.00001141       0.00000695
As      27.33201502       4.31559644      24.45492714       0.00000984      -0.00000274      -0.00000804
Ga      28.77051692       5.75408878      23.01644604      -0.00000865      -0.00000020       0.00001249
As      30.20906794       7.19264936      24.45492714      -0.00000054      -0.00000166      -0.00000536
Ga      31.64756984       8.63114170      23.01644604       0.00000439      -0.00000047       0.00001260
As      33.08612086      10.06970228      24.45492714       0.00000949       0.00000140      -0.00000589
Ga      34.52462276      11.50819462      23.01644604      -0.00001783      -0.00000231       0.00001244
As      35.96317378      12.94675520      24.45492714       0.00001700      -0.00000274      -0.00000584
Ga      37.40167568      14.38524754      23.01644604      -0.00001518       0.00000075       0.00001143
As      38.84022670      15.82380812      24.45492714       0.00001842       0.00000204      -0.00000544
Ga      40.27872860      17.26230046      23.01644604       0.00000219      -0.00000322       0.00001289
As      41.71727962      18.70086104      24.45492714      -0.00002218      -0.00000331      -0.00000506
Ga      43.15578152      20.13935338      23.01644604       0.00002465      -0.00000180       0.00001072
As      44.59433254      21.57791396      24.45492714      -0.00001934       0.00000770      -0.00000490
Ga      46.03283444      23.01640630      23.01644604       0.00002304      -0.00000649       0.00001559
As      47.47138546      24.45496688      24.45492714      -0.00000109      -0.00000228      -0.00000494
Ga      48.90988736      25.89345922      23.01644604      -0.00001825       0.00000046       0.00001062
As      50.34843838      27.33201980      24.45492714       0.00001807      -0.00000268      -0.00000532
Ga      51.78694028      28.77051214      23.01644604      -0.00001526       0.00000178       0.00001151
As      53.22549130      30.20907272      24.45492714       0.00001714       0.00000526      -0.00000591
Ga      54.66399320      31.64756506      23.01644604      -0.00001538      -0.00001880       0.00001281
As      56.10254422      33.08612564      24.45492714       0.00001771       0.00000931      -0.00000521
Ga      25.89346400      -0.00001706      25.89349896       0.00002414       0.00002183      -0.00001229
As      27.33201502       1.43854352      27.33198006      -0.00000597      -0.00001611      -0.00000469
Ga      28.77051692       2.87703586      25.89349896       0.00000254      -0.00001703      -0.00001707
As      30.20906794       4.31559644      27.33198006       0.00000109      -0.00000481       0.00000102
Ga      31.64756984       5.75408878      25.89349896       0.00000752      -0.00000256      -0.00001289
As      33.08612086       7.19264936      27.33198006       0.00001105      -0.00000211       0.00000108
Ga      34.52462276       8.63114170      25.89349896      -0.00001441      -0.00000337      -0.00001166
As      35.96317378      10.06970228      27.33198006       0.00001879      -0.00000015       0.00000196
Ga      37.40167568      11.50819462      25.89349896      -0.00001355      -0.00000586      -0.00001105
As      38.84022670      12.94675520      27.33198006       0.00001995      -0.00000478       0.00000212
Ga      40.27872860      14.38524754      25.89349896       0.00000675      -0.00000291      -0.00001285
As      41.71727962      15.82380812      27.33198006      -0.00001959       0.00000007       0.00000240
Ga      43.15578152      17.26230046      25.89349896       0.00002345      -0.00000557      -0.00001114
As      44.59433254      18.70086104      27.33198006      -0.00001805      -0.00000407       0.00000275
Ga      46.03283444      20.13935338      25.89349896       0.00002876      -0.00000457      -0.00001337
As      47.47138546      21.57791396      27.33198006       0.00000083       0.00000705       0.00000184
Ga      48.90988736      23.01640630      25.89349896      -0.00001856      -0.00000876      -0.00000848
As      50.34843838      24.45496688      27.33198006       0.00001816      -0.00000442       0.00000262
Ga      51.78694028      25.89345922      25.89349896      -0.00001196      -0.00000239      -0.00001329
As      53.22549130      27.33201980      27.33198006       0.00001845      -0.00000466       0.00000153
Ga      54.66399320      28.77051214      25.89349896      -0.00001165      -0.00000099      -0.00001281
As      56.10254422      30.20907272      27.33198006       0.00002109       0.00000468       0.00000181
Ga      57.54104612      31.64756506      25.89349896       0.00000428      -0.00002191      -0.00001025
As      58.97959714      33.08612564      27.33198006      -0.00002141       0.00000674       0.00000300
Ga      28.77051692      -0.00001706      28.77055188       0.00001224       0.00003134       0.00000570
As      30.20906794       1.43854352      30.20903298      -0.00001691      -0.00001552       0.00000198
Ga      31.64756984       2.87703586      28.77055188       0.00000199      -0.00000505       0.00000113
As      33.08612086       4.31559644      30.20903298       0.00000867       0.00000128       0.00000254
Ga      34.52462276       5.75408878      28.77055188      -0.00002632       0.00000664       0.00000785
As      35.96317378       7.19264936      30.20903298       0.00001478       0.00000194       0.00000573
Ga      37.40167568       8.63114170      28.77055188      -0.00002432       0.00000764       0.00000687
As      38.84022670      10.06970228      30.20903298       0.00001631       0.00000398       0.00000560
Ga      40.27872860      11.50819462      28.77055188      -0.00000615       0.00000471       0.00000702
As      41.71727962      12.94675520      30.20903298      -0.00002305      -0.00000027       0.00000587
Ga      43.15578152      14.38524754      28.77055188       0.00001425       0.00000755       0.00000482
As      44.59433254      15.82380812      30.20903298      -0.00002158       0.00000475       0.00000717
Ga      46.03283444      17.26230046      28.77055188       0.00001622       0.00000445       0.00000581
As      47.47138546      18.70086104      30.20903298      -0.00000392      -0.00000040       0.00000750
Ga      48.90988736      20.13935338      28.77055188      -0.00002525       0.00000756       0.00000441
As      50.34843838      21.57791396      30.20903298       0.00001642       0.00000921       0.00000509
Ga      51.78694028      23.01640630      28.77055188      -0.00002648       0.00000308       0.00000971
As      53.22549130      24.45496688      30.20903298       0.00001313      -0.00000093       0.00000643
Ga      54.66399320      25.89345922      28.77055188      -0.00002261       0.00000945       0.00000588
As      56.10254422      27.33201980      30.20903298       0.00001633      -0.00000101       0.00000611
Ga      57.54104612      28.77051214      28.77055188      -0.00000405       0.00000937       0.00000497
As      58.97959714      30.20907272      30.20903298      -0.00002456       0.00000891       0.00000652
Ga      60.41809904      31.64756506      28.77055188       0.00001321      -0.00001029       0.00000688
As      61.85665006      33.08612564      30.20903298      -0.00002183       0.00001048       0.00000674
Ga      31.64756984      -0.00001706      31.64760480       0.00002744       0.00001863      -0.00000179
As      33.08612086       1.43854352      33.08608590       0.00000205      -0.00001990      -0.00000866
Ga      34.52462276       2.87703586      31.64760480      -0.00000846      -0.00001907      -0.00000499
As      35.96317378       4.31559644      33.08608590       0.00001960      -0.00000037      -0.00000958
Ga      37.40167568       5.75408878      31.64760480      -0.00001155      -0.00000618      -0.00000074
As      38.84022670       7.19264936      33.08608590       0.00001851      -0.00000006      -0.00000779
Ga      40.27872860       8.63114170      31.64760480       0.00000716      -0.00000586      -0.00000050
As      41.71727962      10.06970228      33.08608590      -0.00002079       0.00000122      -0.00000708
Ga      43.15578152      11.50819462      31.64760480       0.00002565      -0.00000710      -0.00000078
As      44.59433254      12.94675520      33.08608590      -0.00001937      -0.00000254      -0.00000711
Ga      46.03283444      14.38524754      31.64760480       0.00002844      -0.00000438      -0.00000299
As      47.47138546      15.82380812      33.08608590      -0.00000942       0.00000680      -0.00001260
Ga      48.90988736      17.26230046      31.64760480      -0.00001394      -0.00000733      -0.00000183
As      50.34843838      18.70086104      33.08608590       0.00000910       0.00000324      -0.00001220
Ga      51.78694028      20.13935338      31.64760480      -0.00000807      -0.00000598      -0.00000353
As      53.22549130      21.57791396      33.08608590       0.00001752       0.00000657      -0.00000782
Ga      54.66399320      23.01640630      31.64760480      -0.00001320      -0.00000935       0.00000090
As      56.10254422      24.45496688      33.08608590       0.00001786      -0.00000271      -0.00000683
Ga      57.54104612      25.89345922      31.64760480       0.00000782      -0.00000391      -0.00000226
As      58.97959714      27.33201980      33.08608590      -0.00002238      -0.00000290      -0.00000710
Ga      60.41809904      28.77051214      31.64760480       0.00002767      -0.00000281      -0.00000229
As      61.85665006      30.20907272      33.08608590      -0.00001870       0.00000809      -0.00000791
Ga      63.29515196      31.64756506      31.64760480       0.00002411      -0.00002458      -0.00000003
As      64.73370298      33.08612564      33.08608590      -0.00002034       0.00000852      -0.00000590
Ga      -0.00001228       2.87703586       2.87707560      -0.00002427      -0.00001142       0.00000141
As       1.43853874       4.31559644       4.31555670       0.00001231      -0.00000318       0.00000602
Ga       2.87704064       5.75408878       2.87707560      -0.00000385       0.00000176      -0.00000356
As       4.31559166       7.19264936       4.31555670      -0.00000074       0.00000019       0.00000146
Ga       5.75409356       8.63114170       2.87707560      -0.00000394       0.00000221      -0.00000213
As       7.19264458      10.06970228       4.31555670      -0.00000083       0.00000437      -0.00000075
Ga       8.63114648      11.50819462       2.87707560       0.00000656      -0.00000800       0.00000392
As      10.06969750      12.94675520       4.31555670       0.00000293      -0.00000189       0.00000124
Ga      11.50819940      14.38524754       2.87707560       0.00000337      -0.00000208       0.00000302
As      12.94675042      15.82380812       4.31555670      -0.00000103       0.00000127       0.00000336
Ga      14.38525232      17.26230046       2.87707560       0.00000309      -0.00000463       0.00000036
As      15.82380334      18.70086104       4.31555670       0.00000031      -0.00000453       0.00000295
Ga      17.26230524      20.13935338       2.87707560       0.00001558      -0.00000093       0.00000141
As      18.70085626      21.57791396       4.31555670      -0.00001032       0.00000868       0.00000366
Ga      20.13935816      23.01640630       2.87707560      -0.00000387      -0.00000768      -0.00000276
As      21.57790918      24.45496688       4.31555670      -0.00000017      -0.00000243       0.00000031
Ga      23.01641108      25.89345922       2.87707560      -0.00000255       0.00000435      -0.00000261
As      24.45496210      27.33201980       4.31555670      -0.00000260      -0.00000109       0.00000022
Ga      25.89346400      28.77051214       2.87707560       0.00000847       0.00000075       0.00000232
As      27.33201502      30.20907272       4.31555670       0.00000645       0.00000709       0.00000188
Ga      28.77051692      31.64756506       2.87707560       0.00000193      -0.00002550       0.00000398
As      30.20906794      33.08612564       4.31555670      -0.00000185       0.00000584       0.00000267
Ga      31.64756984      34.52461798       2.87707560       0.00000786       0.00000482       0.00000023
As      33.08612086      35.96317856       4.31555670       0.00000817       0.00001709       0.00000252
Ga       2.87704064       2.87703586       5.75412852      -0.00000317      -0.00001188       0.00000556
As       4.31559166       4.31559644       7.19260962      -0.00001494       0.00000173      -0.00000393
Ga       5.75409356       5.75408878       5.75412852      -0.00000060      -0.00000001       0.00000059
As       7.19264458       7.19264936       7.19260962       0.00000104      -0.00000023      -0.00000059
Ga       8.63114648       8.63114170       5.75412852       0.00000034      -0.00000015       0.00000127
As      10.06969750      10.06970228       7.19260962       0.00000352       0.00000236      -0.00000091
Ga      11.50819940      11.50819462       5.75412852      -0.00000451      -0.00000265       0.00000071
As      12.94675042      12.94675520       7.19260962      -0.00000154      -0.00000387       0.00000058
Ga      14.38525232      14.38524754       5.75412852       0.00000144       0.00000486      -0.00000139
As      15.82380334      15.82380812       7.19260962       0.00000027       0.00000195      -0.00000019
Ga      17.26230524      17.26230046       5.75412852       0.00001166      -0.00000154      -0.00000056
As      18.70085626      18.70086104       7.19260962      -0.00001102      -0.00000435       0.00000040
Ga      20.13935816      20.13935338       5.75412852      -0.00000143       0.00000517      -0.00000070
As      21.57790918      21.57791396       7.19260962       0.00000022       0.00000758      -0.00000004
Ga      23.01641108      23.01640630       5.75412852       0.00000048      -0.00000872       0.00000073
As      24.45496210      24.45496688       7.19260962      -0.00000202      -0.00000343      -0.00000037
Ga      25.89346400      25.89345922       5.75412852       0.00000411       0.00000294       0.00000051
As      27.33201502      27.33201980       7.19260962       0.00000716      -0.00000208      -0.00000150
Ga      28.77051692      28.77051214       5.75412852      -0.00000740       0.00000488       0.00000125
As      30.20906794      30.20907272       7.19260962      -0.00000261       0.00000616      -0.00000041
Ga      31.64756984      31.64756506       5.75412852       0.00000385      -0.00001851       0.00000101
As      33.08612086      33.08612564       7.19260962       0.00000779       0.00000507      -0.00000129
Ga      34.52462276      34.52461798       5.75412852      -0.00001802       0.00000740      -0.00000098
As      35.96317378      35.96317856       7.19260962       0.00001734       0.00001880      -0.00000037
Ga       5.75409356       2.87703586       8.63118144       0.00000428      -0.00001702       0.00000532
As       7.19264458       4.31559644      10.06966254      -0.00001484       0.00000100       0.00000336
Ga       8.63114648       5.75408878       8.63118144       0.00000076       0.00000015      -0.00000411
As      10.06969750       7.19264936      10.06966254       0.00000337      -0.00000167       0.00000462
Ga      11.50819940       8.63114170       8.63118144      -0.00000498       0.00000135      -0.00000463
As      12.94675042      10.06970228      10.06966254      -0.00000107       0.00000066       0.00000494
Ga      14.38525232      11.50819462       8.63118144       0.00000094      -0.00000155      -0.00000574
As      15.82380334      12.94675520      10.06966254      -0.00000030      -0.00000310       0.00000530
Ga      17.26230524      14.38524754       8.63118144       0.00001223       0.00000368      -0.00000670
As      18.70085626      15.82380812      10.06966254      -0.00001088       0.00000156       0.00000605
Ga      20.13935816      17.26230046       8.63118144      -0.00000105      -0.00000079      -0.00000555
As      21.57790918      18.70086104      10.06966254       0.00000007      -0.00000390       0.00000512
Ga      23.01641108      20.13935338       8.63118144       0.00000082       0.00000476      -0.00000556
As      24.45496210      21.57791396      10.06966254      -0.00000154       0.00000754       0.00000415
Ga      25.89346400      23.01640630       8.63118144       0.00000282      -0.00000817      -0.00000447
As      27.33201502      24.45496688      10.06966254       0.00000813      -0.00000279       0.00000324
Ga      28.77051692      25.89345922       8.63118144      -0.00000874       0.00000251      -0.00000399
As      30.20906794      27.33201980      10.06966254      -0.00000270      -0.00000388       0.00000519
Ga      31.64756984      28.77051214       8.63118144       0.00000272       0.00000568      -0.00000541
As      33.08612086      30.20907272      10.06966254       0.00000802       0.00000714       0.00000458
Ga      34.52462276      31.64756506       8.63118144      -0.00001947      -0.00001898      -0.00000466
As      35.96317378      33.08612564      10.06966254       0.00001587       0.00000633       0.00000553
Ga      37.40167568      34.52461798       8.63118144      -0.00001588       0.00000724      -0.00000531
As      38.84022670      35.96317856      10.06966254       0.00001749       0.00001824       0.00000304
Ga       8.63114648       2.87703586      11.50823436       0.00001375      -0.00000945       0.00000506
As      10.06969750       4.31559644      12.94671546      -0.00001336       0.00000112      -0.00000348
Ga      11.50819940       5.75408878      11.50823436      -0.00000426       0.00000131       0.00000156
As      12.94675042       7.19264936      12.94671546       0.00000041      -0.00000089      -0.00000085
Ga      14.38525232       8.63114170      11.50823436      -0.00000101       0.00000182       0.00000214
As      15.82380334      10.06970228      12.94671546       0.00000080       0.00000215      -0.00000080
Ga      17.26230524      11.50819462      11.50823436       0.00001113      -0.00000170       0.00000138
As      18.70085626      12.94675520      12.94671546      -0.00001097      -0.00000375      -0.00000017
Ga      20.13935816      14.38524754      11.50823436      -0.00000142       0.00000427      -0.00000006
As      21.57790918      15.82380812      12.94671546       0.00000116       0.00000170      -0.00000003
Ga      23.01641108      17.26230046      11.50823436      -0.00000035      -0.00000152       0.00000106
As      24.45496210      18.70086104      12.94671546      -0.00000185      -0.00000415       0.00000066
Ga      25.89346400      20.13935338      11.50823436       0.00000273       0.00000526       0.00000066
As      27.33201502      21.57791396      12.94671546       0.00000788       0.00000834      -0.00000049
Ga      28.77051692      23.01640630      11.50823436      -0.00000888      -0.00000827       0.00000159
As      30.20906794      24.45496688      12.94671546      -0.00000215      -0.00000421      -0.00000003
Ga      31.64756984      25.89345922      11.50823436       0.00000272       0.00000409       0.00000013
As      33.08612086      27.33201980      12.94671546       0.00000796      -0.00000308      -0.00000078
Ga      34.52462276      28.77051214      11.50823436      -0.00001919       0.00000458       0.00000042
As      35.96317378      30.20907272      12.94671546       0.00001664       0.00000671      -0.00000051
Ga      37.40167568      31.64756506      11.50823436      -0.00001750      -0.00001793       0.00000159
As      38.84022670      33.08612564      12.94671546       0.00001772       0.00000585      -0.00000073
Ga      40.27872860      34.52461798      11.50823436       0.00000215       0.00000802       0.00000078
As      41.71727962      35.96317856      12.94671546      -0.00002054       0.00001695      -0.00000125
Ga      11.50819940       2.87703586      14.38528728       0.00001611      -0.00001155       0.00000517
As      12.94675042       4.31559644      15.82376838      -0.00000777      -0.00000357       0.00000221
Ga      14.38525232       5.75408878      14.38528728      -0.00000118      -0.00000094       0.00000182
As      15.82380334       7.19264936      15.82376838       0.00000112       0.00000035      -0.00000128
Ga      17.26230524       8.63114170      14.38528728       0.00001196      -0.00000019       0.00000170
As      18.70085626      10.06970228      15.82376838      -0.00001098       0.00000235      -0.00000078
Ga      20.13935816      11.50819462      14.38528728      -0.00000078      -0.00000301       0.00000058
As      21.57790918      12.94675520      15.82376838      -0.00000060      -0.00000347       0.00000044
Ga      23.01641108      14.38524754      14.38528728       0.00000198       0.00000393      -0.00000087
As      24.45496210      15.82380812      15.82376838      -0.00000185       0.00000225      -0.00000031
Ga      25.89346400      17.26230046      14.38528728       0.00000257      -0.00000365       0.00000006
As      27.33201502      18.70086104      15.82376838       0.00000766      -0.00000239       0.00000009
Ga      28.77051692      20.13935338      14.38528728      -0.00000822       0.00000276       0.00000005
As      30.20906794      21.57791396      15.82376838      -0.00000194       0.00000785       0.00000023
Ga      31.64756984      23.01640630      14.38528728       0.00000323      -0.00000841      -0.00000033
As      33.08612086      24.45496688      15.82376838       0.00000771      -0.00000296      -0.00000045
Ga      34.52462276      25.89345922      14.38528728      -0.00001801       0.00000195      -0.00000007
As      35.96317378      27.33201980      15.82376838       0.00001563      -0.00000139      -0.00000001
Ga      37.40167568      28.77051214      14.38528728      -0.00001606       0.00000356       0.00000028
As      38.84022670      30.20907272      15.82376838       0.00001797       0.00000700      -0.00000025
Ga      40.27872860      31.64756506      14.38528728       0.00000321      -0.00002014      -0.00000040
As      41.71727962      33.08612564      15.82376838      -0.00002257       0.00000688      -0.00000051
Ga      43.15578152      34.52461798      14.38528728       0.00002130       0.00000655      -0.00000046
As      44.59433254      35.96317856      15.82376838      -0.00001931       0.00001754      -0.00000088
Ga      14.38525232       2.87703586      17.26234020      -0.00002376      -0.00001281       0.00000016
As      15.82380334       4.31559644      18.70082130       0.00001115      -0.00000411       0.00000980
Ga      17.26230524       5.75408878      17.26234020       0.00001080       0.00000083      -0.00000634
As      18.70085626       7.19264936      18.70082130      -0.00001078      -0.00000138       0.00000646
Ga      20.13935816       8.63114170      17.26234020      -0.00000056       0.00000235      -0.00000549
As      21.57790918      10.06970228      18.70082130      -0.00000032       0.00000065       0.00000643
Ga      23.01641108      11.50819462      17.26234020       0.00000081      -0.00000128      -0.00000567
As      24.45496210      12.94675520      18.70082130      -0.00000228      -0.00000390       0.00000574
Ga      25.89346400      14.38524754      17.26234020       0.00000373       0.00000405      -0.00000587
As      27.33201502      15.82380812      18.70082130       0.00000813       0.00000247       0.00000467
Ga      28.77051692      17.26230046      17.26234020      -0.00000896      -0.00000289      -0.00000487
As      30.20906794      18.70086104      18.70082130      -0.00000216      -0.00000354       0.00000606
Ga      31.64756984      20.13935338      17.26234020       0.00000289       0.00000442      -0.00000576
As      33.08612086      21.57791396      18.70082130       0.00000800       0.00000905       0.00000472
Ga      34.52462276      23.01640630      17.26234020      -0.00001869      -0.00000846      -0.00000459
As      35.96317378      24.45496688      18.70082130       0.00001606      -0.00000292       0.00000551
Ga      37.40167568      25.89345922      17.26234020      -0.00001591       0.00000264      -0.00000523
As      38.84022670      27.33201980      18.70082130       0.00001754      -0.00000190       0.00000582
Ga      40.27872860      28.77051214      17.26234020       0.00000224       0.00000373      -0.00000561
As      41.71727962      30.20907272      18.70082130      -0.00002348       0.00000757       0.00000703
Ga      43.15578152      31.64756506      17.26234020       0.00002183      -0.00001979      -0.00000605
As      44.59433254      33.08612564      18.70082130      -0.00002004       0.00000718       0.00000491
Ga      46.03283444      34.52461798      17.26234020       0.00002344       0.00000576      -0.00000624
As      47.47138546      35.96317856      18.70082130      -0.00000184       0.00001937       0.00000499
Ga      17.26230524       2.87703586      20.13939312      -0.00000364      -0.00001254       0.00001118
As      18.70085626       4.31559644      21.57787422      -0.00001644       0.00000191      -0.00001737
Ga      20.13935816       5.75408878      20.13939312      -0.00000052       0.00000147       0.00000417
As      21.57790918       7.19264936      21.57787422      -0.00000044      -0.00000111      -0.00001360
Ga      23.01641108       8.63114170      20.13939312      -0.00000004       0.00000211       0.00000392
As      24.45496210      10.06970228      21.57787422      -0.00000251       0.00000270      -0.00001362
Ga      25.89346400      11.50819462      20.13939312       0.00000258      -0.00000211       0.00000447
As      27.33201502      12.94675520      21.57787422       0.00000891      -0.00000275      -0.00001392
Ga      28.77051692      14.38524754      20.13939312      -0.00000979       0.00000274       0.00000501
As      30.20906794      15.82380812      21.57787422      -0.00000272       0.00000300      -0.00001405
Ga      31.64756984      17.26230046      20.13939312       0.00000198      -0.00000264       0.00000428
As      33.08612086      18.70086104      21.57787422       0.00000882      -0.00000190      -0.00001376
Ga      34.52462276      20.13935338      20.13939312      -0.00001841       0.00000291       0.00000544
As      35.96317378      21.57791396      21.57787422       0.00001692       0.00000767      -0.00001362
Ga      37.40167568      23.01640630      20.13939312      -0.00001715      -0.00000840       0.00000521
As      38.84022670      24.45496688      21.57787422       0.00001932      -0.00000361      -0.00001526
Ga      40.27872860      25.89345922      20.13939312       0.00000181       0.00000246       0.00000507
As      41.71727962      27.33201980      21.57787422      -0.00002335      -0.00000241      -0.00001472
Ga      43.15578152      28.77051214      20.13939312       0.00002135       0.00000462       0.00000418
As      44.59433254      30.20907272      21.57787422      -0.00002146       0.00000742      -0.00001493
Ga      46.03283444      31.64756506      20.13939312       0.00002422      -0.00002046       0.00000450
As      47.47138546      33.08612564      21.57787422      -0.00000071       0.00000661      -0.00001471
Ga      48.90988736      34.52461798      20.13939312      -0.00001909       0.00000654       0.00000510
As      50.34843838      35.96317856      21.57787422       0.00001880       0.00001813      -0.00001611
Ga      20.13935816       2.87703586      23.01644604       0.00000369      -0.00001776       0.00002680
As      21.57790918       4.31559644      24.45492714      -0.00001489       0.00000035      -0.00000534
Ga      23.01641108       5.75408878      23.01644604       0.00000164       0.00000021       0.00001469
As      24.45496210       7.19264936      24.45492714      -0.00000116      -0.00000174      -0.00000326
Ga      25.89346400       8.63114170      23.01644604       0.00000390       0.00000086       0.00001463
As      27.33201502      10.06970228      24.45492714       0.00000831       0.00000231      -0.00000487
Ga      28.77051692      11.50819462      23.01644604      -0.00000920      -0.00000247       0.00001475
As      30.20906794      12.94675520      24.45492714      -0.00000169      -0.00000263      -0.00000362
Ga      31.64756984      14.38524754      23.01644604       0.00000321       0.00000247       0.00001432
As      33.08612086      15.82380812      24.45492714       0.00000868       0.00000304      -0.00000434
Ga      34.52462276      17.26230046      23.01644604      -0.00001823      -0.00000355       0.00001445
As      35.96317378      18.70086104      24.45492714       0.00001671      -0.00000149      -0.00000497
Ga      37.40167568      20.13935338      23.01644604      -0.00001764       0.00000370       0.00001561
As      38.84022670      21.57791396      24.45492714       0.00001807       0.00000837      -0.00000527
Ga      40.27872860      23.01640630      23.01644604       0.00000180      -0.00000800       0.00001532
As      41.71727962      24.45496688      24.45492714      -0.00002241      -0.00000280      -0.00000417
Ga      43.15578152      25.89345922      23.01644604       0.00002119       0.00000273       0.00001574
As      44.59433254      27.33201980      24.45492714      -0.00002099      -0.00000209      -0.00000385
Ga      46.03283444      28.77051214      23.01644604       0.00002483       0.00000459       0.00001548
As      47.47138546      30.20907272      24.45492714      -0.00000263       0.00000769      -0.00000353
Ga      48.90988736      31.64756506      23.01644604      -0.00002003      -0.00002005       0.00001560
As      50.34843838      33.08612564      24.45492714       0.00001740       0.00000709      -0.00000508
Ga      51.78694028      34.52461798      23.01644604      -0.00001747       0.00000751       0.00001505
As      53.22549130      35.96317856      24.45492714       0.00001766       0.00001943      -0.00000639
Ga      23.01641108       2.87703586      25.89349896       0.00000383      -0.00001568       0.00000337
As      24.45496210       4.31559644      27.33198006      -0.00001647      -0.00000148       0.00000445
Ga      25.89346400       5.75408878      25.89349896       0.00000368       0.00000299      -0.00000704
As      27.33201502       7.19264936      27.33198006       0.00000768      -0.00000183       0.00000342
Ga      28.77051692       8.63114170      25.89349896      -0.00000885       0.00000173      -0.00000583
As      30.20906794      10.06970228      27.33198006      -0.00000220       0.00000020       0.00000443
Ga      31.64756984      11.50819462      25.89349896       0.00000276      -0.00000074      -0.00000651
As      33.08612086      12.94675520      27.33198006       0.00000829      -0.00000265       0.00000342
Ga      34.52462276      14.38524754      25.89349896      -0.00001835       0.00000277      -0.00000611
As      35.96317378      15.82380812      27.33198006       0.00001660       0.00000257       0.00000355
Ga      37.40167568      17.26230046      25.89349896      -0.00001665      -0.00000352      -0.00000594
As      38.84022670      18.70086104      27.33198006       0.00001775      -0.00000210       0.00000310
Ga      40.27872860      20.13935338      25.89349896       0.00000166       0.00000307      -0.00000575
As      41.71727962      21.57791396      27.33198006      -0.00002336       0.00000788       0.00000479
Ga      43.15578152      23.01640630      25.89349896       0.00002098      -0.00000854      -0.00000700
As      44.59433254      24.45496688      27.33198006      -0.00001947      -0.00000286       0.00000346
Ga      46.03283444      25.89345922      25.89349896       0.00002314       0.00000220      -0.00000605
As      47.47138546      27.33201980      27.33198006      -0.00000118      -0.00000174       0.00000386
Ga      48.90988736      28.77051214      25.89349896      -0.00002033       0.00000494      -0.00000652
As      50.34843838      30.20907272      27.33198006       0.00001784       0.00000598       0.00000291
Ga      51.78694028      31.64756506      25.89349896      -0.00001871      -0.00001926      -0.00000564
As      53.22549130      33.08612564      27.33198006       0.00001690       0.00000699       0.00000449
Ga      54.66399320      34.52461798      25.89349896      -0.00001590       0.00000712      -0.00000583
As      56.10254422      35.96317856      27.33198006       0.00001794       0.00001825       0.00000248
Ga      25.89346400       2.87703586      28.77055188       0.00001395      -0.00000970       0.00000025
As      27.33201502       4.31559644      30.20903298      -0.00000950       0.00000409       0.00000069
Ga      28.77051692       5.75408878      28.77055188      -0.00000816       0.00000162      -0.00000282
As      30.20906794       7.19264936      30.20903298      -0.00000259      -0.00000189       0.00000508
Ga      31.64756984       8.63114170      28.77055188       0.00000210       0.00000295      -0.00000383
As      33.08612086      10.06970228      30.20903298       0.00000789       0.00000207       0.00000285
Ga      34.52462276      11.50819462      28.77055188      -0.00001867      -0.00000209      -0.00000317
As      35.96317378      12.94675520      30.20903298       0.00001609      -0.00000187       0.00000348
Ga      37.40167568      14.38524754      28.77055188      -0.00001762       0.00000304      -0.00000276
As      38.84022670      15.82380812      30.20903298       0.00001762       0.00000283       0.00000347
Ga      40.27872860      17.26230046      28.77055188       0.00000070      -0.00000281      -0.00000259
As      41.71727962      18.70086104      30.20903298      -0.00002162      -0.00000161       0.00000423
Ga      43.15578152      20.13935338      28.77055188       0.00001911       0.00000287      -0.00000332
As      44.59433254      21.57791396      30.20903298      -0.00002075       0.00000869       0.00000527
Ga      46.03283444      23.01640630      28.77055188       0.00002379      -0.00000781      -0.00000456
As      47.47138546      24.45496688      30.20903298      -0.00000134      -0.00000301       0.00000491
Ga      48.90988736      25.89345922      28.77055188      -0.00002059       0.00000294      -0.00000306
As      50.34843838      27.33201980      30.20903298       0.00001646      -0.00000243       0.00000431
Ga      51.78694028      28.77051214      28.77055188      -0.00001787       0.00000567      -0.00000328
As      53.22549130      30.20907272      30.20903298       0.00001691       0.00000694       0.00000375
Ga      54.66399320      31.64756506      28.77055188      -0.00001918      -0.00001932      -0.00000286
As      56.10254422      33.08612564      30.20903298       0.00001877       0.00000733       0.00000469
Ga      57.54104612      34.52461798      28.77055188       0.00000160       0.00000732      -0.00000312
As      58.97959714      35.96317856      30.20903298      -0.00002124       0.00001719       0.00000418
Ga      28.77051692       2.87703586      31.64760480       0.00001509      -0.00001143       0.00000986
As      30.20906794       4.31559644      33.08608590      -0.00001725       0.00000192      -0.00000716
Ga      31.64756984       5.75408878      31.64760480       0.00000350      -0.00000092       0.00000750
As      33.08612086       7.19264936      33.08608590       0.00000882       0.00000086      -0.00000702
Ga      34.52462276       8.63114170      31.64760480      -0.00001751      -0.00000087       0.00000748
As      35.96317378      10.06970228      33.08608590       0.00001562       0.00000363      -0.00000589
Ga      37.40167568      11.50819462      31.64760480      -0.00001595      -0.00000428       0.00000690
As      38.84022670      12.94675520      33.08608590       0.00001810      -0.00000115      -0.00000572
Ga      40.27872860      14.38524754      31.64760480       0.00000227       0.00000126       0.00000691
As      41.71727962      15.82380812      33.08608590      -0.00002236       0.00000300      -0.00000482
Ga      43.15578152      17.26230046      31.64760480       0.00002142      -0.00000396       0.00000564
As      44.59433254      18.70086104      33.08608590      -0.00002047      -0.00000251      -0.00000484
Ga      46.03283444      20.13935338      31.64760480       0.00002458       0.00000267       0.00000593
As      47.47138546      21.57791396      33.08608590      -0.00000325       0.00000920      -0.00000451
Ga      48.90988736      23.01640630      31.64760480      -0.00001851      -0.00000849       0.00000613
As      50.34843838      24.45496688      33.08608590       0.00001644      -0.00000279      -0.00000575
Ga      51.78694028      25.89345922      31.64760480      -0.00001529       0.00000187       0.00000707
As      53.22549130      27.33201980      33.08608590       0.00001532      -0.00000124      -0.00000577
Ga      54.66399320      28.77051214      31.64760480      -0.00001615       0.00000314       0.00000698
As      56.10254422      30.20907272      33.08608590       0.00001767       0.00000650      -0.00000668
Ga      57.54104612      31.64756506      31.64760480       0.00000251      -0.00002136       0.00000624
As      58.97959714      33.08612564      33.08608590      -0.00002237       0.00000764      -0.00000582
Ga      60.41809904      34.52461798      31.64760480       0.00002127       0.00000646       0.00000526
As      61.85665006      35.96317856      33.08608590      -0.00001988       0.00001773      -0.00000527
Ga      31.64756984       2.87703586      34.52465772       0.00001545      -0.00001185      -0.00000125
As      33.08612086       4.31559644      35.96313882      -0.00000111      -0.00000043       0.00000552
Ga      34.52462276       5.75408878      34.52465772      -0.00001970      -0.00000138      -0.00000480
As      35.96317378       7.19264936      35.96313882       0.00001672      -0.00000014       0.00000318
Ga      37.40167568       8.63114170      34.52465772      -0.00001620      -0.00000025      -0.00000569
As      38.84022670      10.06970228      35.96313882       0.00001684       0.00000248       0.00000398
Ga      40.27872860      11.50819462      34.52465772       0.00000119      -0.00000386      -0.00000590
As      41.71727962      12.94675520      35.96313882      -0.00002145      -0.00000059       0.00000322
Ga      43.15578152      14.38524754      34.52465772       0.00002001       0.00000135      -0.00000604
As      44.59433254      15.82380812      35.96313882      -0.00001856       0.00000463       0.00000386
Ga      46.03283444      17.26230046      34.52465772       0.00002114      -0.00000317      -0.00000608
As      47.47138546      18.70086104      35.96313882      -0.00001033       0.00000349      -0.00000124
Ga      48.90988736      20.13935338      34.52465772      -0.00001890       0.00000318      -0.00000634
As      50.34843838      21.57791396      35.96313882       0.00000855       0.00001409      -0.00000194
Ga      51.78694028      23.01640630      34.52465772      -0.00001523      -0.00000774      -0.00000562
As      53.22549130      24.45496688      35.96313882       0.00001570      -0.00000306       0.00000389
Ga      54.66399320      25.89345922      34.52465772      -0.00001591       0.00000295      -0.00000570
As      56.10254422      27.33201980      35.96313882       0.00001656      -0.00000238       0.00000344
Ga      57.54104612      28.77051214      34.52465772       0.00000240       0.00000427      -0.00000563
As      58.97959714      30.20907272      35.96313882      -0.00002393       0.00000766       0.00000430
Ga      60.41809904      31.64756506      34.52465772       0.00002174      -0.00002081      -0.00000507
As      61.85665006      33.08612564      35.96313882      -0.00001886       0.00000808       0.00000188
Ga      63.29515196      34.52461798      34.52465772       0.00001959       0.00000605      -0.00000562
As      64.73370298      35.96317856      35.96313882      -0.00001826       0.00001898       0.00000280
Ga      -0.00001228       5.75408878       5.75412852      -0.00001789       0.00000160      -0.00000150
As       1.43853874       7.19264936       7.19260962       0.00001322      -0.00000331       0.00000164
Ga       2.87704064       8.63114170       5.75412852      -0.00000227       0.00000349      -0.00000043
As       4.31559166      10.06970228       7.19260962      -0.00000203       0.00000269      -0.00000186
Ga       5.75409356      11.50819462       5.75412852      -0.00000380      -0.00000253       0.00000033
As       7.19264458      12.94675520       7.19260962      -0.00000115       0.00000058      -0.00000334
Ga       8.63114648      14.38524754       5.75412852       0.00000672      -0.00000217       0.00000595
As      10.06969750      15.82380812       7.19260962       0.00000343       0.00000305      -0.00000208
Ga      11.50819940      17.26230046       5.75412852       0.00000331      -0.00000815       0.00000566
As      12.94675042      18.70086104       7.19260962      -0.00000209      -0.00000491       0.00000131
Ga      14.38525232      20.13935338       5.75412852       0.00000443       0.00000230       0.00000174
As      15.82380334      21.57791396       7.19260962      -0.00000044       0.00000738       0.00000090
Ga      17.26230524      23.01640630       5.75412852       0.00001721      -0.00001301       0.00000362
As      18.70085626      24.45496688       7.19260962      -0.00001107      -0.00000472       0.00000050
Ga      20.13935816      25.89345922       5.75412852      -0.00000313       0.00000416      -0.00000086
As      21.57790918      27.33201980       7.19260962      -0.00000137      -0.00000234      -0.00000111
Ga      23.01641108      28.77051214       5.75412852      -0.00000104       0.00000654      -0.00000096
As      24.45496210      30.20907272       7.19260962      -0.00000382       0.00000813      -0.00000272
Ga      25.89346400      31.64756506       5.75412852       0.00000983      -0.00002382       0.00000567
As      27.33201502      33.08612564       7.19260962       0.00000734       0.00000699      -0.00000248
Ga      28.77051692      34.52461798       5.75412852       0.00000197       0.00000033       0.00000753
As      30.20906794      35.96317856       7.19260962      -0.00000181       0.00001694       0.00000009
Ga      31.64756984      37.40167090       5.75412852       0.00000766      -0.00002225       0.00000317
As      33.08612086      38.84023148       7.19260962       0.00000713      -0.00000408       0.00000005
Ga       2.87704064       5.75408878       8.63118144       0.00000287       0.00000140      -0.00000598
As       4.31559166       7.19264936      10.06966254      -0.00001256       0.00000321       0.00000092
Ga       5.75409356       8.63114170       8.63118144      -0.00000072       0.00000076      -0.00000450
As       7.19264458      10.06970228      10.06966254       0.00000011       0.00000243       0.00000438
Ga       8.63114648      11.50819462       8.63118144       0.00000078      -0.00000412      -0.00000368
As      10.06969750      12.94675520      10.06966254       0.00000298      -0.00000310       0.00000511
Ga      11.50819940      14.38524754       8.63118144      -0.00000333       0.00000425      -0.00000558
As      12.94675042      15.82380812      10.06966254      -0.00000173       0.00000075       0.00000508
Ga      14.38525232      17.26230046       8.63118144       0.00000101      -0.00000111      -0.00000631
As      15.82380334      18.70086104      10.06966254      -0.00000080      -0.00000414       0.00000574
Ga      17.26230524      20.13935338       8.63118144       0.00001227       0.00000499      -0.00000662
As      18.70085626      21.57791396      10.06966254      -0.00001062       0.00000953       0.00000591
Ga      20.13935816      23.01640630       8.63118144      -0.00000090      -0.00000854      -0.00000571
As      21.57790918      24.45496688      10.06966254      -0.00000038      -0.00000377       0.00000520
Ga      23.01641108      25.89345922       8.63118144       0.00000139       0.00000280      -0.00000462
As      24.45496210      27.33201980      10.06966254      -0.00000247      -0.00000247       0.00000440
Ga      25.89346400      28.77051214       8.63118144       0.00000413       0.00000486      -0.00000427
As      27.33201502      30.20907272      10.06966254       0.00000672       0.00000830       0.00000345
Ga      28.77051692      31.64756506       8.63118144      -0.00000737      -0.00002068      -0.00000437
As      30.20906794      33.08612564      10.06966254      -0.00000313       0.00000557       0.00000508
Ga      31.64756984      34.52461798       8.63118144       0.00000326       0.00000862      -0.00000598
As      33.08612086      35.96317856      10.06966254       0.00000803       0.00001817       0.00000434
Ga      34.52462276      37.40167090       8.63118144      -0.00001750      -0.00001983      -0.00000560
As      35.96317378      38.84023148      10.06966254       0.00001585      -0.00000340       0.00000425
Ga       5.75409356       5.75408878      11.50823436       0.00001117      -0.00000252       0.00000523
As       7.19264458       7.19264936      12.94671546      -0.00001435       0.00000095      -0.00000323
Ga       8.63114648       8.63114170      11.50823436       0.00000117       0.00000101       0.00000139
As      10.06969750      10.06970228      12.94671546       0.00000304       0.00000201       0.00000070
Ga      11.50819940      11.50819462      11.50823436      -0.00000421      -0.00000244       0.00000145
As      12.94675042      12.94675520      12.94671546      -0.00000160      -0.00000376       0.00000003
Ga      14.38525232      14.38524754      11.50823436       0.00000151       0.00000432       0.00000020
As      15.82380334      15.82380812      12.94671546       0.00000077       0.00000205       0.00000010
Ga      17.26230524      17.26230046      11.50823436       0.00001221      -0.00000225       0.00000071
As      18.70085626      18.70086104      12.94671546      -0.00001155      -0.00000448       0.00000057
Ga      20.13935816      20.13935338      11.50823436      -0.00000071       0.00000516       0.00000019
As      21.57790918      21.57791396      12.94671546      -0.00000018       0.00000758      -0.00000003
Ga      23.01641108      23.01640630      11.50823436       0.00000068      -0.00000814       0.00000076
As      24.45496210      24.45496688      12.94671546      -0.00000188      -0.00000409       0.00000077
Ga      25.89346400      25.89345922      11.50823436       0.00000310       0.00000316       0.00000107
As      27.33201502      27.33201980      12.94671546       0.00000782      -0.00000163      -0.00000058
Ga      28.77051692      28.77051214      11.50823436      -0.00000833       0.00000392       0.00000190
As      30.20906794      30.20907272      12.94671546      -0.00000236       0.00000656       0.00000018
Ga      31.64756984      31.64756506      11.50823436       0.00000413      -0.00001930       0.00000153
As      33.08612086      33.08612564      12.94671546       0.00000747       0.00000553      -0.00000095
Ga      34.52462276      34.52461798      11.50823436      -0.00001760       0.00000706       0.00000011
As      35.96317378      35.96317856      12.94671546       0.00001562       0.00001887       0.00000017
Ga      37.40167568      37.40167090      11.50823436      -0.00001616      -0.00002038       0.00000039
As      38.84022670      38.84023148      12.94671546       0.00001665      -0.00000270       0.00000035
Ga       8.63114648       5.75408878      14.38528728       0.00002058       0.00000388      -0.00000192
As      10.06969750       7.19264936      15.82376838      -0.00001215       0.00000256      -0.00000496
Ga      11.50819940       8.63114170      14.38528728      -0.00000365       0.00000130       0.00000055
As      12.94675042      10.06970228      15.82376838      -0.00000027       0.00000274      -0.00000067
Ga      14.38525232      11.50819462      14.38528728      -0.00000009      -0.00000297       0.00000033
As      15.82380334      12.94675520      15.82376838      -0.00000026      -0.00000298       0.00000035
Ga      17.26230524      14.38524754      14.38528728       0.00001270       0.00000446      -0.00000006
As      18.70085626      15.82380812      15.82376838      -0.00001064       0.00000179      -0.00000078
Ga      20.13935816      17.26230046      14.38528728      -0.00000165      -0.00000253      -0.00000017
As      21.57790918      18.70086104      15.82376838      -0.00000036      -0.00000443      -0.00000004
Ga      23.01641108      20.13935338      14.38528728       0.00000105       0.00000557      -0.00000093
As      24.45496210      21.57791396      15.82376838      -0.00000203       0.00000774      -0.00000002
Ga      25.89346400      23.01640630      14.38528728       0.00000277      -0.00000833      -0.00000019
As      27.33201502      24.45496688      15.82376838       0.00000792      -0.00000295      -0.00000088
Ga      28.77051692      25.89345922      14.38528728      -0.00000907       0.00000228       0.00000049
As      30.20906794      27.33201980      15.82376838      -0.00000185      -0.00000331       0.00000038
Ga      31.64756984      28.77051214      14.38528728       0.00000328       0.00000589      -0.00000086
As      33.08612086      30.20907272      15.82376838       0.00000740       0.00000718      -0.00000019
Ga      34.52462276      31.64756506      14.38528728      -0.00001826      -0.00001905       0.00000067
As      35.96317378      33.08612564      15.82376838       0.00001585       0.00000595      -0.00000055
Ga      37.40167568      34.52461798      14.38528728      -0.00001689       0.00000680      -0.00000047
As      38.84022670      35.96317856      15.82376838       0.00001811       0.00001841       0.00000010
Ga      40.27872860      37.40167090      14.38528728       0.00000208      -0.00001884       0.00000061
As      41.71727962      38.84023148      15.82376838      -0.00002257      -0.00000490      -0.00000068
Ga      11.50819940       5.75408878      17.26234020       0.00002140       0.00000147      -0.00000665
As      12.94675042       7.19264936      18.70082130      -0.00000616      -0.00000277       0.00000803
Ga      14.38525232       8.63114170      17.26234020      -0.00000121       0.00000022      -0.00000400
As      15.82380334      10.06970228      18.70082130       0.00000000       0.00000144       0.00000539
Ga      17.26230524      11.50819462      17.26234020       0.00001214      -0.00000324      -0.00000596
As      18.70085626      12.94675520      18.70082130      -0.00001110      -0.00000256       0.00000644
Ga      20.13935816      14.38524754      17.26234020      -0.00000069       0.00000381      -0.00000573
As      21.57790918      15.82380812      18.70082130      -0.00000028       0.00000104       0.00000639
Ga      23.01641108      17.26230046      17.26234020       0.00000147      -0.00000196      -0.00000607
As      24.45496210      18.70086104      18.70082130      -0.00000205      -0.00000337       0.00000611
Ga      25.89346400      20.13935338      17.26234020       0.00000313       0.00000461      -0.00000619
As      27.33201502      21.57791396      18.70082130       0.00000839       0.00000927       0.00000514
Ga      28.77051692      23.01640630      17.26234020      -0.00000884      -0.00000939      -0.00000486
As      30.20906794      24.45496688      18.70082130      -0.00000244      -0.00000489       0.00000666
Ga      31.64756984      25.89345922      17.26234020       0.00000322       0.00000369      -0.00000587
As      33.08612086      27.33201980      18.70082130       0.00000814      -0.00000188       0.00000499
Ga      34.52462276      28.77051214      17.26234020      -0.00001771       0.00000397      -0.00000527
As      35.96317378      30.20907272      18.70082130       0.00001635       0.00000722       0.00000495
Ga      37.40167568      31.64756506      17.26234020      -0.00001704      -0.00002034      -0.00000508
As      38.84022670      33.08612564      18.70082130       0.00001865       0.00000690       0.00000597
Ga      40.27872860      34.52461798      17.26234020       0.00000214       0.00000620      -0.00000549
As      41.71727962      35.96317856      18.70082130      -0.00002146       0.00001804       0.00000529
Ga      43.15578152      37.40167090      17.26234020       0.00002013      -0.00001971      -0.00000526
As      44.59433254      38.84023148      18.70082130      -0.00001907      -0.00000355       0.00000594
Ga      14.38525232       5.75408878      20.13939312      -0.00001871       0.00000005       0.00000544
As      15.82380334       7.19264936      21.57787422       0.00001378      -0.00000449      -0.00001259
Ga      17.26230524       8.63114170      20.13939312       0.00001089       0.00000163       0.00000472
As      18.70085626      10.06970228      21.57787422      -0.00001041       0.00000144      -0.00001464
Ga      20.13935816      11.50819462      20.13939312      -0.00000126      -0.00000236       0.00000417
As      21.57790918      12.94675520      21.57787422      -0.00000097      -0.00000179      -0.00001444
Ga      23.01641108      14.38524754      20.13939312       0.00000046       0.00000304       0.00000408
As      24.45496210      15.82380812      21.57787422      -0.00000198       0.00000300      -0.00001360
Ga      25.89346400      17.26230046      20.13939312       0.00000266      -0.00000265       0.00000385
As      27.33201502      18.70086104      21.57787422       0.00000893      -0.00000253      -0.00001419
Ga      28.77051692      20.13935338      20.13939312      -0.00000988       0.00000317       0.00000559
As      30.20906794      21.57791396      21.57787422      -0.00000165       0.00000880      -0.00001518
Ga      31.64756984      23.01640630      20.13939312       0.00000261      -0.00000843       0.00000450
As      33.08612086      24.45496688      21.57787422       0.00000908      -0.00000317      -0.00001390
Ga      34.52462276      25.89345922      20.13939312      -0.00001874       0.00000202       0.00000530
As      35.96317378      27.33201980      21.57787422       0.00001722      -0.00000268      -0.00001488
Ga      37.40167568      28.77051214      20.13939312      -0.00001670       0.00000377       0.00000485
As      38.84022670      30.20907272      21.57787422       0.00001865       0.00000581      -0.00001394
Ga      40.27872860      31.64756506      20.13939312       0.00000212      -0.00002028       0.00000352
As      41.71727962      33.08612564      21.57787422      -0.00002244       0.00000701      -0.00001528
Ga      43.15578152      34.52461798      20.13939312       0.00002085       0.00000682       0.00000425
As      44.59433254      35.96317856      21.57787422      -0.00002084       0.00001792      -0.00001473
Ga      46.03283444      37.40167090      20.13939312       0.00002386      -0.00001886       0.00000473
As      47.47138546      38.84023148      21.57787422      -0.00000160      -0.00000367      -0.00001477
Ga      17.26230524       5.75408878      23.01644604       0.00000211       0.00000137       0.00001525
As      18.70085626       7.19264936      24.45492714      -0.00001437       0.00000307      -0.00000829
Ga      20.13935816       8.63114170      23.01644604       0.00000028       0.00000130       0.00001464
As      21.57790918      10.06970228      24.45492714       0.00000030       0.00000114      -0.00000302
Ga      23.01641108      11.50819462      23.01644604       0.00000146      -0.00000274       0.00001471
As      24.45496210      12.94675520      24.45492714      -0.00000134      -0.00000315      -0.00000331
Ga      25.89346400      14.38524754      23.01644604       0.00000379       0.00000263       0.00001504
As      27.33201502      15.82380812      24.45492714       0.00000843       0.00000308      -0.00000475
Ga      28.77051692      17.26230046      23.01644604      -0.00000955      -0.00000253       0.00001453
As      30.20906794      18.70086104      24.45492714      -0.00000156      -0.00000303      -0.00000389
Ga      31.64756984      20.13935338      23.01644604       0.00000300       0.00000274       0.00001521
As      33.08612086      21.57791396      24.45492714       0.00000809       0.00000931      -0.00000390
Ga      34.52462276      23.01640630      23.01644604      -0.00001878      -0.00000829       0.00001468
As      35.96317378      24.45496688      24.45492714       0.00001634      -0.00000217      -0.00000479
Ga      37.40167568      25.89345922      23.01644604      -0.00001783       0.00000332       0.00001641
As      38.84022670      27.33201980      24.45492714       0.00001808      -0.00000173      -0.00000523
Ga      40.27872860      28.77051214      23.01644604       0.00000115       0.00000475       0.00001573
As      41.71727962      30.20907272      24.45492714      -0.00002321       0.00000766      -0.00000398
Ga      43.15578152      31.64756506      23.01644604       0.00002113      -0.00002064       0.00001630
As      44.59433254      33.08612564      24.45492714      -0.00002087       0.00000679      -0.00000422
Ga      46.03283444      34.52461798      23.01644604       0.00002412       0.00000681       0.00001558
As      47.47138546      35.96317856      24.45492714      -0.00000081       0.00001901      -0.00000544
Ga      48.90988736      37.40167090      23.01644604      -0.00002094      -0.00001903       0.00001502
As      50.34843838      38.84023148      24.45492714       0.00001686      -0.00000305      -0.00000543
Ga      20.13935816       5.75408878      25.89349896       0.00000970      -0.00000412      -0.00000187
As      21.57790918       7.19264936      27.33198006      -0.00001371       0.00000087       0.00000235
Ga      23.01641108       8.63114170      25.89349896       0.00000121       0.00000247      -0.00000664
As      24.45496210      10.06970228      27.33198006      -0.00000219       0.00000015       0.00000591
Ga      25.89346400      11.50819462      25.89349896       0.00000386      -0.00000084      -0.00000706
As      27.33201502      12.94675520      27.33198006       0.00000752      -0.00000264       0.00000367
Ga      28.77051692      14.38524754      25.89349896      -0.00000874       0.00000295      -0.00000596
As      30.20906794      15.82380812      27.33198006      -0.00000215       0.00000093       0.00000505
Ga      31.64756984      17.26230046      25.89349896       0.00000281      -0.00000118      -0.00000656
As      33.08612086      18.70086104      27.33198006       0.00000840      -0.00000261       0.00000342
Ga      34.52462276      20.13935338      25.89349896      -0.00001822       0.00000308      -0.00000624
As      35.96317378      21.57791396      27.33198006       0.00001672       0.00000871       0.00000323
Ga      37.40167568      23.01640630      25.89349896      -0.00001662      -0.00000903      -0.00000497
As      38.84022670      24.45496688      27.33198006       0.00001762      -0.00000268       0.00000331
Ga      40.27872860      25.89345922      25.89349896       0.00000196       0.00000207      -0.00000598
As      41.71727962      27.33201980      27.33198006      -0.00002199      -0.00000128       0.00000353
Ga      43.15578152      28.77051214      25.89349896       0.00002049       0.00000346      -0.00000591
As      44.59433254      30.20907272      27.33198006      -0.00002109       0.00000772       0.00000497
Ga      46.03283444      31.64756506      25.89349896       0.00002509      -0.00002039      -0.00000637
As      47.47138546      33.08612564      27.33198006      -0.00000196       0.00000655       0.00000367
Ga      48.90988736      34.52461798      25.89349896      -0.00001936       0.00000630      -0.00000549
As      50.34843838      35.96317856      27.33198006       0.00001683       0.00001859       0.00000350
Ga      51.78694028      37.40167090      25.89349896      -0.00001645      -0.00002006      -0.00000562
As      53.22549130      38.84023148      27.33198006       0.00001567      -0.00000304       0.00000317
Ga      23.01641108       5.75408878      28.77055188       0.00001042      -0.00000246      -0.00000094
As      24.45496210       7.19264936      30.20903298      -0.00001578      -0.00000047       0.00000448
Ga      25.89346400       8.63114170      28.77055188       0.00000392       0.00000307      -0.00000492
As      27.33201502      10.06970228      30.20903298       0.00000727       0.00000128       0.00000456
Ga      28.77051692      11.50819462      28.77055188      -0.00000885      -0.00000194      -0.00000346
As      30.20906794      12.94675520      30.20903298      -0.00000216      -0.00000362       0.00000479
Ga      31.64756984      14.38524754      28.77055188       0.00000255       0.00000397      -0.00000439
As      33.08612086      15.82380812      30.20903298       0.00000849       0.00000251       0.00000345
Ga      34.52462276      17.26230046      28.77055188      -0.00001834      -0.00000340      -0.00000374
As      35.96317378      18.70086104      30.20903298       0.00001609      -0.00000195       0.00000409
Ga      37.40167568      20.13935338      28.77055188      -0.00001692       0.00000358      -0.00000362
As      38.84022670      21.57791396      30.20903298       0.00001898       0.00000926       0.00000385
Ga      40.27872860      23.01640630      28.77055188       0.00000234      -0.00000946      -0.00000443
As      41.71727962      24.45496688      30.20903298      -0.00002230      -0.00000252       0.00000481
Ga      43.15578152      25.89345922      28.77055188       0.00002043       0.00000189      -0.00000416
As      44.59433254      27.33201980      30.20903298      -0.00002014      -0.00000139       0.00000496
Ga      46.03283444      28.77051214      28.77055188       0.00002322       0.00000380      -0.00000404
As      47.47138546      30.20907272      30.20903298      -0.00000241       0.00000880       0.00000518
Ga      48.90988736      31.64756506      28.77055188      -0.00002113      -0.00001969      -0.00000382
As      50.34843838      33.08612564      30.20903298       0.00001785       0.00000708       0.00000541
Ga      51.78694028      34.52461798      28.77055188      -0.00001703       0.00000680      -0.00000364
As      53.22549130      35.96317856      30.20903298       0.00001580       0.00001827       0.00000416
Ga      54.66399320      37.40167090      28.77055188      -0.00001647      -0.00002019      -0.00000340
As      56.10254422      38.84023148      30.20903298       0.00001650      -0.00000289       0.00000482
Ga      25.89346400       5.75408878      31.64760480       0.00002143       0.00000377       0.00000380
As      27.33201502       7.19264936      33.08608590      -0.00000838       0.00000422      -0.00001121
Ga      28.77051692       8.63114170      31.64760480      -0.00000792       0.00000101       0.00000767
As      30.20906794      10.06970228      33.08608590      -0.00000189       0.00000177      -0.00000478
Ga      31.64756984      11.50819462      31.64760480       0.00000205      -0.00000218       0.00000654
As      33.08612086      12.94675520      33.08608590       0.00000853      -0.00000100      -0.00000635
Ga      34.52462276      14.38524754      31.64760480      -0.00001871       0.00000204       0.00000732
As      35.96317378      15.82380812      33.08608590       0.00001585       0.00000323      -0.00000558
Ga      37.40167568      17.26230046      31.64760480      -0.00001642      -0.00000367       0.00000756
As      38.84022670      18.70086104      33.08608590       0.00001840      -0.00000123      -0.00000618
Ga      40.27872860      20.13935338      31.64760480       0.00000145       0.00000267       0.00000743
As      41.71727962      21.57791396      33.08608590      -0.00002312       0.00000954      -0.00000481
Ga      43.15578152      23.01640630      31.64760480       0.00002083      -0.00000891       0.00000607
As      44.59433254      24.45496688      33.08608590      -0.00002058      -0.00000305      -0.00000518
Ga      46.03283444      25.89345922      31.64760480       0.00002420       0.00000263       0.00000598
As      47.47138546      27.33201980      33.08608590      -0.00000158      -0.00000149      -0.00000592
Ga      48.90988736      28.77051214      31.64760480      -0.00002005       0.00000394       0.00000717
As      50.34843838      30.20907272      33.08608590       0.00001644       0.00000683      -0.00000631
Ga      51.78694028      31.64756506      31.64760480      -0.00001750      -0.00001913       0.00000675
As      53.22549130      33.08612564      33.08608590       0.00001681       0.00000736      -0.00000592
Ga      54.66399320      34.52461798      31.64760480      -0.00001759       0.00000655       0.00000754
As      56.10254422      35.96317856      33.08608590       0.00001875       0.00001906      -0.00000706
Ga      57.54104612      37.40167090      31.64760480       0.00000115      -0.00002005       0.00000733
As      58.97959714      38.84023148      33.08608590      -0.00002263      -0.00000404      -0.00000493
Ga      28.77051692       5.75408878      34.52465772       0.00001984       0.00000191      -0.00000824
As      30.20906794       7.19264936      35.96313882      -0.00001563       0.00000251       0.00000303
Ga      31.64756984       8.63114170      34.52465772       0.00000302       0.00000085      -0.00000576
As      33.08612086      10.06970228      35.96313882       0.00000773       0.00000312       0.00000413
Ga      34.52462276      11.50819462      34.52465772      -0.00001720      -0.00000363      -0.00000583
As      35.96317378      12.94675520      35.96313882       0.00001547      -0.00000131       0.00000462
Ga      37.40167568      14.38524754      34.52465772      -0.00001664       0.00000160      -0.00000575
As      38.84022670      15.82380812      35.96313882       0.00001774       0.00000304       0.00000465
Ga      40.27872860      17.26230046      34.52465772       0.00000153      -0.00000384      -0.00000625
As      41.71727962      18.70086104      35.96313882      -0.00002149      -0.00000136       0.00000423
Ga      43.15578152      20.13935338      34.52465772       0.00002026       0.00000247      -0.00000574
As      44.59433254      21.57791396      35.96313882      -0.00002079       0.00000974       0.00000618
Ga      46.03283444      23.01640630      34.52465772       0.00002466      -0.00000941      -0.00000688
As      47.47138546      24.45496688      35.96313882      -0.00000178      -0.00000264       0.00000552
Ga      48.90988736      25.89345922      34.52465772      -0.00001897       0.00000221      -0.00000642
As      50.34843838      27.33201980      35.96313882       0.00001579      -0.00000248       0.00000531
Ga      51.78694028      28.77051214      34.52465772      -0.00001539       0.00000396      -0.00000633
As      53.22549130      30.20907272      35.96313882       0.00001574       0.00000703       0.00000418
Ga      54.66399320      31.64756506      34.52465772      -0.00001749      -0.00002061      -0.00000598
As      56.10254422      33.08612564      35.96313882       0.00001826       0.00000792       0.00000494
Ga      57.54104612      34.52461798      34.52465772       0.00000184       0.00000550      -0.00000572
As      58.97959714      35.96317856      35.96313882      -0.00002165       0.00001853       0.00000457
Ga      60.41809904      37.40167090      34.52465772       0.00001987      -0.00002015      -0.00000577
As      61.85665006      38.84023148      35.96313882      -0.00001891      -0.00000320       0.00000535
Ga      31.64756984       5.75408878      37.40171064       0.00002173       0.00000107      -0.00000535
As      33.08612086       7.19264936      38.84019174      -0.00000008       0.00000018       0.00000407
Ga      34.52462276       8.63114170      37.40171064      -0.00001898      -0.00000108      -0.00000246
As      35.96317378      10.06970228      38.84019174       0.00001627       0.00000285       0.00000440
Ga      37.40167568      11.50819462      37.40171064      -0.00001612      -0.00000347      -0.00000380
As      38.84022670      12.94675520      38.84019174       0.00001717      -0.00000191       0.00000413
Ga      40.27872860      14.38524754      37.40171064       0.00000180       0.00000179      -0.00000380
As      41.71727962      15.82380812      38.84019174      -0.00002174       0.00000338       0.00000389
Ga      43.15578152      17.26230046      37.40171064       0.00002064      -0.00000344      -0.00000369
As      44.59433254      18.70086104      38.84019174      -0.00001883      -0.00000081       0.00000308
Ga      46.03283444      20.13935338      37.40171064       0.00002134       0.00000208      -0.00000411
As      47.47138546      21.57791396      38.84019174      -0.00001144       0.00001598      -0.00000084
Ga      48.90988736      23.01640630      37.40171064      -0.00001875      -0.00000835      -0.00000417
As      50.34843838      24.45496688      38.84019174       0.00000773       0.00000324      -0.00000201
Ga      51.78694028      25.89345922      37.40171064      -0.00001429       0.00000267      -0.00000451
As      53.22549130      27.33201980      38.84019174       0.00001565      -0.00000255       0.00000438
Ga      54.66399320      28.77051214      37.40171064      -0.00001547       0.00000439      -0.00000440
As      56.10254422      30.20907272      38.84019174       0.00001785       0.00000669       0.00000363
Ga      57.54104612      31.64756506      37.40171064       0.00000320      -0.00002052      -0.00000417
As      58.97959714      33.08612564      38.84019174      -0.00002322       0.00000750       0.00000262
Ga      60.41809904      34.52461798      37.40171064       0.00002030       0.00000500      -0.00000340
As      61.85665006      35.96317856      38.84019174      -0.00001851       0.00001979       0.00000245
Ga      63.29515196      37.40167090      37.40171064       0.00001931      -0.00002046      -0.00000325
As      64.73370298      38.84023148      38.84019174      -0.00001928      -0.00000239       0.00000325
Ga      -0.00001228       8.63114170       8.63118144      -0.00002476       0.00000879      -0.00001362
As       1.43853874      10.06970228      10.06966254       0.00001190      -0.00000076       0.00000516
Ga       2.87704064      11.50819462       8.63118144      -0.00000897       0.00000447      -0.00001522
As       4.31559166      12.94675520      10.06966254      -0.00000314       0.00000013       0.00000331
Ga       5.75409356      14.38524754       8.63118144      -0.00000934       0.00001023      -0.00001309
As       7.19264458      15.82380812      10.06966254      -0.00000227       0.00000610       0.00000098
Ga       8.63114648      17.26230046       8.63118144       0.00000073      -0.00000266      -0.00000706
As      10.06969750      18.70086104      10.06966254       0.00000075      -0.00000148       0.00000317
Ga      11.50819940      20.13935338       8.63118144      -0.00000161       0.00000533      -0.00000785
As      12.94675042      21.57791396      10.06966254      -0.00000355       0.00000840       0.00000450
Ga      14.38525232      23.01640630       8.63118144      -0.00000139      -0.00000508      -0.00001051
As      15.82380334      24.45496688      10.06966254      -0.00000097      -0.00000394       0.00000536
Ga      17.26230524      25.89345922       8.63118144       0.00001036       0.00000443      -0.00000968
As      18.70085626      27.33201980      10.06966254      -0.00001123      -0.00000187       0.00000471
Ga      20.13935816      28.77051214       8.63118144      -0.00000940       0.00001194      -0.00001398
As      21.57790918      30.20907272      10.06966254      -0.00000225       0.00000860       0.00000272
Ga      23.01641108      31.64756506       8.63118144      -0.00000770      -0.00001217      -0.00001394
As      24.45496210      33.08612564      10.06966254      -0.00000495       0.00000944       0.00000141
Ga      25.89346400      34.52461798       8.63118144       0.00000351       0.00000908      -0.00000837
As      27.33201502      35.96317856      10.06966254       0.00000605       0.00001951       0.00000243
Ga      28.77051692      37.40167090       8.63118144      -0.00000407      -0.00002091      -0.00000539
As      30.20906794      38.84023148      10.06966254      -0.00000431      -0.00000426       0.00000502
Ga      31.64756984      40.27872382       8.63118144       0.00000228       0.00000551      -0.00001032
As      33.08612086      41.71728440      10.06966254       0.00000592      -0.00000122       0.00000363
Ga       2.87704064       8.63114170      11.50823436       0.00000339       0.00000248       0.00000072
As       4.31559166      10.06970228      12.94671546      -0.00001365       0.00000373      -0.00000592
Ga       5.75409356      11.50819462      11.50823436       0.00000033      -0.00000339       0.00000167
As       7.19264458      12.94675520      12.94671546       0.00000014      -0.00000199      -0.00000080
Ga       8.63114648      14.38524754      11.50823436       0.00000107       0.00000137       0.00000219
As      10.06969750      15.82380812      12.94671546       0.00000347       0.00000304      -0.00000019
Ga      11.50819940      17.26230046      11.50823436      -0.00000355      -0.00000333       0.00000139
As      12.94675042      18.70086104      12.94671546      -0.00000216      -0.00000384       0.00000060
Ga      14.38525232      20.13935338      11.50823436       0.00000166       0.00000518      -0.00000041
As      15.82380334      21.57791396      12.94671546       0.00000003       0.00000767       0.00000071
Ga      17.26230524      23.01640630      11.50823436       0.00001296      -0.00000810      -0.00000080
As      18.70085626      24.45496688      12.94671546      -0.00001179      -0.00000434       0.00000047
Ga      20.13935816      25.89345922      11.50823436      -0.00000045       0.00000320       0.00000024
As      21.57790918      27.33201980      12.94671546       0.00000011      -0.00000335       0.00000029
Ga      23.01641108      28.77051214      11.50823436       0.00000203       0.00000437       0.00000134
As      24.45496210      30.20907272      12.94671546      -0.00000279       0.00000731      -0.00000071
Ga      25.89346400      31.64756506      11.50823436       0.00000496      -0.00002103       0.00000242
As      27.33201502      33.08612564      12.94671546       0.00000629       0.00000683      -0.00000162
Ga      28.77051692      34.52461798      11.50823436      -0.00000731       0.00000667       0.00000205
As      30.20906794      35.96317856      12.94671546      -0.00000158       0.00001745      -0.00000016
Ga      31.64756984      37.40167090      11.50823436       0.00000297      -0.00001949       0.00000041
As      33.08612086      38.84023148      12.94671546       0.00000768      -0.00000386      -0.00000014
Ga      34.52462276      40.27872382      11.50823436      -0.00001766       0.00000160      -0.00000002
As      35.96317378      41.71728440      12.94671546       0.00001593      -0.00000112       0.00000035
Ga       5.75409356       8.63114170      14.38528728       0.00001110      -0.00000225       0.00000569
As       7.19264458      10.06970228      15.82376838      -0.00001403       0.00000216      -0.00000458
Ga       8.63114648      11.50819462      14.38528728       0.00000140      -0.00000267       0.00000075
As      10.06969750      12.94675520      15.82376838       0.00000346      -0.00000259      -0.00000020
Ga      11.50819940      14.38524754      14.38528728      -0.00000408       0.00000255       0.00000023
As      12.94675042      15.82380812      15.82376838      -0.00000064       0.00000263      -0.00000087
Ga      14.38525232      17.26230046      14.38528728       0.00000054      -0.00000330      -0.00000003
As      15.82380334      18.70086104      15.82376838      -0.00000051      -0.00000353       0.00000070
Ga      17.26230524      20.13935338      14.38528728       0.00001286       0.00000527      -0.00000032
As      18.70085626      21.57791396      15.82376838      -0.00001179       0.00000897       0.00000036
Ga      20.13935816      23.01640630      14.38528728      -0.00000079      -0.00000855      -0.00000098
As      21.57790918      24.45496688      15.82376838      -0.00000037      -0.00000414       0.00000053
Ga      23.01641108      25.89345922      14.38528728       0.00000171       0.00000409      -0.00000086
As      24.45496210      27.33201980      15.82376838      -0.00000233      -0.00000350       0.00000050
Ga      25.89346400      28.77051214      14.38528728       0.00000353       0.00000476      -0.00000041
As      27.33201502      30.20907272      15.82376838       0.00000679       0.00000737      -0.00000081
Ga      28.77051692      31.64756506      14.38528728      -0.00000691      -0.00002006       0.00000106
As      30.20906794      33.08612564      15.82376838      -0.00000321       0.00000561      -0.00000084
Ga      31.64756984      34.52461798      14.38528728       0.00000273       0.00000774      -0.00000041
As      33.08612086      35.96317856      15.82376838       0.00000826       0.00001756      -0.00000076
Ga      34.52462276      37.40167090      14.38528728      -0.00001761      -0.00002030      -0.00000082
As      35.96317378      38.84023148      15.82376838       0.00001550      -0.00000383       0.00000016
Ga      37.40167568      40.27872382      14.38528728      -0.00001557       0.00000156      -0.00000024
As      38.84022670      41.71728440      15.82376838       0.00001713      -0.00000078      -0.00000025
Ga       8.63114648       8.63114170      17.26234020       0.00001971       0.00000365      -0.00000732
As      10.06969750      10.06970228      18.70082130      -0.00001121       0.00000361       0.00000155
Ga      11.50819940      11.50819462      17.26234020      -0.00000364      -0.00000184      -0.00000498
As      12.94675042      12.94675520      18.70082130      -0.00000098      -0.00000309       0.00000558
Ga      14.38525232      14.38524754      17.26234020       0.00000090       0.00000326      -0.00000557
As      15.82380334      15.82380812      18.70082130      -0.00000044       0.00000120       0.00000582
Ga      17.26230524      17.26230046      17.26234020       0.00001242      -0.00000262      -0.00000674
As      18.70085626      18.70086104      18.70082130      -0.00001106      -0.00000288       0.00000614
Ga      20.13935816      20.13935338      17.26234020      -0.00000116       0.00000517      -0.00000578
As      21.57790918      21.57791396      18.70082130      -0.00000054       0.00000812       0.00000588
Ga      23.01641108      23.01640630      17.26234020       0.00000121      -0.00000820      -0.00000589
As      24.45496210      24.45496688      18.70082130      -0.00000205      -0.00000447       0.00000613
Ga      25.89346400      25.89345922      17.26234020       0.00000337       0.00000328      -0.00000559
As      27.33201502      27.33201980      18.70082130       0.00000828      -0.00000149       0.00000454
Ga      28.77051692      28.77051214      17.26234020      -0.00000874       0.00000462      -0.00000454
As      30.20906794      30.20907272      18.70082130      -0.00000173       0.00000590       0.00000606
Ga      31.64756984      31.64756506      17.26234020       0.00000291      -0.00001975      -0.00000536
As      33.08612086      33.08612564      18.70082130       0.00000780       0.00000675       0.00000537
Ga      34.52462276      34.52461798      17.26234020      -0.00001814       0.00000663      -0.00000448
As      35.96317378      35.96317856      18.70082130       0.00001591       0.00001840       0.00000509
Ga      37.40167568      37.40167090      17.26234020      -0.00001629      -0.00002035      -0.00000527
As      38.84022670      38.84023148      18.70082130       0.00001786      -0.00000348       0.00000569
Ga      40.27872860      40.27872382      17.26234020       0.00000197       0.00000210      -0.00000535
As      41.71727962      41.71728440      18.70082130      -0.00002140      -0.00000113       0.00000613
Ga      11.50819940       8.63114170      20.13939312       0.00002172       0.00000305       0.00000355
As      12.94675042      10.06970228      21.57787422      -0.00000397      -0.00000288      -0.00001291
Ga      14.38525232      11.50819462      20.13939312      -0.00000152      -0.00000376       0.00000656
As      15.82380334      12.94675520      21.57787422       0.00000011      -0.00000093      -0.00001559
Ga      17.26230524      14.38524754      20.13939312       0.00001204       0.00000264       0.00000507
As      18.70085626      15.82380812      21.57787422      -0.00001026       0.00000244      -0.00001529
Ga      20.13935816      17.26230046      20.13939312      -0.00000140      -0.00000247       0.00000502
As      21.57790918      18.70086104      21.57787422      -0.00000063      -0.00000234      -0.00001452
Ga      23.01641108      20.13935338      20.13939312       0.00000094       0.00000392       0.00000494
As      24.45496210      21.57791396      21.57787422      -0.00000177       0.00000876      -0.00001494
Ga      25.89346400      23.01640630      20.13939312       0.00000273      -0.00000898       0.00000418
As      27.33201502      24.45496688      21.57787422       0.00000925      -0.00000255      -0.00001471
Ga      28.77051692      25.89345922      20.13939312      -0.00000976       0.00000176       0.00000553
As      30.20906794      27.33201980      21.57787422      -0.00000271      -0.00000209      -0.00001448
Ga      31.64756984      28.77051214      20.13939312       0.00000219       0.00000449       0.00000442
As      33.08612086      30.20907272      21.57787422       0.00000876       0.00000635      -0.00001418
Ga      34.52462276      31.64756506      20.13939312      -0.00001812      -0.00001964       0.00000517
As      35.96317378      33.08612564      21.57787422       0.00001710       0.00000630      -0.00001506
Ga      37.40167568      34.52461798      20.13939312      -0.00001638       0.00000636       0.00000563
As      38.84022670      35.96317856      21.57787422       0.00001893       0.00001789      -0.00001544
Ga      40.27872860      37.40167090      20.13939312       0.00000101      -0.00002031       0.00000559
As      41.71727962      38.84023148      21.57787422      -0.00002282      -0.00000417      -0.00001481
Ga      43.15578152      40.27872382      20.13939312       0.00002092       0.00000262       0.00000408
As      44.59433254      41.71728440      21.57787422      -0.00002032      -0.00000194      -0.00001445
Ga      14.38525232       8.63114170      23.01644604      -0.00002054       0.00000204       0.00001578
As      15.82380334      10.06970228      24.45492714       0.00001362      -0.00000192      -0.00000289
Ga      17.26230524      11.50819462      23.01644604       0.00001163      -0.00000198       0.00001600
As      18.70085626      12.94675520      24.45492714      -0.00001058      -0.00000314      -0.00000345
Ga      20.13935816      14.38524754      23.01644604      -0.00000061       0.00000247       0.00001512
As      21.57790918      15.82380812      24.45492714       0.00000103       0.00000217      -0.00000412
Ga      23.01641108      17.26230046      23.01644604       0.00000113      -0.00000284       0.00001531
As      24.45496210      18.70086104      24.45492714      -0.00000075      -0.00000343      -0.00000394
Ga      25.89346400      20.13935338      23.01644604       0.00000311       0.00000336       0.00001519
As      27.33201502      21.57791396      24.45492714       0.00000753       0.00000904      -0.00000398
Ga      28.77051692      23.01640630      23.01644604      -0.00000998      -0.00000857       0.00001514
As      30.20906794      24.45496688      24.45492714      -0.00000158      -0.00000355      -0.00000374
Ga      31.64756984      25.89345922      23.01644604       0.00000375       0.00000207       0.00001522
As      33.08612086      27.33201980      24.45492714       0.00000899      -0.00000146      -0.00000458
Ga      34.52462276      28.77051214      23.01644604      -0.00001956       0.00000470       0.00001594
As      35.96317378      30.20907272      24.45492714       0.00001614       0.00000698      -0.00000446
Ga      37.40167568      31.64756506      23.01644604      -0.00001678      -0.00001968       0.00001506
As      38.84022670      33.08612564      24.45492714       0.00001850       0.00000770      -0.00000494
Ga      40.27872860      34.52461798      23.01644604       0.00000042       0.00000744       0.00001597
As      41.71727962      35.96317856      24.45492714      -0.00002251       0.00001779      -0.00000412
Ga      43.15578152      37.40167090      23.01644604       0.00002106      -0.00001933       0.00001569
As      44.59433254      38.84023148      24.45492714      -0.00002047      -0.00000420      -0.00000368
Ga      46.03283444      40.27872382      23.01644604       0.00002415       0.00000205       0.00001497
As      47.47138546      41.71728440      24.45492714      -0.00000181      -0.00000043      -0.00000531
Ga      17.26230524       8.63114170      25.89349896       0.00000185       0.00000044      -0.00000598
As      18.70085626      10.06970228      27.33198006      -0.00001392       0.00000361       0.00000067
Ga      20.13935816      11.50819462      25.89349896       0.00000043      -0.00000013      -0.00000711
As      21.57790918      12.94675520      27.33198006      -0.00000044      -0.00000420       0.00000541
Ga      23.01641108      14.38524754      25.89349896       0.00000146       0.00000458      -0.00000681
As      24.45496210      15.82380812      27.33198006      -0.00000201       0.00000075       0.00000494
Ga      25.89346400      17.26230046      25.89349896       0.00000308      -0.00000109      -0.00000667
As      27.33201502      18.70086104      27.33198006       0.00000769      -0.00000260       0.00000362
Ga      28.77051692      20.13935338      25.89349896      -0.00000862       0.00000374      -0.00000561
As      30.20906794      21.57791396      27.33198006      -0.00000208       0.00000793       0.00000415
Ga      31.64756984      23.01640630      25.89349896       0.00000286      -0.00000817      -0.00000634
As      33.08612086      24.45496688      27.33198006       0.00000774      -0.00000315       0.00000355
Ga      34.52462276      25.89345922      25.89349896      -0.00001773       0.00000268      -0.00000579
As      35.96317378      27.33201980      27.33198006       0.00001567      -0.00000217       0.00000338
Ga      37.40167568      28.77051214      25.89349896      -0.00001579       0.00000421      -0.00000595
As      38.84022670      30.20907272      27.33198006       0.00001803       0.00000653       0.00000325
Ga      40.27872860      31.64756506      25.89349896       0.00000276      -0.00002040      -0.00000546
As      41.71727962      33.08612564      27.33198006      -0.00002253       0.00000740       0.00000241
Ga      43.15578152      34.52461798      25.89349896       0.00002053       0.00000585      -0.00000569
As      44.59433254      35.96317856      27.33198006      -0.00002045       0.00001882       0.00000358
Ga      46.03283444      37.40167090      25.89349896       0.00002370      -0.00001972      -0.00000589
As      47.47138546      38.84023148      27.33198006      -0.00000143      -0.00000340       0.00000413
Ga      48.90988736      40.27872382      25.89349896      -0.00001973       0.00000202      -0.00000560
As      50.34843838      41.71728440      27.33198006       0.00001671      -0.00000097       0.00000379
Ga      20.13935816       8.63114170      28.77055188       0.00000963      -0.00000300       0.00000054
As      21.57790918      10.06970228      30.20903298      -0.00001380       0.00000154       0.00000247
Ga      23.01641108      11.50819462      28.77055188       0.00000157      -0.00000023      -0.00000520
As      24.45496210      12.94675520      30.20903298      -0.00000193      -0.00000437       0.00000585
Ga      25.89346400      14.38524754      28.77055188       0.00000367       0.00000439      -0.00000498
As      27.33201502      15.82380812      30.20903298       0.00000787       0.00000179       0.00000391
Ga      28.77051692      17.26230046      28.77055188      -0.00000917      -0.00000273      -0.00000337
As      30.20906794      18.70086104      30.20903298      -0.00000225      -0.00000372       0.00000498
Ga      31.64756984      20.13935338      28.77055188       0.00000291       0.00000492      -0.00000453
As      33.08612086      21.57791396      30.20903298       0.00000864       0.00000922       0.00000387
Ga      34.52462276      23.01640630      28.77055188      -0.00001852      -0.00000892      -0.00000301
As      35.96317378      24.45496688      30.20903298       0.00001579      -0.00000338       0.00000414
Ga      37.40167568      25.89345922      28.77055188      -0.00001632       0.00000245      -0.00000383
As      38.84022670      27.33201980      30.20903298       0.00001800      -0.00000207       0.00000473
Ga      40.27872860      28.77051214      28.77055188       0.00000168       0.00000374      -0.00000443
As      41.71727962      30.20907272      30.20903298      -0.00002345       0.00000741       0.00000593
Ga      43.15578152      31.64756506      28.77055188       0.00002231      -0.00001969      -0.00000474
As      44.59433254      33.08612564      30.20903298      -0.00002042       0.00000690       0.00000420
Ga      46.03283444      34.52461798      28.77055188       0.00002347       0.00000561      -0.00000446
As      47.47138546      35.96317856      30.20903298      -0.00000161       0.00001870       0.00000524
Ga      48.90988736      37.40167090      28.77055188      -0.00001944      -0.00002013      -0.00000428
As      50.34843838      38.84023148      30.20903298       0.00001644      -0.00000381       0.00000501
Ga      51.78694028      40.27872382      28.77055188      -0.00001602       0.00000208      -0.00000425
As      53.22549130      41.71728440      30.20903298       0.00001567      -0.00000103       0.00000411
Ga      23.01641108       8.63114170      31.64760480       0.00000996      -0.00000218       0.00001077
As      24.45496210      10.06970228      33.08608590      -0.00001485       0.00000080      -0.00000690
Ga      25.89346400      11.50819462      31.64760480       0.00000323      -0.00000090       0.00000597
As      27.33201502      12.94675520      33.08608590       0.00000743      -0.00000242      -0.00000525
Ga      28.77051692      14.38524754      31.64760480      -0.00000908       0.00000306       0.00000662
As      30.20906794      15.82380812      33.08608590      -0.00000093       0.00000160      -0.00000491
Ga      31.64756984      17.26230046      31.64760480       0.00000227      -0.00000251       0.00000670
As      33.08612086      18.70086104      33.08608590       0.00000903      -0.00000156      -0.00000584
Ga      34.52462276      20.13935338      31.64760480      -0.00001898       0.00000292       0.00000788
As      35.96317378      21.57791396      33.08608590       0.00001626       0.00000885      -0.00000603
Ga      37.40167568      23.01640630      31.64760480      -0.00001707      -0.00000846       0.00000714
As      38.84022670      24.45496688      33.08608590       0.00001836      -0.00000255      -0.00000618
Ga      40.27872860      25.89345922      31.64760480       0.00000155       0.00000218       0.00000709
As      41.71727962      27.33201980      33.08608590      -0.00002295      -0.00000249      -0.00000498
Ga      43.15578152      28.77051214      31.64760480       0.00002139       0.00000411       0.00000642
As      44.59433254      30.20907272      33.08608590      -0.00002130       0.00000785      -0.00000456
Ga      46.03283444      31.64756506      31.64760480       0.00002428      -0.00002141       0.00000647
As      47.47138546      33.08612564      33.08608590      -0.00000100       0.00000798      -0.00000617
Ga      48.90988736      34.52461798      31.64760480      -0.00001976       0.00000588       0.00000705
As      50.34843838      35.96317856      33.08608590       0.00001700       0.00001916      -0.00000588
Ga      51.78694028      37.40167090      31.64760480      -0.00001666      -0.00002048       0.00000754
As      53.22549130      38.84023148      33.08608590       0.00001535      -0.00000311      -0.00000628
Ga      54.66399320      40.27872382      31.64760480      -0.00001627       0.00000152       0.00000724
As      56.10254422      41.71728440      33.08608590       0.00001716      -0.00000084      -0.00000657
Ga      25.89346400       8.63114170      34.52465772       0.00002003       0.00000305      -0.00000813
As      27.33201502      10.06970228      35.96313882      -0.00000784       0.00000586      -0.00000101
Ga      28.77051692      11.50819462      34.52465772      -0.00000697      -0.00000218      -0.00000571
As      30.20906794      12.94675520      35.96313882      -0.00000301      -0.00000354       0.00000550
Ga      31.64756984      14.38524754      34.52465772       0.00000321       0.00000369      -0.00000725
As      33.08612086      15.82380812      35.96313882       0.00000850       0.00000276       0.00000421
Ga      34.52462276      17.26230046      34.52465772      -0.00001828      -0.00000304      -0.00000598
As      35.96317378      18.70086104      35.96313882       0.00001628      -0.00000190       0.00000430
Ga      37.40167568      20.13935338      34.52465772      -0.00001665       0.00000278      -0.00000607
As      38.84022670      21.57791396      35.96313882       0.00001865       0.00000889       0.00000335
Ga      40.27872860      23.01640630      34.52465772       0.00000247      -0.00001008      -0.00000648
As      41.71727962      24.45496688      35.96313882      -0.00002211      -0.00000230       0.00000440
Ga      43.15578152      25.89345922      34.52465772       0.00002032       0.00000204      -0.00000598
As      44.59433254      27.33201980      35.96313882      -0.00001979      -0.00000151       0.00000448
Ga      46.03283444      28.77051214      34.52465772       0.00002351       0.00000358      -0.00000543
As      47.47138546      30.20907272      35.96313882      -0.00000227       0.00000818       0.00000573
Ga      48.90988736      31.64756506      34.52465772      -0.00002053      -0.00002046      -0.00000549
As      50.34843838      33.08612564      35.96313882       0.00001697       0.00000749       0.00000542
Ga      51.78694028      34.52461798      34.52465772      -0.00001688       0.00000618      -0.00000609
As      53.22549130      35.96317856      35.96313882       0.00001597       0.00001874       0.00000433
Ga      54.66399320      37.40167090      34.52465772      -0.00001692      -0.00002044      -0.00000533
As      56.10254422      38.84023148      35.96313882       0.00001748      -0.00000322       0.00000429
Ga      57.54104612      40.27872382      34.52465772       0.00000199       0.00000202      -0.00000580
As      58.97959714      41.71728440      35.96313882      -0.00002244      -0.00000179       0.00000459
Ga      28.77051692       8.63114170      37.40171064       0.00001886       0.00000174      -0.00000612
As      30.20906794      10.06970228      38.84019174      -0.00001462       0.00000292       0.00000030
Ga      31.64756984      11.50819462      37.40171064       0.00000365      -0.00000164      -0.00000375
As      33.08612086      12.94675520      38.84019174       0.00000792      -0.00000169       0.00000227
Ga      34.52462276      14.38524754      37.40171064      -0.00001794       0.00000166      -0.00000421
As      35.96317378      15.82380812      38.84019174       0.00001578       0.00000346       0.00000290
Ga      37.40167568      17.26230046      37.40171064      -0.00001681      -0.00000361      -0.00000381
As      38.84022670      18.70086104      38.84019174       0.00001829      -0.00000184       0.00000317
Ga      40.27872860      20.13935338      37.40171064       0.00000131       0.00000290      -0.00000383
As      41.71727962      21.57791396      38.84019174      -0.00002291       0.00000888       0.00000450
Ga      43.15578152      23.01640630      37.40171064       0.00002148      -0.00000940      -0.00000477
As      44.59433254      24.45496688      38.84019174      -0.00001928      -0.00000233       0.00000315
Ga      46.03283444      25.89345922      37.40171064       0.00002301       0.00000175      -0.00000427
As      47.47138546      27.33201980      38.84019174      -0.00000188      -0.00000223       0.00000412
Ga      48.90988736      28.77051214      37.40171064      -0.00001948       0.00000434      -0.00000517
As      50.34843838      30.20907272      38.84019174       0.00001646       0.00000643       0.00000303
Ga      51.78694028      31.64756506      37.40171064      -0.00001744      -0.00002047      -0.00000477
As      53.22549130      33.08612564      38.84019174       0.00001677       0.00000741       0.00000441
Ga      54.66399320      34.52461798      37.40171064      -0.00001639       0.00000648      -0.00000387
As      56.10254422      35.96317856      38.84019174       0.00001759       0.00001839       0.00000259
Ga      57.54104612      37.40167090      37.40171064       0.00000155      -0.00002037      -0.00000383
As      58.97959714      38.84023148      38.84019174      -0.00002120      -0.00000345       0.00000318
Ga      60.41809904      40.27872382      37.40171064       0.00001923       0.00000185      -0.00000412
As      61.85665006      41.71728440      38.84019174      -0.00001877      -0.00000055       0.00000410
Ga      31.64756984       8.63114170      40.27876356       0.00002131       0.00000097      -0.00000310
As      33.08612086      10.06970228      41.71724466       0.00000728      -0.00000532       0.00001250
Ga      34.52462276      11.50819462      40.27876356      -0.00001912      -0.00000404      -0.00000129
As      35.96317378      12.94675520      41.71724466       0.00002327      -0.00000807       0.00001361
Ga      37.40167568      14.38524754      40.27876356      -0.00001632       0.00000223      -0.00000226
As      38.84022670      15.82380812      41.71724466       0.00002342      -0.00000338       0.00001341
Ga      40.27872860      17.26230046      40.27876356       0.00000181      -0.00000402      -0.00000226
As      41.71727962      18.70086104      41.71724466      -0.00001489      -0.00000619       0.00001233
Ga      43.15578152      20.13935338      40.27876356       0.00001968       0.00000173      -0.00000190
As      44.59433254      21.57791396      41.71724466      -0.00001383       0.00000462       0.00001340
Ga      46.03283444      23.01640630      40.27876356       0.00002235      -0.00000913      -0.00000397
As      47.47138546      24.45496688      41.71724466      -0.00000436      -0.00000271       0.00000790
Ga      48.90988736      25.89345922      40.27876356      -0.00001894       0.00000247      -0.00000331
As      50.34843838      27.33201980      41.71724466       0.00001334      -0.00000234       0.00000812
Ga      51.78694028      28.77051214      40.27876356      -0.00001424       0.00000498      -0.00000333
As      53.22549130      30.20907272      41.71724466       0.00002279       0.00000072       0.00001327
Ga      54.66399320      31.64756506      40.27876356      -0.00001725      -0.00002017      -0.00000310
As      56.10254422      33.08612564      41.71724466       0.00002425       0.00000121       0.00001480
Ga      57.54104612      34.52461798      40.27876356       0.00000235       0.00000618      -0.00000306
As      58.97959714      35.96317856      41.71724466      -0.00001616       0.00001317       0.00001255
Ga      60.41809904      37.40167090      40.27876356       0.00002010      -0.00002067      -0.00000210
As      61.85665006      38.84023148      41.71724466      -0.00001326      -0.00000742       0.00001212
Ga      63.29515196      40.27872382      40.27876356       0.00001942       0.00000117      -0.00000238
As      64.73370298      41.71728440      41.71724466      -0.00001304      -0.00000608       0.00001251
Ga      -0.00001228      11.50819462      11.50823436      -0.00001538      -0.00000315       0.00000495
As       1.43853874      12.94675520      12.94671546       0.00001499      -0.00000624       0.00000360
Ga       2.87704064      14.38524754      11.50823436       0.00000177       0.00000077       0.00000583
As       4.31559166      15.82380812      12.94671546      -0.00000027       0.00000153      -0.00000027
Ga       5.75409356      17.26230046      11.50823436       0.00000051      -0.00000666       0.00000661
As       7.19264458      18.70086104      12.94671546       0.00000017      -0.00000170      -0.00000204
Ga       8.63114648      20.13935338      11.50823436       0.00001178      -0.00000647       0.00001300
As      10.06969750      21.57791396      12.94671546       0.00000355       0.00000799       0.00000037
Ga      11.50819940      23.01640630      11.50823436       0.00000905      -0.00001886       0.00001240
As      12.94675042      24.45496688      12.94671546      -0.00000024      -0.00000657       0.00000275
Ga      14.38525232      25.89345922      11.50823436       0.00000874      -0.00000318       0.00000896
As      15.82380334      27.33201980      12.94671546       0.00000105      -0.00000621       0.00000290
Ga      17.26230524      28.77051214      11.50823436       0.00002166      -0.00000302       0.00001099
As      18.70085626      30.20907272      12.94671546      -0.00000975       0.00000523       0.00000225
Ga      20.13935816      31.64756506      11.50823436       0.00000176      -0.00002314       0.00000641
As      21.57790918      33.08612564      12.94671546      -0.00000068       0.00000502      -0.00000045
Ga      23.01641108      34.52461798      11.50823436       0.00000259       0.00000409       0.00000565
As      24.45496210      35.96317856      12.94671546      -0.00000078       0.00001825      -0.00000136
Ga      25.89346400      37.40167090      11.50823436       0.00001414      -0.00002901       0.00001155
As      27.33201502      38.84023148      12.94671546       0.00000834      -0.00000446      -0.00000022
Ga      28.77051692      40.27872382      11.50823436       0.00000663      -0.00000914       0.00001346
As      30.20906794      41.71728440      12.94671546      -0.00000123      -0.00000527       0.00000293
Ga      31.64756984      43.15577674      11.50823436       0.00001330      -0.00000400       0.00000918
As      33.08612086      44.59433732      12.94671546       0.00000915      -0.00000439       0.00000197
Ga       2.87704064      11.50819462      14.38528728       0.00000143       0.00000324       0.00000053
As       4.31559166      12.94675520      15.82376838      -0.00001351       0.00000068      -0.00000471
Ga       5.75409356      14.38524754      14.38528728      -0.00000151       0.00000323       0.00000079
As       7.19264458      15.82380812      15.82376838       0.00000101       0.00000258      -0.00000066
Ga       8.63114648      17.26230046      14.38528728      -0.00000012      -0.00000323       0.00000143
As      10.06969750      18.70086104      15.82376838       0.00000384      -0.00000235      -0.00000097
Ga      11.50819940      20.13935338      14.38528728      -0.00000462       0.00000469       0.00000031
As      12.94675042      21.57791396      15.82376838      -0.00000128       0.00000739       0.00000082
Ga      14.38525232      23.01640630      14.38528728      -0.00000006      -0.00000698      -0.00000127
As      15.82380334      24.45496688      15.82376838       0.00000018      -0.00000462       0.00000090
Ga      17.26230524      25.89345922      14.38528728       0.00001172       0.00000570      -0.00000132
As      18.70085626      27.33201980      15.82376838      -0.00001094      -0.00000482       0.00000063
Ga      20.13935816      28.77051214      14.38528728      -0.00000193       0.00000660      -0.00000122
As      21.57790918      30.20907272      15.82376838       0.00000028       0.00000622       0.00000009
Ga      23.01641108      31.64756506      14.38528728       0.00000114      -0.00001945       0.00000098
As      24.45496210      33.08612564      15.82376838      -0.00000231       0.00000586      -0.00000106
Ga      25.89346400      34.52461798      14.38528728       0.00000319       0.00000759       0.00000047
As      27.33201502      35.96317856      15.82376838       0.00000801       0.00001875      -0.00000090
Ga      28.77051692      37.40167090      14.38528728      -0.00000854      -0.00001990       0.00000006
As      30.20906794      38.84023148      15.82376838      -0.00000277      -0.00000600       0.00000112
Ga      31.64756984      40.27872382      14.38528728       0.00000287       0.00000458      -0.00000203
As      33.08612086      41.71728440      15.82376838       0.00000776      -0.00000287       0.00000010
Ga      34.52462276      43.15577674      14.38528728      -0.00001939       0.00000384      -0.00000171
As      35.96317378      44.59433732      15.82376838       0.00001736      -0.00000247       0.00000047
Ga       5.75409356      11.50819462      17.26234020       0.00000986      -0.00000355      -0.00000044
As       7.19264458      12.94675520      18.70082130      -0.00001405      -0.00000035       0.00000430
Ga       8.63114648      14.38524754      17.26234020       0.00000037       0.00000293      -0.00000456
As      10.06969750      15.82380812      18.70082130       0.00000353       0.00000134       0.00000532
Ga      11.50819940      17.26230046      17.26234020      -0.00000471      -0.00000236      -0.00000468
As      12.94675042      18.70086104      18.70082130      -0.00000172      -0.00000388       0.00000597
Ga      14.38525232      20.13935338      17.26234020       0.00000053       0.00000500      -0.00000620
As      15.82380334      21.57791396      18.70082130       0.00000001       0.00000826       0.00000603
Ga      17.26230524      23.01640630      17.26234020       0.00001235      -0.00000928      -0.00000699
As      18.70085626      24.45496688      18.70082130      -0.00001081      -0.00000435       0.00000671
Ga      20.13935816      25.89345922      17.26234020      -0.00000085       0.00000470      -0.00000638
As      21.57790918      27.33201980      18.70082130      -0.00000019      -0.00000406       0.00000645
Ga      23.01641108      28.77051214      17.26234020       0.00000095       0.00000569      -0.00000620
As      24.45496210      30.20907272      18.70082130      -0.00000138       0.00000640       0.00000594
Ga      25.89346400      31.64756506      17.26234020       0.00000361      -0.00001984      -0.00000478
As      27.33201502      33.08612564      18.70082130       0.00000813       0.00000692       0.00000479
Ga      28.77051692      34.52461798      17.26234020      -0.00000849       0.00000670      -0.00000445
As      30.20906794      35.96317856      18.70082130      -0.00000263       0.00001678       0.00000568
Ga      31.64756984      37.40167090      17.26234020       0.00000324      -0.00001835      -0.00000518
As      33.08612086      38.84023148      18.70082130       0.00000742      -0.00000410       0.00000469
Ga      34.52462276      40.27872382      17.26234020      -0.00001786       0.00000273      -0.00000573
As      35.96317378      41.71728440      18.70082130       0.00001575      -0.00000147       0.00000564
Ga      37.40167568      43.15577674      17.26234020      -0.00001637       0.00000250      -0.00000544
As      38.84022670      44.59433732      18.70082130       0.00001693      -0.00000160       0.00000524
Ga       8.63114648      11.50819462      20.13939312       0.00002023       0.00000365       0.00000224
As      10.06969750      12.94675520      21.57787422      -0.00001229       0.00000006      -0.00001778
Ga      11.50819940      14.38524754      20.13939312      -0.00000386       0.00000311       0.00000491
As      12.94675042      15.82380812      21.57787422      -0.00000117       0.00000374      -0.00001514
Ga      14.38525232      17.26230046      20.13939312       0.00000046      -0.00000251       0.00000516
As      15.82380334      18.70086104      21.57787422      -0.00000059      -0.00000188      -0.00001478
Ga      17.26230524      20.13935338      20.13939312       0.00001217       0.00000372       0.00000514
As      18.70085626      21.57791396      21.57787422      -0.00001099       0.00000927      -0.00001544
Ga      20.13935816      23.01640630      20.13939312      -0.00000142      -0.00000850       0.00000487
As      21.57790918      24.45496688      21.57787422      -0.00000078      -0.00000282      -0.00001509
Ga      23.01641108      25.89345922      20.13939312       0.00000063       0.00000317       0.00000470
As      24.45496210      27.33201980      21.57787422      -0.00000207      -0.00000209      -0.00001456
Ga      25.89346400      28.77051214      20.13939312       0.00000253       0.00000404       0.00000447
As      27.33201502      30.20907272      21.57787422       0.00000908       0.00000662      -0.00001443
Ga      28.77051692      31.64756506      20.13939312      -0.00000835      -0.00001928       0.00000536
As      30.20906794      33.08612564      21.57787422      -0.00000364       0.00000688      -0.00001553
Ga      31.64756984      34.52461798      20.13939312       0.00000226       0.00000703       0.00000447
As      33.08612086      35.96317856      21.57787422       0.00000971       0.00001848      -0.00001363
Ga      34.52462276      37.40167090      20.13939312      -0.00001851      -0.00002094       0.00000515
As      35.96317378      38.84023148      21.57787422       0.00001726      -0.00000456      -0.00001480
Ga      37.40167568      40.27872382      20.13939312      -0.00001703       0.00000181       0.00000469
As      38.84022670      41.71728440      21.57787422       0.00001927      -0.00000209      -0.00001469
Ga      40.27872860      43.15577674      20.13939312       0.00000196       0.00000213       0.00000485
As      41.71727962      44.59433732      21.57787422      -0.00002332      -0.00000278      -0.00001422
Ga      11.50819940      11.50819462      23.01644604       0.00002138       0.00000189       0.00001509
As      12.94675042      12.94675520      24.45492714      -0.00000609      -0.00000463      -0.00000266
Ga      14.38525232      14.38524754      23.01644604      -0.00000122       0.00000056       0.00001789
As      15.82380334      15.82380812      24.45492714       0.00000165       0.00000298      -0.00000557
Ga      17.26230524      17.26230046      23.01644604       0.00001156      -0.00000293       0.00001686
As      18.70085626      18.70086104      24.45492714      -0.00001066      -0.00000275      -0.00000442
Ga      20.13935816      20.13935338      23.01644604      -0.00000084       0.00000320       0.00001576
As      21.57790918      21.57791396      24.45492714       0.00000036       0.00000914      -0.00000391
Ga      23.01641108      23.01640630      23.01644604       0.00000091      -0.00000945       0.00001600
As      24.45496210      24.45496688      24.45492714      -0.00000105      -0.00000338      -0.00000385
Ga      25.89346400      25.89345922      23.01644604       0.00000316       0.00000219       0.00001528
As      27.33201502      27.33201980      24.45492714       0.00000898      -0.00000103      -0.00000477
Ga      28.77051692      28.77051214      23.01644604      -0.00001009       0.00000427       0.00001559
As      30.20906794      30.20907272      24.45492714      -0.00000186       0.00000730      -0.00000359
Ga      31.64756984      31.64756506      23.01644604       0.00000343      -0.00002001       0.00001651
As      33.08612086      33.08612564      24.45492714       0.00000866       0.00000634      -0.00000537
Ga      34.52462276      34.52461798      23.01644604      -0.00001951       0.00000735       0.00001557
As      35.96317378      35.96317856      24.45492714       0.00001606       0.00001889      -0.00000506
Ga      37.40167568      37.40167090      23.01644604      -0.00001725      -0.00002027       0.00001604
As      38.84022670      38.84023148      24.45492714       0.00001787      -0.00000274      -0.00000485
Ga      40.27872860      40.27872382      23.01644604       0.00000108       0.00000304       0.00001553
As      41.71727962      41.71728440      24.45492714      -0.00002301      -0.00000213      -0.00000405
Ga      43.15578152      43.15577674      23.01644604       0.00002114       0.00000296       0.00001561
As      44.59433254      44.59433732      24.45492714      -0.00001979      -0.00000241      -0.00000378
Ga      14.38525232      11.50819462      25.89349896      -0.00001951       0.00000096      -0.00000535
As      15.82380334      12.94675520      27.33198006       0.00001287      -0.00000537       0.00000661
Ga      17.26230524      14.38524754      25.89349896       0.00001099       0.00000320      -0.00000661
As      18.70085626      15.82380812      27.33198006      -0.00001092       0.00000114       0.00000565
Ga      20.13935816      17.26230046      25.89349896      -0.00000097      -0.00000091      -0.00000621
As      21.57790918      18.70086104      27.33198006      -0.00000036      -0.00000424       0.00000461
Ga      23.01641108      20.13935338      25.89349896       0.00000150       0.00000461      -0.00000677
As      24.45496210      21.57791396      27.33198006      -0.00000166       0.00000791       0.00000412
Ga      25.89346400      23.01640630      25.89349896       0.00000308      -0.00000810      -0.00000604
As      27.33201502      24.45496688      27.33198006       0.00000819      -0.00000341       0.00000307
Ga      28.77051692      25.89345922      25.89349896      -0.00000930       0.00000269      -0.00000560
As      30.20906794      27.33201980      27.33198006      -0.00000224      -0.00000364       0.00000423
Ga      31.64756984      28.77051214      25.89349896       0.00000309       0.00000570      -0.00000658
As      33.08612086      30.20907272      27.33198006       0.00000785       0.00000759       0.00000345
Ga      34.52462276      31.64756506      25.89349896      -0.00001971      -0.00002019      -0.00000583
As      35.96317378      33.08612564      27.33198006       0.00001658       0.00000747       0.00000470
Ga      37.40167568      34.52461798      25.89349896      -0.00001623       0.00000640      -0.00000569
As      38.84022670      35.96317856      27.33198006       0.00001779       0.00001818       0.00000346
Ga      40.27872860      37.40167090      25.89349896       0.00000190      -0.00002041      -0.00000529
As      41.71727962      38.84023148      27.33198006      -0.00002206      -0.00000358       0.00000327
Ga      43.15578152      40.27872382      25.89349896       0.00002024       0.00000152      -0.00000583
As      44.59433254      41.71728440      27.33198006      -0.00001953      -0.00000066       0.00000406
Ga      46.03283444      43.15577674      25.89349896       0.00002291       0.00000142      -0.00000611
As      47.47138546      44.59433732      27.33198006      -0.00000211      -0.00000114       0.00000392
Ga      17.26230524      11.50819462      28.77055188       0.00000181       0.00000064      -0.00000393
As      18.70085626      12.94675520      30.20903298      -0.00001458       0.00000020       0.00000154
Ga      20.13935816      14.38524754      28.77055188      -0.00000024       0.00000460      -0.00000542
As      21.57790918      15.82380812      30.20903298      -0.00000010       0.00000019       0.00000583
Ga      23.01641108      17.26230046      28.77055188       0.00000123      -0.00000042      -0.00000493
As      24.45496210      18.70086104      30.20903298      -0.00000196      -0.00000444       0.00000533
Ga      25.89346400      20.13935338      28.77055188       0.00000292       0.00000494      -0.00000474
As      27.33201502      21.57791396      30.20903298       0.00000799       0.00000872       0.00000430
Ga      28.77051692      23.01640630      28.77055188      -0.00000892      -0.00000918      -0.00000415
As      30.20906794      24.45496688      30.20903298      -0.00000213      -0.00000459       0.00000558
Ga      31.64756984      25.89345922      28.77055188       0.00000327       0.00000385      -0.00000480
As      33.08612086      27.33201980      30.20903298       0.00000832      -0.00000261       0.00000403
Ga      34.52462276      28.77051214      28.77055188      -0.00001787       0.00000430      -0.00000410
As      35.96317378      30.20907272      30.20903298       0.00001636       0.00000732       0.00000413
Ga      37.40167568      31.64756506      28.77055188      -0.00001755      -0.00002068      -0.00000405
As      38.84022670      33.08612564      30.20903298       0.00001824       0.00000747       0.00000485
Ga      40.27872860      34.52461798      28.77055188       0.00000250       0.00000619      -0.00000402
As      41.71727962      35.96317856      30.20903298      -0.00002214       0.00001853       0.00000448
Ga      43.15578152      37.40167090      28.77055188       0.00002079      -0.00002047      -0.00000385
As      44.59433254      38.84023148      30.20903298      -0.00002017      -0.00000260       0.00000454
Ga      46.03283444      40.27872382      28.77055188       0.00002365       0.00000155      -0.00000434
As      47.47138546      41.71728440      30.20903298      -0.00000154      -0.00000079       0.00000508
Ga      48.90988736      43.15577674      28.77055188      -0.00001948       0.00000220      -0.00000414
As      50.34843838      44.59433732      30.20903298       0.00001627      -0.00000181       0.00000436
Ga      20.13935816      11.50819462      31.64760480       0.00000907      -0.00000372       0.00001237
As      21.57790918      12.94675520      33.08608590      -0.00001381      -0.00000030      -0.00000794
Ga      23.01641108      14.38524754      31.64760480       0.00000032       0.00000337       0.00000635
As      24.45496210      15.82380812      33.08608590      -0.00000171       0.00000180      -0.00000446
Ga      25.89346400      17.26230046      31.64760480       0.00000287      -0.00000194       0.00000580
As      27.33201502      18.70086104      33.08608590       0.00000804      -0.00000235      -0.00000561
Ga      28.77051692      20.13935338      31.64760480      -0.00000969       0.00000364       0.00000722
As      30.20906794      21.57791396      33.08608590      -0.00000181       0.00000896      -0.00000506
Ga      31.64756984      23.01640630      31.64760480       0.00000216      -0.00000897       0.00000657
As      33.08612086      24.45496688      33.08608590       0.00000883      -0.00000227      -0.00000609
Ga      34.52462276      25.89345922      31.64760480      -0.00001823       0.00000221       0.00000695
As      35.96317378      27.33201980      33.08608590       0.00001609      -0.00000144      -0.00000588
Ga      37.40167568      28.77051214      31.64760480      -0.00001670       0.00000396       0.00000700
As      38.84022670      30.20907272      33.08608590       0.00001772       0.00000667      -0.00000617
Ga      40.27872860      31.64756506      31.64760480       0.00000272      -0.00002078       0.00000606
As      41.71727962      33.08612564      33.08608590      -0.00002246       0.00000721      -0.00000572
Ga      43.15578152      34.52461798      31.64760480       0.00002083       0.00000667       0.00000580
As      44.59433254      35.96317856      33.08608590      -0.00002105       0.00001813      -0.00000532
Ga      46.03283444      37.40167090      31.64760480       0.00002465      -0.00001922       0.00000637
As      47.47138546      38.84023148      33.08608590      -0.00000196      -0.00000307      -0.00000616
Ga      48.90988736      40.27872382      31.64760480      -0.00001997       0.00000181       0.00000717
As      50.34843838      41.71728440      33.08608590       0.00001724      -0.00000094      -0.00000630
Ga      51.78694028      43.15577674      31.64760480      -0.00001667       0.00000203       0.00000712
As      53.22549130      44.59433732      33.08608590       0.00001714      -0.00000078      -0.00000689
Ga      23.01641108      11.50819462      34.52465772       0.00000953      -0.00000311      -0.00000253
As      24.45496210      12.94675520      35.96313882      -0.00001557      -0.00000240       0.00000510
Ga      25.89346400      14.38524754      34.52465772       0.00000379       0.00000444      -0.00000714
As      27.33201502      15.82380812      35.96313882       0.00000751       0.00000165       0.00000465
Ga      28.77051692      17.26230046      34.52465772      -0.00000832      -0.00000179      -0.00000613
As      30.20906794      18.70086104      35.96313882      -0.00000262      -0.00000361       0.00000552
Ga      31.64756984      20.13935338      34.52465772       0.00000317       0.00000481      -0.00000704
As      33.08612086      21.57791396      35.96313882       0.00000777       0.00000904       0.00000421
Ga      34.52462276      23.01640630      34.52465772      -0.00001898      -0.00000911      -0.00000524
As      35.96317378      24.45496688      35.96313882       0.00001608      -0.00000297       0.00000455
Ga      37.40167568      25.89345922      34.52465772      -0.00001670       0.00000224      -0.00000569
As      38.84022670      27.33201980      35.96313882       0.00001791      -0.00000208       0.00000422
Ga      40.27872860      28.77051214      34.52465772       0.00000247       0.00000365      -0.00000575
As      41.71727962      30.20907272      35.96313882      -0.00002354       0.00000752       0.00000589
Ga      43.15578152      31.64756506      34.52465772       0.00002245      -0.00002027      -0.00000578
As      44.59433254      33.08612564      35.96313882      -0.00002071       0.00000769       0.00000382
Ga      46.03283444      34.52461798      34.52465772       0.00002286       0.00000532      -0.00000561
As      47.47138546      35.96317856      35.96313882      -0.00000149       0.00001917       0.00000489
Ga      48.90988736      37.40167090      34.52465772      -0.00001910      -0.00001967      -0.00000593
As      50.34843838      38.84023148      35.96313882       0.00001611      -0.00000409       0.00000473
Ga      51.78694028      40.27872382      34.52465772      -0.00001614       0.00000182      -0.00000595
As      53.22549130      41.71728440      35.96313882       0.00001610      -0.00000127       0.00000437
Ga      54.66399320      43.15577674      34.52465772      -0.00001614       0.00000148      -0.00000520
As      56.10254422      44.59433732      35.96313882       0.00001688      -0.00000139       0.00000416
Ga      25.89346400      11.50819462      37.40171064       0.00002002       0.00000236      -0.00000665
As      27.33201502      12.94675520      38.84019174      -0.00000890       0.00000270      -0.00000119
Ga      28.77051692      14.38524754      37.40171064      -0.00000700       0.00000215      -0.00000379
As      30.20906794      15.82380812      38.84019174      -0.00000260       0.00000140       0.00000395
Ga      31.64756984      17.26230046      37.40171064       0.00000327      -0.00000110      -0.00000535
As      33.08612086      18.70086104      38.84019174       0.00000742      -0.00000230       0.00000308
Ga      34.52462276      20.13935338      37.40171064      -0.00001824       0.00000335      -0.00000430
As      35.96317378      21.57791396      38.84019174       0.00001691       0.00000866       0.00000298
Ga      37.40167568      23.01640630      37.40171064      -0.00001727      -0.00000914      -0.00000351
As      38.84022670      24.45496688      38.84019174       0.00001773      -0.00000240       0.00000360
Ga      40.27872860      25.89345922      37.40171064       0.00000224       0.00000192      -0.00000395
As      41.71727962      27.33201980      38.84019174      -0.00002198      -0.00000182       0.00000375
Ga      43.15578152      28.77051214      37.40171064       0.00002056       0.00000334      -0.00000489
As      44.59433254      30.20907272      38.84019174      -0.00002112       0.00000754       0.00000507
Ga      46.03283444      31.64756506      37.40171064       0.00002517      -0.00002048      -0.00000540
As      47.47138546      33.08612564      38.84019174      -0.00000235       0.00000676       0.00000328
Ga      48.90988736      34.52461798      37.40171064      -0.00001875       0.00000643      -0.00000440
As      50.34843838      35.96317856      38.84019174       0.00001676       0.00001870       0.00000381
Ga      51.78694028      37.40167090      37.40171064      -0.00001674      -0.00002016      -0.00000418
As      53.22549130      38.84023148      38.84019174       0.00001561      -0.00000400       0.00000344
Ga      54.66399320      40.27872382      37.40171064      -0.00001654       0.00000202      -0.00000439
As      56.10254422      41.71728440      38.84019174       0.00001745      -0.00000138       0.00000368
Ga      57.54104612      43.15577674      37.40171064       0.00000250       0.00000186      -0.00000410
As      58.97959714      44.59433732      38.84019174      -0.00002203      -0.00000158       0.00000423
Ga      28.77051692      11.50819462      40.27876356       0.00001842       0.00000187      -0.00000505
As      30.20906794      12.94675520      41.71724466      -0.00001574       0.00000021       0.00000417
Ga      31.64756984      14.38524754      40.27876356       0.00000342       0.00000265      -0.00000335
As      33.08612086      15.82380812      41.71724466       0.00000798       0.00000316       0.00000469
Ga      34.52462276      17.26230046      40.27876356      -0.00001758      -0.00000370      -0.00000319
As      35.96317378      18.70086104      41.71724466       0.00001547      -0.00000133       0.00000529
Ga      37.40167568      20.13935338      40.27876356      -0.00001732       0.00000295      -0.00000366
As      38.84022670      21.57791396      41.71724466       0.00001853       0.00000939       0.00000543
Ga      40.27872860      23.01640630      40.27876356       0.00000218      -0.00000987      -0.00000419
As      41.71727962      24.45496688      41.71724466      -0.00002153      -0.00000167       0.00000619
Ga      43.15578152      25.89345922      40.27876356       0.00002026       0.00000138      -0.00000375
As      44.59433254      27.33201980      41.71724466      -0.00001995      -0.00000122       0.00000603
Ga      46.03283444      28.77051214      40.27876356       0.00002362       0.00000320      -0.00000397
As      47.47138546      30.20907272      41.71724466      -0.00000289       0.00000848       0.00000725
Ga      48.90988736      31.64756506      40.27876356      -0.00002048      -0.00002026      -0.00000387
As      50.34843838      33.08612564      41.71724466       0.00001697       0.00000747       0.00000725
Ga      51.78694028      34.52461798      40.27876356      -0.00001656       0.00000667      -0.00000445
As      53.22549130      35.96317856      41.71724466       0.00001508       0.00001880       0.00000632
Ga      54.66399320      37.40167090      40.27876356      -0.00001615      -0.00002017      -0.00000415
As      56.10254422      38.84023148      41.71724466       0.00001779      -0.00000305       0.00000641
Ga      57.54104612      40.27872382      40.27876356       0.00000187       0.00000189      -0.00000417
As      58.97959714      41.71728440      41.71724466      -0.00002211      -0.00000038       0.00000618
Ga      60.41809904      43.15577674      40.27876356       0.00001958       0.00000121      -0.00000443
As      61.85665006      44.59433732      41.71724466      -0.00001909      -0.00000134       0.00000696
Ga      31.64756984      11.50819462      43.15581648       0.00002139       0.00000035       0.00001463
As      33.08612086      12.94675520      44.59429758      -0.00000586       0.00000472      -0.00002423
Ga      34.52462276      14.38524754      43.15581648      -0.00001918       0.00000069       0.00001555
As      35.96317378      15.82380812      44.59429758       0.00001176       0.00000882      -0.00002332
Ga      37.40167568      17.26230046      43.15581648      -0.00001664      -0.00000402       0.00001463
As      38.84022670      18.70086104      44.59429758       0.00001114       0.00000450      -0.00002307
Ga      40.27872860      20.13935338      43.15581648       0.00000221       0.00000188       0.00001497
As      41.71727962      21.57791396      44.59429758      -0.00002834       0.00001710      -0.00002519
Ga      43.15578152      23.01640630      43.15581648       0.00002056      -0.00001093       0.00001516
As      44.59433254      24.45496688      44.59429758      -0.00002623       0.00000515      -0.00002604
Ga      46.03283444      25.89345922      43.15581648       0.00002187       0.00000124       0.00001424
As      47.47138546      27.33201980      44.59429758      -0.00001660       0.00001068      -0.00003009
Ga      48.90988736      28.77051214      43.15581648      -0.00001886       0.00000408       0.00001376
As      50.34843838      30.20907272      44.59429758       0.00000127       0.00001873      -0.00002962
Ga      51.78694028      31.64756506      43.15581648      -0.00001438      -0.00001931       0.00001416
As      53.22549130      33.08612564      44.59429758       0.00000936       0.00001301      -0.00002354
Ga      54.66399320      34.52461798      43.15581648      -0.00001609       0.00000645       0.00001391
As      56.10254422      35.96317856      44.59429758       0.00001101       0.00002433      -0.00002346
Ga      57.54104612      37.40167090      43.15581648       0.00000248      -0.00002035       0.00001453
As      58.97959714      38.84023148      44.59429758      -0.00002916       0.00000403      -0.00002480
Ga      60.41809904      40.27872382      43.15581648       0.00002096       0.00000080       0.00001445
As      61.85665006      41.71728440      44.59429758      -0.00002534       0.00000709      -0.00002542
Ga      63.29515196      43.15577674      43.15581648       0.00001971       0.00000110       0.00001483
As      64.73370298      44.59433732      44.59429758      -0.00002618       0.00000631      -0.00002524
Ga      -0.00001228      14.38524754      14.38528728      -0.00002009       0.00000357      -0.00000108
As       1.43853874      15.82380812      15.82376838       0.00001438      -0.00000248       0.00000158
Ga       2.87704064      17.26230046      14.38528728      -0.00000211      -0.00000039      -0.00000152
As       4.31559166      18.70086104      15.82376838      -0.00000191      -0.00000249      -0.00000147
Ga       5.75409356      20.13935338      14.38528728      -0.00000347       0.00000456      -0.00000044
As       7.19264458      21.57791396      15.82376838      -0.00000080       0.00001074      -0.00000320
Ga       8.63114648      23.01640630      14.38528728       0.00000666      -0.00001394       0.00000553
As      10.06969750      24.45496688      15.82376838       0.00000300      -0.00000250      -0.00000097
Ga      11.50819940      25.89345922      14.38528728       0.00000301      -0.00000136       0.00000466
As      12.94675042      27.33201980      15.82376838      -0.00000212      -0.00000542       0.00000183
Ga      14.38525232      28.77051214      14.38528728       0.00000390       0.00000379       0.00000144
As      15.82380334      30.20907272      15.82376838       0.00000024       0.00000530       0.00000132
Ga      17.26230524      31.64756506      14.38528728       0.00001563      -0.00002424       0.00000280
As      18.70085626      33.08612564      15.82376838      -0.00000994       0.00000507       0.00000092
Ga      20.13935816      34.52461798      14.38528728      -0.00000311       0.00000902      -0.00000177
As      21.57790918      35.96317856      15.82376838       0.00000017       0.00001836      -0.00000159
Ga      23.01641108      37.40167090      14.38528728      -0.00000241      -0.00001847      -0.00000118
As      24.45496210      38.84023148      15.82376838      -0.00000287      -0.00000348      -0.00000135
Ga      25.89346400      40.27872382      14.38528728       0.00000917      -0.00000071       0.00000388
As      27.33201502      41.71728440      15.82376838       0.00000770      -0.00000104      -0.00000154
Ga      28.77051692      43.15577674      14.38528728       0.00000078      -0.00000349       0.00000642
As      30.20906794      44.59433732      15.82376838      -0.00000254      -0.00000496       0.00000130
Ga      31.64756984      46.03282966      14.38528728       0.00000798       0.00000099       0.00000118
As      33.08612086      47.47139024      15.82376838       0.00000802      -0.00000371       0.00000069
Ga       2.87704064      14.38524754      17.26234020       0.00000189       0.00000280      -0.00000633
As       4.31559166      15.82380812      18.70082130      -0.00001241       0.00000392       0.00000108
Ga       5.75409356      17.26230046      17.26234020      -0.00000056      -0.00000281      -0.00000494
As       7.19264458      18.70086104      18.70082130       0.00000043      -0.00000266       0.00000480
Ga       8.63114648      20.13935338      17.26234020       0.00000039       0.00000278      -0.00000373
As      10.06969750      21.57791396      18.70082130       0.00000223       0.00000825       0.00000535
Ga      11.50819940      23.01640630      17.26234020      -0.00000316      -0.00000836      -0.00000590
As      12.94675042      24.45496688      18.70082130      -0.00000157      -0.00000453       0.00000650
Ga      14.38525232      25.89345922      17.26234020       0.00000056       0.00000448      -0.00000666
As      15.82380334      27.33201980      18.70082130       0.00000016      -0.00000378       0.00000673
Ga      17.26230524      28.77051214      17.26234020       0.00001150       0.00000595      -0.00000730
As      18.70085626      30.20907272      18.70082130      -0.00001121       0.00000747       0.00000704
Ga      20.13935816      31.64756506      17.26234020      -0.00000050      -0.00001909      -0.00000566
As      21.57790918      33.08612564      18.70082130      -0.00000010       0.00000581       0.00000549
Ga      23.01641108      34.52461798      17.26234020       0.00000031       0.00000747      -0.00000470
As      24.45496210      35.96317856      18.70082130      -0.00000225       0.00001773       0.00000515
Ga      25.89346400      37.40167090      17.26234020       0.00000390      -0.00002032      -0.00000466
As      27.33201502      38.84023148      18.70082130       0.00000711      -0.00000359       0.00000451
Ga      28.77051692      40.27872382      17.26234020      -0.00000791       0.00000240      -0.00000467
As      30.20906794      41.71728440      18.70082130      -0.00000287      -0.00000369       0.00000640
Ga      31.64756984      43.15577674      17.26234020       0.00000356       0.00000418      -0.00000643
As      33.08612086      44.59433732      18.70082130       0.00000801      -0.00000262       0.00000577
Ga      34.52462276      46.03282966      17.26234020      -0.00001810       0.00000294      -0.00000666
As      35.96317378      47.47139024      18.70082130       0.00001643      -0.00000259       0.00000548
Ga       5.75409356      14.38524754      20.13939312       0.00000966      -0.00000222       0.00000987
As       7.19264458      15.82380812      21.57787422      -0.00001447       0.00000178      -0.00001751
Ga       8.63114648      17.26230046      20.13939312       0.00000128      -0.00000265       0.00000491
As      10.06969750      18.70086104      21.57787422       0.00000247      -0.00000244      -0.00001432
Ga      11.50819940      20.13935338      20.13939312      -0.00000426       0.00000393       0.00000492
As      12.94675042      21.57791396      21.57787422      -0.00000126       0.00000911      -0.00001486
Ga      14.38525232      23.01640630      20.13939312       0.00000095      -0.00000849       0.00000488
As      15.82380334      24.45496688      21.57787422      -0.00000034      -0.00000314      -0.00001474
Ga      17.26230524      25.89345922      20.13939312       0.00001178       0.00000365       0.00000433
As      18.70085626      27.33201980      21.57787422      -0.00001100      -0.00000276      -0.00001518
Ga      20.13935816      28.77051214      20.13939312      -0.00000133       0.00000482       0.00000438
As      21.57790918      30.20907272      21.57787422       0.00000064       0.00000711      -0.00001509
Ga      23.01641108      31.64756506      20.13939312       0.00000086      -0.00001951       0.00000512
As      24.45496210      33.08612564      21.57787422      -0.00000301       0.00000699      -0.00001542
Ga      25.89346400      34.52461798      20.13939312       0.00000290       0.00000727       0.00000535
As      27.33201502      35.96317856      21.57787422       0.00000925       0.00001811      -0.00001460
Ga      28.77051692      37.40167090      20.13939312      -0.00000914      -0.00002036       0.00000587
As      30.20906794      38.84023148      21.57787422      -0.00000390      -0.00000361      -0.00001423
Ga      31.64756984      40.27872382      20.13939312       0.00000313       0.00000297       0.00000467
As      33.08612086      41.71728440      21.57787422       0.00000905      -0.00000164      -0.00001416
Ga      34.52462276      43.15577674      20.13939312      -0.00001858       0.00000198       0.00000492
As      35.96317378      44.59433732      21.57787422       0.00001732      -0.00000270      -0.00001490
Ga      37.40167568      46.03282966      20.13939312      -0.00001678       0.00000158       0.00000520
As      38.84022670      47.47139024      21.57787422       0.00001859      -0.00000320      -0.00001559
Ga       8.63114648      14.38524754      23.01644604       0.00002049       0.00000481       0.00001363
As      10.06969750      15.82380812      24.45492714      -0.00001057       0.00000418      -0.00000916
Ga      11.50819940      17.26230046      23.01644604      -0.00000378      -0.00000415       0.00001685
As      12.94675042      18.70086104      24.45492714       0.00000001      -0.00000247      -0.00000484
Ga      14.38525232      20.13935338      23.01644604       0.00000138       0.00000300       0.00001562
As      15.82380334      21.57791396      24.45492714       0.00000055       0.00000945      -0.00000434
Ga      17.26230524      23.01640630      23.01644604       0.00001207      -0.00000948       0.00001609
As      18.70085626      24.45496688      24.45492714      -0.00001083      -0.00000315      -0.00000398
Ga      20.13935816      25.89345922      23.01644604      -0.00000053       0.00000280       0.00001527
As      21.57790918      27.33201980      24.45492714       0.00000039      -0.00000298      -0.00000374
Ga      23.01641108      28.77051214      23.01644604       0.00000068       0.00000418       0.00001488
As      24.45496210      30.20907272      24.45492714      -0.00000125       0.00000726      -0.00000369
Ga      25.89346400      31.64756506      23.01644604       0.00000365      -0.00001982       0.00001640
As      27.33201502      33.08612564      24.45492714       0.00000847       0.00000641      -0.00000542
Ga      28.77051692      34.52461798      23.01644604      -0.00001002       0.00000663       0.00001513
As      30.20906794      35.96317856      24.45492714      -0.00000120       0.00001819      -0.00000382
Ga      31.64756984      37.40167090      23.01644604       0.00000322      -0.00001988       0.00001502
As      33.08612086      38.84023148      24.45492714       0.00000857      -0.00000383      -0.00000490
Ga      34.52462276      40.27872382      23.01644604      -0.00001957       0.00000294       0.00001615
As      35.96317378      41.71728440      24.45492714       0.00001643      -0.00000111      -0.00000506
Ga      37.40167568      43.15577674      23.01644604      -0.00001781       0.00000316       0.00001636
As      38.84022670      44.59433732      24.45492714       0.00001859      -0.00000178      -0.00000535
Ga      40.27872860      46.03282966      23.01644604       0.00000103       0.00000256       0.00001585
As      41.71727962      47.47139024      24.45492714      -0.00002249      -0.00000337      -0.00000398
Ga      11.50819940      14.38524754      25.89349896       0.00002053       0.00000233      -0.00000665
As      12.94675042      15.82380812      27.33198006      -0.00000527      -0.00000183       0.00000598
Ga      14.38525232      17.26230046      25.89349896      -0.00000127      -0.00000347      -0.00000439
As      15.82380334      18.70086104      27.33198006       0.00000069      -0.00000290       0.00000360
Ga      17.26230524      20.13935338      25.89349896       0.00001190       0.00000377      -0.00000657
As      18.70085626      21.57791396      27.33198006      -0.00001128       0.00000973       0.00000530
Ga      20.13935816      23.01640630      25.89349896      -0.00000108      -0.00000894      -0.00000625
As      21.57790918      24.45496688      27.33198006      -0.00000058      -0.00000459       0.00000460
Ga      23.01641108      25.89345922      25.89349896       0.00000143       0.00000408      -0.00000658
As      24.45496210      27.33201980      27.33198006      -0.00000208      -0.00000372       0.00000433
Ga      25.89346400      28.77051214      25.89349896       0.00000356       0.00000532      -0.00000663
As      27.33201502      30.20907272      27.33198006       0.00000764       0.00000765       0.00000362
Ga      28.77051692      31.64756506      25.89349896      -0.00000852      -0.00002060      -0.00000578
As      30.20906794      33.08612564      27.33198006      -0.00000254       0.00000574       0.00000430
Ga      31.64756984      34.52461798      25.89349896       0.00000293       0.00000771      -0.00000628
As      33.08612086      35.96317856      27.33198006       0.00000893       0.00001854       0.00000348
Ga      34.52462276      37.40167090      25.89349896      -0.00001799      -0.00002007      -0.00000554
As      35.96317378      38.84023148      27.33198006       0.00001571      -0.00000358       0.00000392
Ga      37.40167568      40.27872382      25.89349896      -0.00001628       0.00000195      -0.00000630
As      38.84022670      41.71728440      27.33198006       0.00001765      -0.00000195       0.00000373
Ga      40.27872860      43.15577674      25.89349896       0.00000209       0.00000216      -0.00000628
As      41.71727962      44.59433732      27.33198006      -0.00002240      -0.00000162       0.00000371
Ga      43.15578152      46.03282966      25.89349896       0.00002013       0.00000155      -0.00000602
As      44.59433254      47.47139024      27.33198006      -0.00001926      -0.00000175       0.00000385
Ga      14.38525232      14.38524754      28.77055188      -0.00001960       0.00000171      -0.00000379
As      15.82380334      15.82380812      30.20903298       0.00001363      -0.00000326       0.00000642
Ga      17.26230524      17.26230046      28.77055188       0.00001172      -0.00000113      -0.00000564
As      18.70085626      18.70086104      30.20903298      -0.00001052      -0.00000325       0.00000561
Ga      20.13935816      20.13935338      28.77055188      -0.00000122       0.00000479      -0.00000479
As      21.57790918      21.57791396      30.20903298      -0.00000028       0.00000750       0.00000500
Ga      23.01641108      23.01640630      28.77055188       0.00000146      -0.00000788      -0.00000474
As      24.45496210      24.45496688      30.20903298      -0.00000217      -0.00000459       0.00000544
Ga      25.89346400      25.89345922      28.77055188       0.00000297       0.00000341      -0.00000486
As      27.33201502      27.33201980      30.20903298       0.00000857      -0.00000190       0.00000450
Ga      28.77051692      28.77051214      28.77055188      -0.00000935       0.00000430      -0.00000368
As      30.20906794      30.20907272      30.20903298      -0.00000212       0.00000602       0.00000536
Ga      31.64756984      31.64756506      28.77055188       0.00000330      -0.00001923      -0.00000459
As      33.08612086      33.08612564      30.20903298       0.00000797       0.00000614       0.00000503
Ga      34.52462276      34.52461798      28.77055188      -0.00001816       0.00000635      -0.00000441
As      35.96317378      35.96317856      30.20903298       0.00001635       0.00001888       0.00000416
Ga      37.40167568      37.40167090      28.77055188      -0.00001638      -0.00002010      -0.00000416
As      38.84022670      38.84023148      30.20903298       0.00001763      -0.00000348       0.00000510
Ga      40.27872860      40.27872382      28.77055188       0.00000231       0.00000217      -0.00000402
As      41.71727962      41.71728440      30.20903298      -0.00002210      -0.00000139       0.00000467
Ga      43.15578152      43.15577674      28.77055188       0.00002023       0.00000160      -0.00000423
As      44.59433254      44.59433732      30.20903298      -0.00001940      -0.00000172       0.00000470
Ga      46.03283444      46.03282966      28.77055188       0.00002299       0.00000125      -0.00000464
As      47.47138546      47.47139024      30.20903298      -0.00000194      -0.00000191       0.00000469
Ga      17.26230524      14.38524754      31.64760480       0.00000174       0.00000236       0.00000759
As      18.70085626      15.82380812      33.08608590      -0.00001350       0.00000423      -0.00000969
Ga      20.13935816      17.26230046      31.64760480      -0.00000103      -0.00000174       0.00000574
As      21.57790918      18.70086104      33.08608590       0.00000058      -0.00000315      -0.00000437
Ga      23.01641108      20.13935338      31.64760480       0.00000075       0.00000452       0.00000575
As      24.45496210      21.57791396      33.08608590      -0.00000180       0.00000833      -0.00000431
Ga      25.89346400      23.01640630      31.64760480       0.00000264      -0.00000880       0.00000623
As      27.33201502      24.45496688      33.08608590       0.00000912      -0.00000244      -0.00000645
Ga      28.77051692      25.89345922      31.64760480      -0.00000978       0.00000227       0.00000713
As      30.20906794      27.33201980      33.08608590      -0.00000209      -0.00000243      -0.00000468
Ga      31.64756984      28.77051214      31.64760480       0.00000218       0.00000437       0.00000606
As      33.08612086      30.20907272      33.08608590       0.00000750       0.00000790      -0.00000517
Ga      34.52462276      31.64756506      31.64760480      -0.00001811      -0.00001960       0.00000673
As      35.96317378      33.08612564      33.08608590       0.00001649       0.00000721      -0.00000610
Ga      37.40167568      34.52461798      31.64760480      -0.00001702       0.00000635       0.00000765
As      38.84022670      35.96317856      33.08608590       0.00001802       0.00001917      -0.00000686
Ga      40.27872860      37.40167090      31.64760480       0.00000198      -0.00002023       0.00000759
As      41.71727962      38.84023148      33.08608590      -0.00002269      -0.00000369      -0.00000528
Ga      43.15578152      40.27872382      31.64760480       0.00002158       0.00000224       0.00000622
As      44.59433254      41.71728440      33.08608590      -0.00002125      -0.00000147      -0.00000473
Ga      46.03283444      43.15577674      31.64760480       0.00002440       0.00000256       0.00000583
As      47.47138546      44.59433732      33.08608590      -0.00000135      -0.00000142      -0.00000604
Ga      48.90988736      46.03282966      31.64760480      -0.00002001       0.00000113       0.00000656
As      50.34843838      47.47139024      33.08608590       0.00001697      -0.00000184      -0.00000653
Ga      20.13935816      14.38524754      34.52465772       0.00000906      -0.00000347      -0.00000149
As      21.57790918      15.82380812      35.96313882      -0.00001329       0.00000243       0.00000281
Ga      23.01641108      17.26230046      34.52465772       0.00000152      -0.00000089      -0.00000668
As      24.45496210      18.70086104      35.96313882      -0.00000241      -0.00000430       0.00000549
Ga      25.89346400      20.13935338      34.52465772       0.00000373       0.00000498      -0.00000706
As      27.33201502      21.57791396      35.96313882       0.00000744       0.00000900       0.00000515
Ga      28.77051692      23.01640630      34.52465772      -0.00000839      -0.00000948      -0.00000638
As      30.20906794      24.45496688      35.96313882      -0.00000253      -0.00000429       0.00000571
Ga      31.64756984      25.89345922      34.52465772       0.00000285       0.00000349      -0.00000659
As      33.08612086      27.33201980      35.96313882       0.00000800      -0.00000202       0.00000436
Ga      34.52462276      28.77051214      34.52465772      -0.00001747       0.00000376      -0.00000584
As      35.96317378      30.20907272      35.96313882       0.00001677       0.00000705       0.00000357
Ga      37.40167568      31.64756506      34.52465772      -0.00001783      -0.00002058      -0.00000578
As      38.84022670      33.08612564      35.96313882       0.00001851       0.00000779       0.00000499
Ga      40.27872860      34.52461798      34.52465772       0.00000188       0.00000597      -0.00000562
As      41.71727962      35.96317856      35.96313882      -0.00002180       0.00001814       0.00000480
Ga      43.15578152      37.40167090      34.52465772       0.00002041      -0.00002001      -0.00000552
As      44.59433254      38.84023148      35.96313882      -0.00002007      -0.00000359       0.00000480
Ga      46.03283444      40.27872382      34.52465772       0.00002419       0.00000174      -0.00000606
As      47.47138546      41.71728440      35.96313882      -0.00000195      -0.00000134       0.00000477
Ga      48.90988736      43.15577674      34.52465772      -0.00001971       0.00000196      -0.00000592
As      50.34843838      44.59433732      35.96313882       0.00001646      -0.00000196       0.00000480
Ga      51.78694028      46.03282966      34.52465772      -0.00001577       0.00000132      -0.00000590
As      53.22549130      47.47139024      35.96313882       0.00001599      -0.00000131       0.00000413
Ga      23.01641108      14.38524754      37.40171064       0.00000944      -0.00000224      -0.00000056
As      24.45496210      15.82380812      38.84019174      -0.00001489       0.00000126       0.00000248
Ga      25.89346400      17.26230046      37.40171064       0.00000358      -0.00000075      -0.00000515
As      27.33201502      18.70086104      38.84019174       0.00000743      -0.00000281       0.00000343
Ga      28.77051692      20.13935338      37.40171064      -0.00000845       0.00000386      -0.00000448
As      30.20906794      21.57791396      38.84019174      -0.00000273       0.00000810       0.00000385
Ga      31.64756984      23.01640630      37.40171064       0.00000323      -0.00000827      -0.00000494
As      33.08612086      24.45496688      38.84019174       0.00000754      -0.00000324       0.00000330
Ga      34.52462276      25.89345922      37.40171064      -0.00001782       0.00000230      -0.00000423
As      35.96317378      27.33201980      38.84019174       0.00001601      -0.00000179       0.00000331
Ga      37.40167568      28.77051214      37.40171064      -0.00001665       0.00000379      -0.00000443
As      38.84022670      30.20907272      38.84019174       0.00001835       0.00000663       0.00000302
Ga      40.27872860      31.64756506      37.40171064       0.00000290      -0.00002031      -0.00000469
As      41.71727962      33.08612564      38.84019174      -0.00002280       0.00000717       0.00000264
Ga      43.15578152      34.52461798      37.40171064       0.00002049       0.00000567      -0.00000444
As      44.59433254      35.96317856      38.84019174      -0.00001998       0.00001832       0.00000357
Ga      46.03283444      37.40167090      37.40171064       0.00002325      -0.00001960      -0.00000400
As      47.47138546      38.84023148      38.84019174      -0.00000188      -0.00000350       0.00000381
Ga      48.90988736      40.27872382      37.40171064      -0.00001936       0.00000260      -0.00000441
As      50.34843838      41.71728440      38.84019174       0.00001632      -0.00000144       0.00000337
Ga      51.78694028      43.15577674      37.40171064      -0.00001637       0.00000194      -0.00000449
As      53.22549130      44.59433732      38.84019174       0.00001544      -0.00000221       0.00000369
Ga      54.66399320      46.03282966      37.40171064      -0.00001597       0.00000133      -0.00000441
As      56.10254422      47.47139024      38.84019174       0.00001657      -0.00000201       0.00000296
Ga      25.89346400      14.38524754      40.27876356       0.00002022       0.00000346      -0.00000575
As      27.33201502      15.82380812      41.71724466      -0.00000759       0.00000545      -0.00000034
Ga      28.77051692      17.26230046      40.27876356      -0.00000744      -0.00000233      -0.00000294
As      30.20906794      18.70086104      41.71724466      -0.00000234      -0.00000356       0.00000597
Ga      31.64756984      20.13935338      40.27876356       0.00000299       0.00000450      -0.00000414
As      33.08612086      21.57791396      41.71724466       0.00000738       0.00000981       0.00000486
Ga      34.52462276      23.01640630      40.27876356      -0.00001805      -0.00000915      -0.00000317
As      35.96317378      24.45496688      41.71724466       0.00001591      -0.00000247       0.00000530
Ga      37.40167568      25.89345922      40.27876356      -0.00001670       0.00000222      -0.00000385
As      38.84022670      27.33201980      41.71724466       0.00001775      -0.00000163       0.00000559
Ga      40.27872860      28.77051214      40.27876356       0.00000178       0.00000336      -0.00000398
As      41.71727962      30.20907272      41.71724466      -0.00002290       0.00000779       0.00000682
Ga      43.15578152      31.64756506      40.27876356       0.00002248      -0.00001992      -0.00000409
As      44.59433254      33.08612564      41.71724466      -0.00002035       0.00000703       0.00000469
Ga      46.03283444      34.52461798      40.27876356       0.00002320       0.00000557      -0.00000368
As      47.47138546      35.96317856      41.71724466      -0.00000194       0.00001904       0.00000554
Ga      48.90988736      37.40167090      40.27876356      -0.00001876      -0.00001999      -0.00000453
As      50.34843838      38.84023148      41.71724466       0.00001660      -0.00000402       0.00000558
Ga      51.78694028      40.27872382      40.27876356      -0.00001706       0.00000233      -0.00000401
As      53.22549130      41.71728440      41.71724466       0.00001610      -0.00000182       0.00000599
Ga      54.66399320      43.15577674      40.27876356      -0.00001640       0.00000251      -0.00000406
As      56.10254422      44.59433732      41.71724466       0.00001762      -0.00000214       0.00000573
Ga      57.54104612      46.03282966      40.27876356       0.00000236       0.00000121      -0.00000413
As      58.97959714      47.47139024      41.71724466      -0.00002160      -0.00000188       0.00000569
Ga      28.77051692      14.38524754      43.15581648       0.00001812       0.00000338       0.00001598
As      30.20906794      15.82380812      44.59429758      -0.00001314       0.00000335      -0.00001943
Ga      31.64756984      17.26230046      43.15581648       0.00000215      -0.00000347       0.00001780
As      33.08612086      18.70086104      44.59429758       0.00000887      -0.00000163      -0.00001742
Ga      34.52462276      20.13935338      43.15581648      -0.00001800       0.00000226       0.00001752
As      35.96317378      21.57791396      44.59429758       0.00001653       0.00000823      -0.00001609
Ga      37.40167568      23.01640630      43.15581648      -0.00001705      -0.00000912       0.00001743
As      38.84022670      24.45496688      44.59429758       0.00001889      -0.00000256      -0.00001618
Ga      40.27872860      25.89345922      43.15581648       0.00000183       0.00000162       0.00001725
As      41.71727962      27.33201980      44.59429758      -0.00002127      -0.00000196      -0.00001630
Ga      43.15578152      28.77051214      43.15581648       0.00002098       0.00000351       0.00001719
As      44.59433254      30.20907272      44.59429758      -0.00001960       0.00000859      -0.00001597
Ga      46.03283444      31.64756506      43.15581648       0.00002399      -0.00002125       0.00001723
As      47.47138546      33.08612564      44.59429758      -0.00000140       0.00000577      -0.00001598
Ga      48.90988736      34.52461798      43.15581648      -0.00001899       0.00000599       0.00001659
As      50.34843838      35.96317856      44.59429758       0.00001751       0.00001755      -0.00001518
Ga      51.78694028      37.40167090      43.15581648      -0.00001659      -0.00001966       0.00001600
As      53.22549130      38.84023148      44.59429758       0.00001625      -0.00000413      -0.00001577
Ga      54.66399320      40.27872382      43.15581648      -0.00001664       0.00000200       0.00001664
As      56.10254422      41.71728440      44.59429758       0.00001828      -0.00000150      -0.00001621
Ga      57.54104612      43.15577674      43.15581648       0.00000167       0.00000174       0.00001667
As      58.97959714      44.59433732      44.59429758      -0.00002156      -0.00000204      -0.00001575
Ga      60.41809904      46.03282966      43.15581648       0.00001961       0.00000107       0.00001662
As      61.85665006      47.47139024      44.59429758      -0.00001813      -0.00000277      -0.00001612
Ga      31.64756984      14.38524754      46.03286940       0.00001995       0.00000181      -0.00000591
As      33.08612086      15.82380812      47.47135050       0.00000077       0.00000102       0.00000374
Ga      34.52462276      17.26230046      46.03286940      -0.00001907      -0.00000386      -0.00000452
As      35.96317378      18.70086104      47.47135050       0.00001749      -0.00000154       0.00000469
Ga      37.40167568      20.13935338      46.03286940      -0.00001670       0.00000307      -0.00000538
As      38.84022670      21.57791396      47.47135050       0.00001771       0.00000865       0.00000412
Ga      40.27872860      23.01640630      46.03286940       0.00000234      -0.00001005      -0.00000573
As      41.71727962      24.45496688      47.47135050      -0.00002142      -0.00000166       0.00000355
Ga      43.15578152      25.89345922      46.03286940       0.00002001       0.00000154      -0.00000487
As      44.59433254      27.33201980      47.47135050      -0.00001866      -0.00000052       0.00000409
Ga      46.03283444      28.77051214      46.03286940       0.00002052       0.00000371      -0.00000587
As      47.47138546      30.20907272      47.47135050      -0.00001064       0.00001403      -0.00000053
Ga      48.90988736      31.64756506      46.03286940      -0.00002018      -0.00001952      -0.00000610
As      50.34843838      33.08612564      47.47135050       0.00000901       0.00001292      -0.00000075
Ga      51.78694028      34.52461798      46.03286940      -0.00001529       0.00000733      -0.00000593
As      53.22549130      35.96317856      47.47135050       0.00001598       0.00001854       0.00000523
Ga      54.66399320      37.40167090      46.03286940      -0.00001623      -0.00002002      -0.00000595
As      56.10254422      38.84023148      47.47135050       0.00001671      -0.00000379       0.00000463
Ga      57.54104612      40.27872382      46.03286940       0.00000233       0.00000241      -0.00000576
As      58.97959714      41.71728440      47.47135050      -0.00002219      -0.00000073       0.00000384
Ga      60.41809904      43.15577674      46.03286940       0.00002004       0.00000150      -0.00000561
As      61.85665006      44.59433732      47.47135050      -0.00001892       0.00000025       0.00000402
Ga      63.29515196      46.03282966      46.03286940       0.00001938       0.00000079      -0.00000548
As      64.73370298      47.47139024      47.47135050      -0.00001852      -0.00000103       0.00000452
Ga      -0.00001228      17.26230046      17.26234020      -0.00001921       0.00000324      -0.00000572
As       1.43853874      18.70086104      18.70082130       0.00001356      -0.00000509       0.00000633
Ga       2.87704064      20.13935338      17.26234020      -0.00000354       0.00000378      -0.00000672
As       4.31559166      21.57791396      18.70082130      -0.00000189       0.00000959       0.00000584
Ga       5.75409356      23.01640630      17.26234020      -0.00000244      -0.00000748      -0.00000581
As       7.19264458      24.45496688      18.70082130      -0.00000169      -0.00000161       0.00000243
Ga       8.63114648      25.89345922      17.26234020       0.00000682      -0.00000214       0.00000001
As      10.06969750      27.33201980      18.70082130       0.00000187      -0.00000317       0.00000461
Ga      11.50819940      28.77051214      17.26234020       0.00000404       0.00000099      -0.00000084
As      12.94675042      30.20907272      18.70082130      -0.00000142       0.00000507       0.00000669
Ga      14.38525232      31.64756506      17.26234020       0.00000366      -0.00002164      -0.00000307
As      15.82380334      33.08612564      18.70082130       0.00000001       0.00000470       0.00000620
Ga      17.26230524      34.52461798      17.26234020       0.00001556       0.00000353      -0.00000257
As      18.70085626      35.96317856      18.70082130      -0.00000973       0.00001703       0.00000687
Ga      20.13935816      37.40167090      17.26234020      -0.00000346      -0.00001812      -0.00000585
As      21.57790918      38.84023148      18.70082130      -0.00000096      -0.00000433       0.00000450
Ga      23.01641108      40.27872382      17.26234020      -0.00000192       0.00000428      -0.00000623
As      24.45496210      41.71728440      18.70082130      -0.00000254      -0.00000138       0.00000358
Ga      25.89346400      43.15577674      17.26234020       0.00000930      -0.00000057      -0.00000124
As      27.33201502      44.59433732      18.70082130       0.00000808      -0.00000177       0.00000364
Ga      28.77051692      46.03282966      17.26234020       0.00000069      -0.00000342       0.00000149
As      30.20906794      47.47139024      18.70082130      -0.00000254      -0.00000515       0.00000618
Ga      31.64756984      48.90988258      17.26234020       0.00000792       0.00000062      -0.00000347
As      33.08612086      50.34844316      18.70082130       0.00000789      -0.00000275       0.00000552
Ga       2.87704064      17.26230046      20.13939312       0.00000107       0.00000271       0.00000516
As       4.31559166      18.70086104      21.57787422      -0.00001331       0.00000200      -0.00001920
Ga       5.75409356      20.13935338      20.13939312      -0.00000009       0.00000164       0.00000539
As       7.19264458      21.57791396      21.57787422      -0.00000070       0.00000831      -0.00001374
Ga       8.63114648      23.01640630      20.13939312       0.00000190      -0.00000919       0.00000506
As      10.06969750      24.45496688      21.57787422       0.00000212      -0.00000266      -0.00001471
Ga      11.50819940      25.89345922      20.13939312      -0.00000370       0.00000308       0.00000484
As      12.94675042      27.33201980      21.57787422      -0.00000202      -0.00000173      -0.00001431
Ga      14.38525232      28.77051214      20.13939312       0.00000055       0.00000529       0.00000410
As      15.82380334      30.20907272      21.57787422       0.00000046       0.00000658      -0.00001447
Ga      17.26230524      31.64756506      20.13939312       0.00001151      -0.00002012       0.00000368
As      18.70085626      33.08612564      21.57787422      -0.00001081       0.00000687      -0.00001477
Ga      20.13935816      34.52461798      20.13939312      -0.00000186       0.00000738       0.00000422
As      21.57790918      35.96317856      21.57787422      -0.00000018       0.00001859      -0.00001467
Ga      23.01641108      37.40167090      20.13939312       0.00000040      -0.00002022       0.00000544
As      24.45496210      38.84023148      21.57787422      -0.00000253      -0.00000351      -0.00001520
Ga      25.89346400      40.27872382      20.13939312       0.00000341       0.00000179       0.00000570
As      27.33201502      41.71728440      21.57787422       0.00000884      -0.00000068      -0.00001523
Ga      28.77051692      43.15577674      20.13939312      -0.00000891       0.00000222       0.00000565
As      30.20906794      44.59433732      21.57787422      -0.00000346      -0.00000227      -0.00001466
Ga      31.64756984      46.03282966      20.13939312       0.00000245       0.00000315       0.00000402
As      33.08612086      47.47139024      21.57787422       0.00000892      -0.00000233      -0.00001389
Ga      34.52462276      48.90988258      20.13939312      -0.00001844       0.00000261       0.00000430
As      35.96317378      50.34844316      21.57787422       0.00001807      -0.00000295      -0.00001445
Ga       5.75409356      17.26230046      23.01644604       0.00001005      -0.00000254       0.00002063
As       7.19264458      18.70086104      24.45492714      -0.00001428       0.00000047      -0.00000682
Ga       8.63114648      20.13935338      23.01644604       0.00000075       0.00000204       0.00001560
As      10.06969750      21.57791396      24.45492714       0.00000253       0.00000859      -0.00000306
Ga      11.50819940      23.01640630      23.01644604      -0.00000332      -0.00000866       0.00001537
As      12.94675042      24.45496688      24.45492714      -0.00000091      -0.00000341      -0.00000443
Ga      14.38525232      25.89345922      23.01644604       0.00000160       0.00000212       0.00001562
As      15.82380334      27.33201980      24.45492714       0.00000009      -0.00000258      -0.00000359
Ga      17.26230524      28.77051214      23.01644604       0.00001208       0.00000472       0.00001527
As      18.70085626      30.20907272      24.45492714      -0.00001150       0.00000771      -0.00000274
Ga      20.13935816      31.64756506      23.01644604      -0.00000070      -0.00001987       0.00001619
As      21.57790918      33.08612564      24.45492714      -0.00000063       0.00000596      -0.00000496
Ga      23.01641108      34.52461798      23.01644604       0.00000126       0.00000622       0.00001570
As      24.45496210      35.96317856      24.45492714      -0.00000102       0.00001781      -0.00000379
Ga      25.89346400      37.40167090      23.01644604       0.00000320      -0.00002007       0.00001576
As      27.33201502      38.84023148      24.45492714       0.00000816      -0.00000313      -0.00000540
Ga      28.77051692      40.27872382      23.01644604      -0.00000989       0.00000174       0.00001543
As      30.20906794      41.71728440      24.45492714      -0.00000192      -0.00000213      -0.00000391
Ga      31.64756984      43.15577674      23.01644604       0.00000297       0.00000205       0.00001532
As      33.08612086      44.59433732      24.45492714       0.00000828      -0.00000148      -0.00000450
Ga      34.52462276      46.03282966      23.01644604      -0.00001938       0.00000223       0.00001571
As      35.96317378      47.47139024      24.45492714       0.00001582      -0.00000143      -0.00000479
Ga      37.40167568      48.90988258      23.01644604      -0.00001744       0.00000312       0.00001536
As      38.84022670      50.34844316      24.45492714       0.00001720      -0.00000089      -0.00000462
Ga       8.63114648      17.26230046      25.89349896       0.00001906       0.00000328      -0.00000844
As      10.06969750      18.70086104      27.33198006      -0.00001180       0.00000174       0.00000106
Ga      11.50819940      20.13935338      25.89349896      -0.00000264       0.00000300      -0.00000547
As      12.94675042      21.57791396      27.33198006      -0.00000124       0.00000836       0.00000346
Ga      14.38525232      23.01640630      25.89349896       0.00000141      -0.00000844      -0.00000628
As      15.82380334      24.45496688      27.33198006      -0.00000015      -0.00000394       0.00000431
Ga      17.26230524      25.89345922      25.89349896       0.00001209       0.00000314      -0.00000687
As      18.70085626      27.33201980      27.33198006      -0.00001102      -0.00000286       0.00000482
Ga      20.13935816      28.77051214      25.89349896      -0.00000057       0.00000576      -0.00000644
As      21.57790918      30.20907272      27.33198006      -0.00000052       0.00000637       0.00000451
Ga      23.01641108      31.64756506      25.89349896       0.00000094      -0.00001933      -0.00000602
As      24.45496210      33.08612564      27.33198006      -0.00000197       0.00000547       0.00000404
Ga      25.89346400      34.52461798      25.89349896       0.00000333       0.00000819      -0.00000603
As      27.33201502      35.96317856      27.33198006       0.00000842       0.00001842       0.00000301
Ga      28.77051692      37.40167090      25.89349896      -0.00000877      -0.00002044      -0.00000524
As      30.20906794      38.84023148      27.33198006      -0.00000242      -0.00000540       0.00000476
Ga      31.64756984      40.27872382      25.89349896       0.00000313       0.00000360      -0.00000651
As      33.08612086      41.71728440      27.33198006       0.00000773      -0.00000196       0.00000367
Ga      34.52462276      43.15577674      25.89349896      -0.00001796       0.00000248      -0.00000628
As      35.96317378      44.59433732      27.33198006       0.00001601      -0.00000270       0.00000402
Ga      37.40167568      46.03282966      25.89349896      -0.00001632       0.00000177      -0.00000588
As      38.84022670      47.47139024      27.33198006       0.00001786      -0.00000209       0.00000360
Ga      40.27872860      48.90988258      25.89349896       0.00000252       0.00000187      -0.00000636
As      41.71727962      50.34844316      27.33198006      -0.00002184      -0.00000121       0.00000426
Ga      11.50819940      17.26230046      28.77055188       0.00002054       0.00000182      -0.00000506
As      12.94675042      18.70086104      30.20903298      -0.00000563      -0.00000395       0.00000705
Ga      14.38525232      20.13935338      28.77055188      -0.00000151       0.00000180      -0.00000267
As      15.82380334      21.57791396      30.20903298       0.00000078       0.00000888       0.00000412
Ga      17.26230524      23.01640630      28.77055188       0.00001197      -0.00000996      -0.00000482
As      18.70085626      24.45496688      30.20903298      -0.00001102      -0.00000390       0.00000570
Ga      20.13935816      25.89345922      28.77055188      -0.00000124       0.00000380      -0.00000477
As      21.57790918      27.33201980      30.20903298      -0.00000054      -0.00000360       0.00000505
Ga      23.01641108      28.77051214      28.77055188       0.00000143       0.00000568      -0.00000456
As      24.45496210      30.20907272      30.20903298      -0.00000129       0.00000648       0.00000501
Ga      25.89346400      31.64756506      28.77055188       0.00000352      -0.00001965      -0.00000418
As      27.33201502      33.08612564      30.20903298       0.00000803       0.00000668       0.00000482
Ga      28.77051692      34.52461798      28.77055188      -0.00000906       0.00000696      -0.00000354
As      30.20906794      35.96317856      30.20903298      -0.00000202       0.00001694       0.00000527
Ga      31.64756984      37.40167090      28.77055188       0.00000252      -0.00001906      -0.00000489
As      33.08612086      38.84023148      30.20903298       0.00000818      -0.00000360       0.00000473
Ga      34.52462276      40.27872382      28.77055188      -0.00001777       0.00000230      -0.00000462
As      35.96317378      41.71728440      30.20903298       0.00001586      -0.00000190       0.00000473
Ga      37.40167568      43.15577674      28.77055188      -0.00001636       0.00000252      -0.00000451
As      38.84022670      44.59433732      30.20903298       0.00001748      -0.00000213       0.00000483
Ga      40.27872860      46.03282966      28.77055188       0.00000213       0.00000217      -0.00000409
As      41.71727962      47.47139024      30.20903298      -0.00002199      -0.00000167       0.00000456
Ga      43.15578152      48.90988258      28.77055188       0.00001998       0.00000117      -0.00000473
As      44.59433254      50.34844316      30.20903298      -0.00001932      -0.00000126       0.00000587
Ga      14.38525232      17.26230046      31.64760480      -0.00001944       0.00000130       0.00000763
As      15.82380334      18.70086104      33.08608590       0.00001340      -0.00000435      -0.00000410
Ga      17.26230524      20.13935338      31.64760480       0.00001111       0.00000317       0.00000733
As      18.70085626      21.57791396      33.08608590      -0.00001119       0.00000938      -0.00000438
Ga      20.13935816      23.01640630      31.64760480      -0.00000180      -0.00000865       0.00000652
As      21.57790918      24.45496688      33.08608590      -0.00000006      -0.00000375      -0.00000486
Ga      23.01641108      25.89345922      31.64760480       0.00000083       0.00000317       0.00000646
As      24.45496210      27.33201980      33.08608590      -0.00000120      -0.00000271      -0.00000483
Ga      25.89346400      28.77051214      31.64760480       0.00000231       0.00000464       0.00000620
As      27.33201502      30.20907272      33.08608590       0.00000809       0.00000770      -0.00000548
Ga      28.77051692      31.64756506      31.64760480      -0.00000862      -0.00001901       0.00000677
As      30.20906794      33.08612564      33.08608590      -0.00000238       0.00000631      -0.00000583
Ga      31.64756984      34.52461798      31.64760480       0.00000229       0.00000693       0.00000589
As      33.08612086      35.96317856      33.08608590       0.00000931       0.00001922      -0.00000617
Ga      34.52462276      37.40167090      31.64760480      -0.00001852      -0.00002109       0.00000710
As      35.96317378      38.84023148      33.08608590       0.00001610      -0.00000350      -0.00000619
Ga      37.40167568      40.27872382      31.64760480      -0.00001628       0.00000173       0.00000707
As      38.84022670      41.71728440      33.08608590       0.00001834      -0.00000103      -0.00000539
Ga      40.27872860      43.15577674      31.64760480       0.00000189       0.00000198       0.00000684
As      41.71727962      44.59433732      33.08608590      -0.00002300      -0.00000234      -0.00000473
Ga      43.15578152      46.03282966      31.64760480       0.00002073       0.00000240       0.00000592
As      44.59433254      47.47139024      33.08608590      -0.00002077      -0.00000155      -0.00000488
Ga      46.03283444      48.90988258      31.64760480       0.00002340       0.00000201       0.00000584
As      47.47138546      50.34844316      33.08608590      -0.00000234      -0.00000041      -0.00000614
Ga      17.26230524      17.26230046      34.52465772       0.00000204       0.00000105      -0.00000586
As      18.70085626      18.70086104      35.96313882      -0.00001390       0.00000193       0.00000107
Ga      20.13935816      20.13935338      34.52465772      -0.00000029       0.00000414      -0.00000694
As      21.57790918      21.57791396      35.96313882      -0.00000102       0.00000732       0.00000637
Ga      23.01641108      23.01640630      34.52465772       0.00000158      -0.00000769      -0.00000734
As      24.45496210      24.45496688      35.96313882      -0.00000215      -0.00000469       0.00000591
Ga      25.89346400      25.89345922      34.52465772       0.00000325       0.00000416      -0.00000668
As      27.33201502      27.33201980      35.96313882       0.00000786      -0.00000204       0.00000388
Ga      28.77051692      28.77051214      34.52465772      -0.00000878       0.00000418      -0.00000569
As      30.20906794      30.20907272      35.96313882      -0.00000246       0.00000611       0.00000521
Ga      31.64756984      31.64756506      34.52465772       0.00000345      -0.00001939      -0.00000550
As      33.08612086      33.08612564      35.96313882       0.00000810       0.00000671       0.00000403
Ga      34.52462276      34.52461798      34.52465772      -0.00001837       0.00000617      -0.00000593
As      35.96317378      35.96317856      35.96313882       0.00001593       0.00001868       0.00000445
Ga      37.40167568      37.40167090      34.52465772      -0.00001613      -0.00002048      -0.00000550
As      38.84022670      38.84023148      35.96313882       0.00001755      -0.00000333       0.00000459
Ga      40.27872860      40.27872382      34.52465772       0.00000225       0.00000167      -0.00000609
As      41.71727962      41.71728440      35.96313882      -0.00002217      -0.00000163       0.00000439
Ga      43.15578152      43.15577674      34.52465772       0.00002064       0.00000184      -0.00000634
As      44.59433254      44.59433732      35.96313882      -0.00002018      -0.00000093       0.00000485
Ga      46.03283444      46.03282966      34.52465772       0.00002334       0.00000105      -0.00000631
As      47.47138546      47.47139024      35.96313882      -0.00000109      -0.00000107       0.00000462
Ga      48.90988736      48.90988258      34.52465772      -0.00001964       0.00000208      -0.00000610
As      50.34843838      50.34844316      35.96313882       0.00001635      -0.00000139       0.00000500
Ga      20.13935816      17.26230046      37.40171064       0.00000915      -0.00000338       0.00000053
As      21.57790918      18.70086104      38.84019174      -0.00001343       0.00000066       0.00000142
Ga      23.01641108      20.13935338      37.40171064       0.00000119       0.00000351      -0.00000484
As      24.45496210      21.57791396      38.84019174      -0.00000209       0.00000781       0.00000464
Ga      25.89346400      23.01640630      37.40171064       0.00000368      -0.00000805      -0.00000509
As      27.33201502      24.45496688      38.84019174       0.00000765      -0.00000319       0.00000315
Ga      28.77051692      25.89345922      37.40171064      -0.00000877       0.00000224      -0.00000432
As      30.20906794      27.33201980      38.84019174      -0.00000262      -0.00000362       0.00000429
Ga      31.64756984      28.77051214      37.40171064       0.00000313       0.00000573      -0.00000543
As      33.08612086      30.20907272      38.84019174       0.00000799       0.00000737       0.00000324
Ga      34.52462276      31.64756506      37.40171064      -0.00001893      -0.00002021      -0.00000443
As      35.96317378      33.08612564      38.84019174       0.00001663       0.00000753       0.00000472
Ga      37.40167568      34.52461798      37.40171064      -0.00001636       0.00000592      -0.00000413
As      38.84022670      35.96317856      38.84019174       0.00001757       0.00001837       0.00000304
Ga      40.27872860      37.40167090      37.40171064       0.00000221      -0.00002024      -0.00000411
As      41.71727962      38.84023148      38.84019174      -0.00002215      -0.00000341       0.00000280
Ga      43.15578152      40.27872382      37.40171064       0.00002085       0.00000183      -0.00000393
As      44.59433254      41.71728440      38.84019174      -0.00002007      -0.00000036       0.00000373
Ga      46.03283444      43.15577674      37.40171064       0.00002363       0.00000101      -0.00000439
As      47.47138546      44.59433732      38.84019174      -0.00000152      -0.00000185       0.00000415
Ga      48.90988736      46.03282966      37.40171064      -0.00001948       0.00000156      -0.00000437
As      50.34843838      47.47139024      38.84019174       0.00001629      -0.00000136       0.00000375
Ga      51.78694028      48.90988258      37.40171064      -0.00001541       0.00000194      -0.00000478
As      53.22549130      50.34844316      38.84019174       0.00001550      -0.00000117       0.00000300
Ga      23.01641108      17.26230046      40.27876356       0.00000977      -0.00000242      -0.00000025
As      24.45496210      18.70086104      41.71724466      -0.00001458      -0.00000114       0.00000483
Ga      25.89346400      20.13935338      40.27876356       0.00000355       0.00000398      -0.00000496
As      27.33201502      21.57791396      41.71724466       0.00000666       0.00000852       0.00000626
Ga      28.77051692      23.01640630      40.27876356      -0.00000830      -0.00000876      -0.00000403
As      30.20906794      24.45496688      41.71724466      -0.00000219      -0.00000434       0.00000627
Ga      31.64756984      25.89345922      40.27876356       0.00000294       0.00000383      -0.00000454
As      33.08612086      27.33201980      41.71724466       0.00000731      -0.00000208       0.00000544
Ga      34.52462276      28.77051214      40.27876356      -0.00001785       0.00000392      -0.00000394
As      35.96317378      30.20907272      41.71724466       0.00001654       0.00000638       0.00000461
Ga      37.40167568      31.64756506      40.27876356      -0.00001768      -0.00002000      -0.00000418
As      38.84022670      33.08612564      41.71724466       0.00001803       0.00000707       0.00000606
Ga      40.27872860      34.52461798      40.27876356       0.00000272       0.00000629      -0.00000404
As      41.71727962      35.96317856      41.71724466      -0.00002232       0.00001857       0.00000491
Ga      43.15578152      37.40167090      40.27876356       0.00002069      -0.00002003      -0.00000373
As      44.59433254      38.84023148      41.71724466      -0.00001984      -0.00000317       0.00000514
Ga      46.03283444      40.27872382      40.27876356       0.00002304       0.00000206      -0.00000428
As      47.47138546      41.71728440      41.71724466      -0.00000168      -0.00000120       0.00000578
Ga      48.90988736      43.15577674      40.27876356      -0.00001913       0.00000221      -0.00000356
As      50.34843838      44.59433732      41.71724466       0.00001625      -0.00000234       0.00000542
Ga      51.78694028      46.03282966      40.27876356      -0.00001637       0.00000190      -0.00000401
As      53.22549130      47.47139024      41.71724466       0.00001540      -0.00000206       0.00000548
Ga      54.66399320      48.90988258      40.27876356      -0.00001553       0.00000153      -0.00000365
As      56.10254422      50.34844316      41.71724466       0.00001677      -0.00000115       0.00000547
Ga      25.89346400      17.26230046      43.15581648       0.00002012       0.00000302       0.00001589
As      27.33201502      18.70086104      44.59429758      -0.00000799       0.00000464      -0.00002144
Ga      28.77051692      20.13935338      43.15581648      -0.00000769       0.00000256       0.00001853
As      30.20906794      21.57791396      44.59429758      -0.00000261       0.00000806      -0.00001499
Ga      31.64756984      23.01640630      43.15581648       0.00000314      -0.00000852       0.00001706
As      33.08612086      24.45496688      44.59429758       0.00000775      -0.00000281      -0.00001638
Ga      34.52462276      25.89345922      43.15581648      -0.00001785       0.00000172       0.00001756
As      35.96317378      27.33201980      44.59429758       0.00001579      -0.00000161      -0.00001611
Ga      37.40167568      28.77051214      43.15581648      -0.00001671       0.00000379       0.00001748
As      38.84022670      30.20907272      44.59429758       0.00001806       0.00000670      -0.00001609
Ga      40.27872860      31.64756506      43.15581648       0.00000315      -0.00002000       0.00001699
As      41.71727962      33.08612564      44.59429758      -0.00002240       0.00000713      -0.00001688
Ga      43.15578152      34.52461798      43.15581648       0.00002063       0.00000545       0.00001702
As      44.59433254      35.96317856      44.59429758      -0.00002001       0.00001861      -0.00001570
Ga      46.03283444      37.40167090      43.15581648       0.00002304      -0.00001983       0.00001717
As      47.47138546      38.84023148      44.59429758      -0.00000186      -0.00000356      -0.00001579
Ga      48.90988736      40.27872382      43.15581648      -0.00001941       0.00000205       0.00001697
As      50.34843838      41.71728440      44.59429758       0.00001684      -0.00000190      -0.00001547
Ga      51.78694028      43.15577674      43.15581648      -0.00001661       0.00000214       0.00001708
As      53.22549130      44.59433732      44.59429758       0.00001676      -0.00000175      -0.00001595
Ga      54.66399320      46.03282966      43.15581648      -0.00001633       0.00000204       0.00001773
As      56.10254422      47.47139024      44.59429758       0.00001786      -0.00000144      -0.00001589
Ga      57.54104612      48.90988258      43.15581648       0.00000222       0.00000134       0.00001711
As      58.97959714      50.34844316      44.59429758      -0.00002238      -0.00000200      -0.00001525
Ga      28.77051692      17.26230046      46.03286940       0.00001776       0.00000224      -0.00000823
As      30.20906794      18.70086104      47.47135050      -0.00001482       0.00000116       0.00000169
Ga      31.64756984      20.13935338      46.03286940       0.00000263       0.00000236      -0.00000606
As      33.08612086      21.57791396      47.47135050       0.00000806       0.00000954       0.00000362
Ga      34.52462276      23.01640630      46.03286940      -0.00001839      -0.00000904      -0.00000626
As      35.96317378      24.45496688      47.47135050       0.00001541      -0.00000246       0.00000423
Ga      37.40167568      25.89345922      46.03286940      -0.00001660       0.00000190      -0.00000652
As      38.84022670      27.33201980      47.47135050       0.00001779      -0.00000168       0.00000446
Ga      40.27872860      28.77051214      46.03286940       0.00000198       0.00000347      -0.00000646
As      41.71727962      30.20907272      47.47135050      -0.00002271       0.00000702       0.00000580
Ga      43.15578152      31.64756506      46.03286940       0.00002170      -0.00002015      -0.00000691
As      44.59433254      33.08612564      47.47135050      -0.00002002       0.00000665       0.00000373
Ga      46.03283444      34.52461798      46.03286940       0.00002268       0.00000562      -0.00000652
As      47.47138546      35.96317856      47.47135050      -0.00000158       0.00001896       0.00000544
Ga      48.90988736      37.40167090      46.03286940      -0.00001884      -0.00001955      -0.00000705
As      50.34843838      38.84023148      47.47135050       0.00001607      -0.00000411       0.00000516
Ga      51.78694028      40.27872382      46.03286940      -0.00001602       0.00000277      -0.00000719
As      53.22549130      41.71728440      47.47135050       0.00001546      -0.00000189       0.00000441
Ga      54.66399320      43.15577674      46.03286940      -0.00001675       0.00000206      -0.00000655
As      56.10254422      44.59433732      47.47135050       0.00001815      -0.00000231       0.00000407
Ga      57.54104612      46.03282966      46.03286940       0.00000186       0.00000182      -0.00000708
As      58.97959714      47.47139024      47.47135050      -0.00002097      -0.00000139       0.00000439
Ga      60.41809904      48.90988258      46.03286940       0.00001933       0.00000127      -0.00000714
As      61.85665006      50.34844316      47.47135050      -0.00001850      -0.00000192       0.00000549
Ga      31.64756984      17.26230046      48.90992232       0.00002048       0.00000134      -0.00000432
As      33.08612086      18.70086104      50.34840342       0.00000032      -0.00000093       0.00000371
Ga      34.52462276      20.13935338      48.90992232      -0.00001970       0.00000111      -0.00000294
As      35.96317378      21.57791396      50.34840342       0.00001693       0.00000904       0.00000312
Ga      37.40167568      23.01640630      48.90992232      -0.00001681      -0.00000924      -0.00000314
As      38.84022670      24.45496688      50.34840342       0.00001672      -0.00000288       0.00000317
Ga      40.27872860      25.89345922      48.90992232       0.00000194       0.00000187      -0.00000383
As      41.71727962      27.33201980      50.34840342      -0.00002222      -0.00000073       0.00000267
Ga      43.15578152      28.77051214      48.90992232       0.00001978       0.00000289      -0.00000397
As      44.59433254      30.20907272      50.34840342      -0.00002006       0.00000846       0.00000382
Ga      46.03283444      31.64756506      48.90992232       0.00002240      -0.00002013      -0.00000434
As      47.47138546      33.08612564      50.34840342      -0.00001027       0.00001266      -0.00000206
Ga      48.90988736      34.52461798      48.90992232      -0.00001878       0.00000679      -0.00000505
As      50.34843838      35.96317856      50.34840342       0.00000740       0.00002392      -0.00000147
Ga      51.78694028      37.40167090      48.90992232      -0.00001444      -0.00001939      -0.00000520
As      53.22549130      38.84023148      50.34840342       0.00001551      -0.00000449       0.00000430
Ga      54.66399320      40.27872382      48.90992232      -0.00001626       0.00000307      -0.00000469
As      56.10254422      41.71728440      50.34840342       0.00001684      -0.00000196       0.00000311
Ga      57.54104612      43.15577674      48.90992232       0.00000234       0.00000210      -0.00000393
As      58.97959714      44.59433732      50.34840342      -0.00002198      -0.00000149       0.00000256
Ga      60.41809904      46.03282966      48.90992232       0.00001999       0.00000111      -0.00000332
As      61.85665006      47.47139024      50.34840342      -0.00001849      -0.00000033       0.00000250
Ga      63.29515196      48.90988258      48.90992232       0.00001864       0.00000059      -0.00000413
As      64.73370298      50.34844316      50.34840342      -0.00001886      -0.00000015       0.00000320
Ga      -0.00001228      20.13935338      20.13939312      -0.00002609      -0.00000909       0.00001101
As       1.43853874      21.57791396      21.57787422       0.00001436      -0.00000164      -0.00001237
Ga       2.87704064      23.01640630      20.13939312      -0.00000138      -0.00000499       0.00000193
As       4.31559166      24.45496688      21.57787422      -0.00000108      -0.00000472      -0.00001565
Ga       5.75409356      25.89345922      20.13939312      -0.00000319       0.00000441       0.00000402
As       7.19264458      27.33201980      21.57787422      -0.00000006      -0.00000020      -0.00001624
Ga       8.63114648      28.77051214      20.13939312       0.00000518      -0.00000053       0.00000952
As      10.06969750      30.20907272      21.57787422       0.00000329       0.00000739      -0.00001472
Ga      11.50819940      31.64756506      20.13939312       0.00000376      -0.00002381       0.00000944
As      12.94675042      33.08612564      21.57787422      -0.00000269       0.00000471      -0.00001351
Ga      14.38525232      34.52461798      20.13939312       0.00000321       0.00000517       0.00000675
As      15.82380334      35.96317856      21.57787422       0.00000096       0.00001676      -0.00001268
Ga      17.26230524      37.40167090      20.13939312       0.00001454      -0.00002275       0.00000843
As      18.70085626      38.84023148      21.57787422      -0.00000985      -0.00000513      -0.00001438
Ga      20.13935816      40.27872382      20.13939312      -0.00000367       0.00000414       0.00000378
As      21.57790918      41.71728440      21.57787422      -0.00000094      -0.00000089      -0.00001543
Ga      23.01641108      43.15577674      20.13939312      -0.00000257       0.00000439       0.00000406
As      24.45496210      44.59433732      21.57787422      -0.00000288      -0.00000011      -0.00001640
Ga      25.89346400      46.03282966      20.13939312       0.00000814      -0.00000148       0.00000890
As      27.33201502      47.47139024      21.57787422       0.00000934      -0.00000229      -0.00001443
Ga      28.77051692      48.90988258      20.13939312       0.00000007      -0.00000422       0.00001123
As      30.20906794      50.34844316      21.57787422      -0.00000263      -0.00000407      -0.00001273
Ga      31.64756984      51.78693550      20.13939312       0.00000676       0.00000325       0.00000703
As      33.08612086      53.22549608      21.57787422       0.00001081       0.00001578      -0.00001399
Ga       2.87704064      20.13935338      23.01644604      -0.00000610      -0.00000881       0.00002128
As       4.31559166      21.57791396      24.45492714      -0.00001301       0.00000709      -0.00000903
Ga       5.75409356      23.01640630      23.01644604       0.00000060      -0.00000713       0.00001426
As       7.19264458      24.45496688      24.45492714      -0.00000017      -0.00000350      -0.00000418
Ga       8.63114648      25.89345922      23.01644604       0.00000030       0.00000182       0.00001520
As      10.06969750      27.33201980      24.45492714       0.00000344      -0.00000221      -0.00000422
Ga      11.50819940      28.77051214      23.01644604      -0.00000339       0.00000325       0.00001506
As      12.94675042      30.20907272      24.45492714      -0.00000111       0.00000745      -0.00000416
Ga      14.38525232      31.64756506      23.01644604       0.00000131      -0.00001923       0.00001530
As      15.82380334      33.08612564      24.45492714       0.00000010       0.00000626      -0.00000436
Ga      17.26230524      34.52461798      23.01644604       0.00001129       0.00000784       0.00001433
As      18.70085626      35.96317856      24.45492714      -0.00000997       0.00001734      -0.00000356
Ga      20.13935816      37.40167090      23.01644604      -0.00000123      -0.00001961       0.00001443
As      21.57790918      38.84023148      24.45492714       0.00000032      -0.00000420      -0.00000389
Ga      23.01641108      40.27872382      23.01644604       0.00000138       0.00000182       0.00001579
As      24.45496210      41.71728440      24.45492714      -0.00000121      -0.00000194      -0.00000475
Ga      25.89346400      43.15577674      23.01644604       0.00000397       0.00000105       0.00001592
As      27.33201502      44.59433732      24.45492714       0.00000811      -0.00000027      -0.00000546
Ga      28.77051692      46.03282966      23.01644604      -0.00000888       0.00000255       0.00001537
As      30.20906794      47.47139024      24.45492714      -0.00000189      -0.00000261      -0.00000336
Ga      31.64756984      48.90988258      23.01644604       0.00000318       0.00000244       0.00001478
As      33.08612086      50.34844316      24.45492714       0.00000893      -0.00000273      -0.00000400
Ga      34.52462276      51.78693550      23.01644604      -0.00001983       0.00000702       0.00001480
As      35.96317378      53.22549608      24.45492714       0.00001783       0.00001799      -0.00000527
Ga       5.75409356      20.13935338      25.89349896       0.00000337      -0.00001446       0.00000506
As       7.19264458      21.57791396      27.33198006      -0.00001283       0.00000583       0.00000075
Ga       8.63114648      23.01640630      25.89349896       0.00000177      -0.00000746      -0.00000610
As      10.06969750      24.45496688      27.33198006       0.00000221      -0.00000483       0.00000499
Ga      11.50819940      25.89345922      25.89349896      -0.00000323       0.00000320      -0.00000666
As      12.94675042      27.33201980      27.33198006      -0.00000208      -0.00000329       0.00000430
Ga      14.38525232      28.77051214      25.89349896       0.00000192       0.00000529      -0.00000689
As      15.82380334      30.20907272      27.33198006      -0.00000046       0.00000671       0.00000465
Ga      17.26230524      31.64756506      25.89349896       0.00001307      -0.00002054      -0.00000687
As      18.70085626      33.08612564      27.33198006      -0.00001205       0.00000569       0.00000408
Ga      20.13935816      34.52461798      25.89349896      -0.00000089       0.00000815      -0.00000671
As      21.57790918      35.96317856      27.33198006      -0.00000051       0.00001725       0.00000428
Ga      23.01641108      37.40167090      25.89349896       0.00000108      -0.00001896      -0.00000620
As      24.45496210      38.84023148      27.33198006      -0.00000185      -0.00000490       0.00000453
Ga      25.89346400      40.27872382      25.89349896       0.00000373       0.00000298      -0.00000604
As      27.33201502      41.71728440      27.33198006       0.00000759      -0.00000182       0.00000364
Ga      28.77051692      43.15577674      25.89349896      -0.00000849       0.00000220      -0.00000523
As      30.20906794      44.59433732      27.33198006      -0.00000246      -0.00000331       0.00000467
Ga      31.64756984      46.03282966      25.89349896       0.00000331       0.00000352      -0.00000697
As      33.08612086      47.47139024      27.33198006       0.00000746      -0.00000280       0.00000375
Ga      34.52462276      48.90988258      25.89349896      -0.00001803       0.00000268      -0.00000594
As      35.96317378      50.34844316      27.33198006       0.00001565      -0.00000294       0.00000380
Ga      37.40167568      51.78693550      25.89349896      -0.00001674       0.00000501      -0.00000582
As      38.84022670      53.22549608      27.33198006       0.00001813       0.00001774       0.00000243
Ga       8.63114648      20.13935338      28.77055188       0.00001262      -0.00000769       0.00000041
As      10.06969750      21.57791396      30.20903298      -0.00001092       0.00000673      -0.00000013
Ga      11.50819940      23.01640630      28.77055188      -0.00000177      -0.00000733      -0.00000482
As      12.94675042      24.45496688      30.20903298      -0.00000128      -0.00000363       0.00000468
Ga      14.38525232      25.89345922      28.77055188       0.00000162       0.00000320      -0.00000438
As      15.82380334      27.33201980      30.20903298      -0.00000005      -0.00000335       0.00000525
Ga      17.26230524      28.77051214      28.77055188       0.00001220       0.00000505      -0.00000540
As      18.70085626      30.20907272      30.20903298      -0.00001175       0.00000824       0.00000597
Ga      20.13935816      31.64756506      28.77055188      -0.00000012      -0.00001971      -0.00000420
As      21.57790918      33.08612564      30.20903298      -0.00000053       0.00000571       0.00000482
Ga      23.01641108      34.52461798      28.77055188       0.00000080       0.00000797      -0.00000495
As      24.45496210      35.96317856      30.20903298      -0.00000126       0.00001669       0.00000507
Ga      25.89346400      37.40167090      28.77055188       0.00000271      -0.00001897      -0.00000462
As      27.33201502      38.84023148      30.20903298       0.00000803      -0.00000394       0.00000397
Ga      28.77051692      40.27872382      28.77055188      -0.00000866       0.00000229      -0.00000396
As      30.20906794      41.71728440      30.20903298      -0.00000269      -0.00000347       0.00000523
Ga      31.64756984      43.15577674      28.77055188       0.00000293       0.00000390      -0.00000458
As      33.08612086      44.59433732      30.20903298       0.00000812      -0.00000280       0.00000395
Ga      34.52462276      46.03282966      28.77055188      -0.00001766       0.00000227      -0.00000420
As      35.96317378      47.47139024      30.20903298       0.00001601      -0.00000218       0.00000458
Ga      37.40167568      48.90988258      28.77055188      -0.00001627       0.00000265      -0.00000389
As      38.84022670      50.34844316      30.20903298       0.00001748      -0.00000322       0.00000486
Ga      40.27872860      51.78693550      28.77055188       0.00000151       0.00000437      -0.00000413
As      41.71727962      53.22549608      30.20903298      -0.00001980       0.00001720       0.00000399
Ga      11.50819940      20.13935338      31.64760480       0.00001506      -0.00000833       0.00001183
As      12.94675042      21.57791396      33.08608590      -0.00000462       0.00000191      -0.00000501
Ga      14.38525232      23.01640630      31.64760480      -0.00000070      -0.00000915       0.00000762
As      15.82380334      24.45496688      33.08608590       0.00000123      -0.00000263      -0.00000597
Ga      17.26230524      25.89345922      31.64760480       0.00001181       0.00000215       0.00000662
As      18.70085626      27.33201980      33.08608590      -0.00001076      -0.00000203      -0.00000521
Ga      20.13935816      28.77051214      31.64760480      -0.00000151       0.00000454       0.00000666
As      21.57790918      30.20907272      33.08608590       0.00000015       0.00000731      -0.00000504
Ga      23.01641108      31.64756506      31.64760480       0.00000136      -0.00001969       0.00000671
As      24.45496210      33.08612564      33.08608590      -0.00000187       0.00000611      -0.00000624
Ga      25.89346400      34.52461798      31.64760480       0.00000250       0.00000692       0.00000626
As      27.33201502      35.96317856      33.08608590       0.00000935       0.00001890      -0.00000644
Ga      28.77051692      37.40167090      31.64760480      -0.00000976      -0.00002069       0.00000712
As      30.20906794      38.84023148      33.08608590      -0.00000184      -0.00000441      -0.00000469
Ga      31.64756984      40.27872382      31.64760480       0.00000229       0.00000283       0.00000613
As      33.08612086      41.71728440      33.08608590       0.00000903      -0.00000122      -0.00000597
Ga      34.52462276      43.15577674      31.64760480      -0.00001850       0.00000250       0.00000704
As      35.96317378      44.59433732      33.08608590       0.00001651      -0.00000180      -0.00000579
Ga      37.40167568      46.03282966      31.64760480      -0.00001705       0.00000202       0.00000740
As      38.84022670      47.47139024      33.08608590       0.00001820      -0.00000159      -0.00000615
Ga      40.27872860      48.90988258      31.64760480       0.00000191       0.00000210       0.00000708
As      41.71727962      50.34844316      33.08608590      -0.00002228      -0.00000307      -0.00000480
Ga      43.15578152      51.78693550      31.64760480       0.00001999       0.00000478       0.00000583
As      44.59433254      53.22549608      33.08608590      -0.00001929       0.00001654      -0.00000585
Ga      14.38525232      20.13935338      34.52465772      -0.00002549      -0.00000985       0.00000108
As      15.82380334      21.57791396      35.96313882       0.00001471       0.00000127       0.00000544
Ga      17.26230524      23.01640630      34.52465772       0.00001206      -0.00000793      -0.00000826
As      18.70085626      24.45496688      35.96313882      -0.00001113      -0.00000451       0.00000647
Ga      20.13935816      25.89345922      34.52465772      -0.00000041       0.00000339      -0.00000726
As      21.57790918      27.33201980      35.96313882      -0.00000045      -0.00000376       0.00000540
Ga      23.01641108      28.77051214      34.52465772       0.00000180       0.00000570      -0.00000703
As      24.45496210      30.20907272      35.96313882      -0.00000155       0.00000620       0.00000538
Ga      25.89346400      31.64756506      34.52465772       0.00000317      -0.00001942      -0.00000570
As      27.33201502      33.08612564      35.96313882       0.00000802       0.00000650       0.00000444
Ga      28.77051692      34.52461798      34.52465772      -0.00000884       0.00000613      -0.00000536
As      30.20906794      35.96317856      35.96313882      -0.00000204       0.00001746       0.00000501
Ga      31.64756984      37.40167090      34.52465772       0.00000328      -0.00001888      -0.00000615
As      33.08612086      38.84023148      35.96313882       0.00000763      -0.00000399       0.00000401
Ga      34.52462276      40.27872382      34.52465772      -0.00001807       0.00000217      -0.00000557
As      35.96317378      41.71728440      35.96313882       0.00001561      -0.00000125       0.00000462
Ga      37.40167568      43.15577674      34.52465772      -0.00001685       0.00000181      -0.00000606
As      38.84022670      44.59433732      35.96313882       0.00001777      -0.00000202       0.00000442
Ga      40.27872860      46.03282966      34.52465772       0.00000226       0.00000230      -0.00000624
As      41.71727962      47.47139024      35.96313882      -0.00002188      -0.00000147       0.00000440
Ga      43.15578152      48.90988258      34.52465772       0.00002009       0.00000104      -0.00000613
As      44.59433254      50.34844316      35.96313882      -0.00002007      -0.00000170       0.00000447
Ga      46.03283444      51.78693550      34.52465772       0.00002269       0.00000348      -0.00000525
As      47.47138546      53.22549608      35.96313882      -0.00000090       0.00001811       0.00000306
Ga      17.26230524      20.13935338      37.40171064      -0.00000457      -0.00001025       0.00000254
As      18.70085626      21.57791396      38.84019174      -0.00001276       0.00000730      -0.00000137
Ga      20.13935816      23.01640630      37.40171064       0.00000044      -0.00000643      -0.00000607
As      21.57790918      24.45496688      38.84019174      -0.00000101      -0.00000533       0.00000519
Ga      23.01641108      25.89345922      37.40171064       0.00000190       0.00000422      -0.00000566
As      24.45496210      27.33201980      38.84019174      -0.00000183      -0.00000392       0.00000425
Ga      25.89346400      28.77051214      37.40171064       0.00000320       0.00000577      -0.00000533
As      27.33201502      30.20907272      38.84019174       0.00000777       0.00000716       0.00000323
Ga      28.77051692      31.64756506      37.40171064      -0.00000886      -0.00001931      -0.00000457
As      30.20906794      33.08612564      38.84019174      -0.00000263       0.00000555       0.00000387
Ga      31.64756984      34.52461798      37.40171064       0.00000290       0.00000795      -0.00000478
As      33.08612086      35.96317856      38.84019174       0.00000832       0.00001808       0.00000343
Ga      34.52462276      37.40167090      37.40171064      -0.00001776      -0.00002017      -0.00000408
As      35.96317378      38.84023148      38.84019174       0.00001545      -0.00000387       0.00000306
Ga      37.40167568      40.27872382      37.40171064      -0.00001649       0.00000218      -0.00000467
As      38.84022670      41.71728440      38.84019174       0.00001787      -0.00000180       0.00000344
Ga      40.27872860      43.15577674      37.40171064       0.00000201       0.00000224      -0.00000399
As      41.71727962      44.59433732      38.84019174      -0.00002227      -0.00000195       0.00000338
Ga      43.15578152      46.03282966      37.40171064       0.00002065       0.00000174      -0.00000415
As      44.59433254      47.47139024      38.84019174      -0.00001995      -0.00000144       0.00000332
Ga      46.03283444      48.90988258      37.40171064       0.00002307       0.00000168      -0.00000388
As      47.47138546      50.34844316      38.84019174      -0.00000137      -0.00000194       0.00000368
Ga      48.90988736      51.78693550      37.40171064      -0.00001970       0.00000465      -0.00000396
As      50.34843838      53.22549608      38.84019174       0.00001759       0.00001744       0.00000201
Ga      20.13935816      20.13935338      40.27876356       0.00000235      -0.00001506       0.00000770
As      21.57790918      21.57791396      41.71724466      -0.00001188       0.00000593       0.00000183
Ga      23.01641108      23.01640630      40.27876356       0.00000227      -0.00000646      -0.00000525
As      24.45496210      24.45496688      41.71724466      -0.00000246      -0.00000530       0.00000728
Ga      25.89346400      25.89345922      40.27876356       0.00000332       0.00000369      -0.00000529
As      27.33201502      27.33201980      41.71724466       0.00000775      -0.00000265       0.00000557
Ga      28.77051692      28.77051214      40.27876356      -0.00000866       0.00000493      -0.00000383
As      30.20906794      30.20907272      41.71724466      -0.00000201       0.00000639       0.00000578
Ga      31.64756984      31.64756506      40.27876356       0.00000337      -0.00001916      -0.00000432
As      33.08612086      33.08612564      41.71724466       0.00000804       0.00000625       0.00000551
Ga      34.52462276      34.52461798      40.27876356      -0.00001799       0.00000643      -0.00000414
As      35.96317378      35.96317856      41.71724466       0.00001550       0.00001800       0.00000533
Ga      37.40167568      37.40167090      40.27876356      -0.00001623      -0.00002015      -0.00000359
As      38.84022670      38.84023148      41.71724466       0.00001772      -0.00000383       0.00000584
Ga      40.27872860      40.27872382      40.27876356       0.00000233       0.00000234      -0.00000386
As      41.71727962      41.71728440      41.71724466      -0.00002196      -0.00000141       0.00000580
Ga      43.15578152      43.15577674      40.27876356       0.00002094       0.00000188      -0.00000388
As      44.59433254      44.59433732      41.71724466      -0.00002009      -0.00000206       0.00000573
Ga      46.03283444      46.03282966      40.27876356       0.00002338       0.00000186      -0.00000374
As      47.47138546      47.47139024      41.71724466      -0.00000158      -0.00000197       0.00000519
Ga      48.90988736      48.90988258      40.27876356      -0.00001963       0.00000226      -0.00000332
As      50.34843838      50.34844316      41.71724466       0.00001634      -0.00000336       0.00000503
Ga      51.78694028      51.78693550      40.27876356      -0.00001628       0.00000512      -0.00000343
As      53.22549130      53.22549608      41.71724466       0.00001696       0.00001742       0.00000374
Ga      23.01641108      20.13935338      43.15581648       0.00000328      -0.00001329       0.00002751
As      24.45496210      21.57791396      44.59429758      -0.00001373       0.00000489      -0.00001802
Ga      25.89346400      23.01640630      43.15581648       0.00000446      -0.00000639       0.00001600
As      27.33201502      24.45496688      44.59429758       0.00000661      -0.00000398      -0.00001567
Ga      28.77051692      25.89345922      43.15581648      -0.00000746       0.00000311       0.00001792
As      30.20906794      27.33201980      44.59429758      -0.00000180      -0.00000273      -0.00001630
Ga      31.64756984      28.77051214      43.15581648       0.00000257       0.00000436       0.00001815
As      33.08612086      30.20907272      44.59429758       0.00000714       0.00000678      -0.00001575
Ga      34.52462276      31.64756506      43.15581648      -0.00001828      -0.00001878       0.00001788
As      35.96317378      33.08612564      44.59429758       0.00001595       0.00000655      -0.00001645
Ga      37.40167568      34.52461798      43.15581648      -0.00001644       0.00000648       0.00001788
As      38.84022670      35.96317856      44.59429758       0.00001800       0.00001847      -0.00001603
Ga      40.27872860      37.40167090      43.15581648       0.00000196      -0.00001964       0.00001757
As      41.71727962      38.84023148      44.59429758      -0.00002234      -0.00000342      -0.00001609
Ga      43.15578152      40.27872382      43.15581648       0.00002063       0.00000170       0.00001761
As      44.59433254      41.71728440      44.59429758      -0.00002036      -0.00000099      -0.00001629
Ga      46.03283444      43.15577674      43.15581648       0.00002322       0.00000188       0.00001741
As      47.47138546      44.59433732      44.59429758      -0.00000171      -0.00000148      -0.00001619
Ga      48.90988736      46.03282966      43.15581648      -0.00001969       0.00000185       0.00001767
As      50.34843838      47.47139024      44.59429758       0.00001711      -0.00000186      -0.00001578
Ga      51.78694028      48.90988258      43.15581648      -0.00001718       0.00000197       0.00001787
As      53.22549130      50.34844316      44.59429758       0.00001617      -0.00000209      -0.00001564
Ga      54.66399320      51.78693550      43.15581648      -0.00001692       0.00000439       0.00001748
As      56.10254422      53.22549608      44.59429758       0.00001796       0.00001778      -0.00001686
Ga      25.89346400      20.13935338      46.03286940       0.00001352      -0.00000807      -0.00000220
As      27.33201502      21.57791396      47.47135050      -0.00000669       0.00000987      -0.00000216
Ga      28.77051692      23.01640630      46.03286940      -0.00000572      -0.00000821      -0.00000754
As      30.20906794      24.45496688      47.47135050      -0.00000297      -0.00000458       0.00000611
Ga      31.64756984      25.89345922      46.03286940       0.00000336       0.00000401      -0.00000861
As      33.08612086      27.33201980      47.47135050       0.00000801      -0.00000260       0.00000410
Ga      34.52462276      28.77051214      46.03286940      -0.00001784       0.00000410      -0.00000740
As      35.96317378      30.20907272      47.47135050       0.00001650       0.00000686       0.00000426
Ga      37.40167568      31.64756506      46.03286940      -0.00001771      -0.00002026      -0.00000648
As      38.84022670      33.08612564      47.47135050       0.00001913       0.00000778       0.00000501
Ga      40.27872860      34.52461798      46.03286940       0.00000153       0.00000542      -0.00000661
As      41.71727962      35.96317856      47.47135050      -0.00002158       0.00001825       0.00000434
Ga      43.15578152      37.40167090      46.03286940       0.00002032      -0.00001983      -0.00000678
As      44.59433254      38.84023148      47.47135050      -0.00001968      -0.00000353       0.00000464
Ga      46.03283444      40.27872382      46.03286940       0.00002334       0.00000153      -0.00000705
As      47.47138546      41.71728440      47.47135050      -0.00000140      -0.00000128       0.00000500
Ga      48.90988736      43.15577674      46.03286940      -0.00001974       0.00000258      -0.00000710
As      50.34843838      44.59433732      47.47135050       0.00001635      -0.00000219       0.00000455
Ga      51.78694028      46.03282966      46.03286940      -0.00001659       0.00000249      -0.00000695
As      53.22549130      47.47139024      47.47135050       0.00001540      -0.00000204       0.00000438
Ga      54.66399320      48.90988258      46.03286940      -0.00001640       0.00000187      -0.00000701
As      56.10254422      50.34844316      47.47135050       0.00001779      -0.00000293       0.00000446
Ga      57.54104612      51.78693550      46.03286940       0.00000176       0.00000416      -0.00000626
As      58.97959714      53.22549608      47.47135050      -0.00002113       0.00001663       0.00000341
Ga      28.77051692      20.13935338      48.90992232       0.00001146      -0.00000927       0.00000135
As      30.20906794      21.57791396      50.34840342      -0.00001302       0.00000719      -0.00000027
Ga      31.64756984      23.01640630      48.90992232       0.00000379      -0.00000793      -0.00000412
As      33.08612086      24.45496688      50.34840342       0.00000786      -0.00000279       0.00000286
Ga      34.52462276      25.89345922      48.90992232      -0.00001734       0.00000223      -0.00000354
As      35.96317378      27.33201980      50.34840342       0.00001556      -0.00000137       0.00000359
Ga      37.40167568      28.77051214      48.90992232      -0.00001636       0.00000399      -0.00000371
As      38.84022670      30.20907272      50.34840342       0.00001867       0.00000679       0.00000297
Ga      40.27872860      31.64756506      48.90992232       0.00000231      -0.00002048      -0.00000394
As      41.71727962      33.08612564      50.34840342      -0.00002236       0.00000756       0.00000288
Ga      43.15578152      34.52461798      48.90992232       0.00001983       0.00000525      -0.00000360
As      44.59433254      35.96317856      50.34840342      -0.00001939       0.00001868       0.00000405
Ga      46.03283444      37.40167090      48.90992232       0.00002308      -0.00001961      -0.00000376
As      47.47138546      38.84023148      50.34840342      -0.00000184      -0.00000382       0.00000509
Ga      48.90988736      40.27872382      48.90992232      -0.00001959       0.00000224      -0.00000444
As      50.34843838      41.71728440      50.34840342       0.00001615      -0.00000213       0.00000456
Ga      51.78694028      43.15577674      48.90992232      -0.00001597       0.00000275      -0.00000429
As      53.22549130      44.59433732      50.34840342       0.00001497      -0.00000259       0.00000419
Ga      54.66399320      46.03282966      48.90992232      -0.00001701       0.00000223      -0.00000396
As      56.10254422      47.47139024      50.34840342       0.00001801      -0.00000203       0.00000384
Ga      57.54104612      48.90988258      48.90992232       0.00000187       0.00000202      -0.00000357
As      58.97959714      50.34844316      50.34840342      -0.00002206      -0.00000178       0.00000384
Ga      60.41809904      51.78693550      48.90992232       0.00001917       0.00000414      -0.00000379
As      61.85665006      53.22549608      50.34840342      -0.00001730       0.00001715       0.00000313
Ga      31.64756984      20.13935338      51.78697524       0.00001435      -0.00001019       0.00000204
As      33.08612086      21.57791396      53.22545634       0.00000118       0.00000454       0.00000223
Ga      34.52462276      23.01640630      51.78697524      -0.00001875      -0.00000928      -0.00000305
As      35.96317378      24.45496688      53.22545634       0.00001660      -0.00000238       0.00000383
Ga      37.40167568      25.89345922      51.78697524      -0.00001590       0.00000182      -0.00000365
As      38.84022670      27.33201980      53.22545634       0.00001707      -0.00000179       0.00000393
Ga      40.27872860      28.77051214      51.78697524       0.00000199       0.00000356      -0.00000372
As      41.71727962      30.20907272      53.22545634      -0.00002277       0.00000785       0.00000414
Ga      43.15578152      31.64756506      51.78697524       0.00002174      -0.00002055      -0.00000372
As      44.59433254      33.08612564      53.22545634      -0.00001904       0.00000841       0.00000216
Ga      46.03283444      34.52461798      51.78697524       0.00002088       0.00000534      -0.00000407
As      47.47138546      35.96317856      53.22545634      -0.00001027       0.00002441      -0.00000131
Ga      48.90988736      37.40167090      51.78697524      -0.00001829      -0.00001915      -0.00000514
As      50.34843838      38.84023148      53.22545634       0.00000780       0.00000149      -0.00000119
Ga      51.78694028      40.27872382      51.78697524      -0.00001454       0.00000296      -0.00000477
As      53.22549130      41.71728440      53.22545634       0.00001527      -0.00000208       0.00000460
Ga      54.66399320      43.15577674      51.78697524      -0.00001591       0.00000263      -0.00000444
As      56.10254422      44.59433732      53.22545634       0.00001682      -0.00000227       0.00000446
Ga      57.54104612      46.03282966      51.78697524       0.00000227       0.00000224      -0.00000441
As      58.97959714      47.47139024      53.22545634      -0.00002281      -0.00000127       0.00000370
Ga      60.41809904      48.90988258      51.78697524       0.00002002       0.00000065      -0.00000347
As      61.85665006      50.34844316      53.22545634      -0.00001860      -0.00000107       0.00000329
Ga      63.29515196      51.78693550      51.78697524       0.00001869       0.00000378      -0.00000332
As      64.73370298      53.22549608      53.22545634      -0.00001794       0.00001769       0.00000271
Ga      -0.00001228      23.01640630      23.01644604      -0.00002171       0.00000425       0.00001037
As       1.43853874      24.45496688      24.45492714       0.00001157      -0.00000494      -0.00000237
Ga       2.87704064      25.89345922      23.01644604      -0.00000508       0.00000818       0.00000972
As       4.31559166      27.33201980      24.45492714      -0.00000216      -0.00000101      -0.00000619
Ga       5.75409356      28.77051214      23.01644604      -0.00000604       0.00000725       0.00000945
As       7.19264458      30.20907272      24.45492714      -0.00000246       0.00000978      -0.00000631
Ga       8.63114648      31.64756506      23.01644604       0.00000433      -0.00002049       0.00001611
As      10.06969750      33.08612564      24.45492714       0.00000194       0.00000705      -0.00000561
Ga      11.50819940      34.52461798      23.01644604       0.00000078       0.00000491       0.00001504
As      12.94675042      35.96317856      24.45492714      -0.00000138       0.00001771      -0.00000301
Ga      14.38525232      37.40167090      23.01644604       0.00000026      -0.00001873       0.00001196
As      15.82380334      38.84023148      24.45492714       0.00000025      -0.00000472      -0.00000321
Ga      17.26230524      40.27872382      23.01644604       0.00001230       0.00000164       0.00001424
As      18.70085626      41.71728440      24.45492714      -0.00001099      -0.00000168      -0.00000373
Ga      20.13935816      43.15577674      23.01644604      -0.00000678       0.00000569       0.00000949
As      21.57790918      44.59433732      24.45492714      -0.00000120      -0.00000035      -0.00000541
Ga      23.01641108      46.03282966      23.01644604      -0.00000470       0.00000552       0.00000916
As      24.45496210      47.47139024      24.45492714      -0.00000314       0.00000074      -0.00000607
Ga      25.89346400      48.90988258      23.01644604       0.00000599       0.00000037       0.00001409
As      27.33201502      50.34844316      24.45492714       0.00000762      -0.00000107      -0.00000561
Ga      28.77051692      51.78693550      23.01644604      -0.00000169       0.00000087       0.00001715
As      30.20906794      53.22549608      24.45492714      -0.00000217       0.00001778      -0.00000394
Ga      31.64756984      54.66398842      23.01644604       0.00000415      -0.00001907       0.00001304
As      33.08612086      56.10254900      24.45492714       0.00000747      -0.00000333      -0.00000386
Ga       2.87704064      23.01640630      25.89349896       0.00000296       0.00000048      -0.00000717
As       4.31559166      24.45496688      27.33198006      -0.00001327       0.00000154       0.00000039
Ga       5.75409356      25.89345922      25.89349896      -0.00000026       0.00000239      -0.00000506
As       7.19264458      27.33201980      27.33198006       0.00000002      -0.00000172       0.00000313
Ga       8.63114648      28.77051214      25.89349896       0.00000151       0.00000272      -0.00000408
As      10.06969750      30.20907272      27.33198006       0.00000173       0.00000738       0.00000345
Ga      11.50819940      31.64756506      25.89349896      -0.00000337      -0.00001960      -0.00000580
As      12.94675042      33.08612564      27.33198006      -0.00000229       0.00000618       0.00000400
Ga      14.38525232      34.52461798      25.89349896       0.00000092       0.00000799      -0.00000685
As      15.82380334      35.96317856      27.33198006      -0.00000004       0.00001690       0.00000428
Ga      17.26230524      37.40167090      25.89349896       0.00001186      -0.00001842      -0.00000774
As      18.70085626      38.84023148      27.33198006      -0.00001092      -0.00000488       0.00000525
Ga      20.13935816      40.27872382      25.89349896      -0.00000070       0.00000352      -0.00000664
As      21.57790918      41.71728440      27.33198006      -0.00000067      -0.00000250       0.00000415
Ga      23.01641108      43.15577674      25.89349896       0.00000193       0.00000271      -0.00000569
As      24.45496210      44.59433732      27.33198006      -0.00000295      -0.00000272       0.00000365
Ga      25.89346400      46.03282966      25.89349896       0.00000460       0.00000219      -0.00000552
As      27.33201502      47.47139024      27.33198006       0.00000719      -0.00000128       0.00000218
Ga      28.77051692      48.90988258      25.89349896      -0.00000755       0.00000120      -0.00000552
As      30.20906794      50.34844316      27.33198006      -0.00000322      -0.00000381       0.00000471
Ga      31.64756984      51.78693550      25.89349896       0.00000363       0.00000676      -0.00000680
As      33.08612086      53.22549608      27.33198006       0.00000823       0.00001828       0.00000357
Ga      34.52462276      54.66398842      25.89349896      -0.00001743      -0.00001900      -0.00000641
As      35.96317378      56.10254900      27.33198006       0.00001515      -0.00000325       0.00000400
Ga       5.75409356      23.01640630      28.77055188       0.00001053      -0.00000428      -0.00000057
As       7.19264458      24.45496688      30.20903298      -0.00001408      -0.00000027       0.00000266
Ga       8.63114648      25.89345922      28.77055188       0.00000083       0.00000255      -0.00000336
As      10.06969750      27.33201980      30.20903298       0.00000253      -0.00000390       0.00000504
Ga      11.50819940      28.77051214      28.77055188      -0.00000317       0.00000540      -0.00000416
As      12.94675042      30.20907272      30.20903298      -0.00000137       0.00000660       0.00000443
Ga      14.38525232      31.64756506      28.77055188       0.00000206      -0.00002012      -0.00000410
As      15.82380334      33.08612564      30.20903298      -0.00000045       0.00000579       0.00000455
Ga      17.26230524      34.52461798      28.77055188       0.00001199       0.00000760      -0.00000493
As      18.70085626      35.96317856      30.20903298      -0.00001089       0.00001712       0.00000532
Ga      20.13935816      37.40167090      28.77055188      -0.00000030      -0.00001864      -0.00000475
As      21.57790918      38.84023148      30.20903298      -0.00000058      -0.00000531       0.00000491
Ga      23.01641108      40.27872382      28.77055188       0.00000141       0.00000333      -0.00000425
As      24.45496210      41.71728440      30.20903298      -0.00000196      -0.00000342       0.00000479
Ga      25.89346400      43.15577674      28.77055188       0.00000388       0.00000350      -0.00000392
As      27.33201502      44.59433732      30.20903298       0.00000783      -0.00000202       0.00000308
Ga      28.77051692      46.03282966      28.77055188      -0.00000851       0.00000159      -0.00000288
As      30.20906794      47.47139024      30.20903298      -0.00000278      -0.00000360       0.00000471
Ga      31.64756984      48.90988258      28.77055188       0.00000359       0.00000326      -0.00000463
As      33.08612086      50.34844316      30.20903298       0.00000777      -0.00000281       0.00000424
Ga      34.52462276      51.78693550      28.77055188      -0.00001796       0.00000489      -0.00000431
As      35.96317378      53.22549608      30.20903298       0.00001584       0.00001853       0.00000406
Ga      37.40167568      54.66398842      28.77055188      -0.00001632      -0.00001971      -0.00000391
As      38.84022670      56.10254900      30.20903298       0.00001634      -0.00000320       0.00000463
Ga       8.63114648      23.01640630      31.64760480       0.00002058       0.00000290       0.00000363
As      10.06969750      24.45496688      33.08608590      -0.00001199       0.00000145      -0.00000834
Ga      11.50819940      25.89345922      31.64760480      -0.00000332       0.00000240       0.00000718
As      12.94675042      27.33201980      33.08608590      -0.00000057      -0.00000205      -0.00000556
Ga      14.38525232      28.77051214      31.64760480       0.00000058       0.00000432       0.00000690
As      15.82380334      30.20907272      33.08608590       0.00000031       0.00000756      -0.00000542
Ga      17.26230524      31.64756506      31.64760480       0.00001232      -0.00002146       0.00000588
As      18.70085626      33.08612564      33.08608590      -0.00001152       0.00000721      -0.00000607
Ga      20.13935816      34.52461798      31.64760480      -0.00000100       0.00000721       0.00000614
As      21.57790918      35.96317856      33.08608590       0.00000080       0.00001789      -0.00000519
Ga      23.01641108      37.40167090      31.64760480       0.00000024      -0.00001924       0.00000605
As      24.45496210      38.84023148      33.08608590      -0.00000143      -0.00000401      -0.00000506
Ga      25.89346400      40.27872382      31.64760480       0.00000286       0.00000318       0.00000620
As      27.33201502      41.71728440      33.08608590       0.00000845      -0.00000177      -0.00000649
Ga      28.77051692      43.15577674      31.64760480      -0.00000957       0.00000257       0.00000757
As      30.20906794      44.59433732      33.08608590      -0.00000135      -0.00000282      -0.00000484
Ga      31.64756984      46.03282966      31.64760480       0.00000265       0.00000217       0.00000706
As      33.08612086      47.47139024      33.08608590       0.00000873      -0.00000131      -0.00000627
Ga      34.52462276      48.90988258      31.64760480      -0.00001826       0.00000153       0.00000739
As      35.96317378      50.34844316      33.08608590       0.00001611      -0.00000241      -0.00000583
Ga      37.40167568      51.78693550      31.64760480      -0.00001666       0.00000499       0.00000748
As      38.84022670      53.22549608      33.08608590       0.00001878       0.00001910      -0.00000696
Ga      40.27872860      54.66398842      31.64760480       0.00000110      -0.00002006       0.00000754
As      41.71727962      56.10254900      33.08608590      -0.00002276      -0.00000405      -0.00000472
Ga      11.50819940      23.01640630      34.52465772       0.00002132       0.00000048      -0.00000741
As      12.94675042      24.45496688      35.96313882      -0.00000640      -0.00000437       0.00000727
Ga      14.38525232      25.89345922      34.52465772      -0.00000098       0.00000177      -0.00000451
As      15.82380334      27.33201980      35.96313882       0.00000082      -0.00000270       0.00000464
Ga      17.26230524      28.77051214      34.52465772       0.00001230       0.00000434      -0.00000649
As      18.70085626      30.20907272      35.96313882      -0.00001096       0.00000823       0.00000560
Ga      20.13935816      31.64756506      34.52465772      -0.00000034      -0.00002039      -0.00000515
As      21.57790918      33.08612564      35.96313882      -0.00000047       0.00000576       0.00000463
Ga      23.01641108      34.52461798      34.52465772       0.00000098       0.00000796      -0.00000577
As      24.45496210      35.96317856      35.96313882      -0.00000146       0.00001687       0.00000476
Ga      25.89346400      37.40167090      34.52465772       0.00000302      -0.00001892      -0.00000581
As      27.33201502      38.84023148      35.96313882       0.00000781      -0.00000380       0.00000391
Ga      28.77051692      40.27872382      34.52465772      -0.00000894       0.00000250      -0.00000559
As      30.20906794      41.71728440      35.96313882      -0.00000209      -0.00000335       0.00000546
Ga      31.64756984      43.15577674      34.52465772       0.00000271       0.00000400      -0.00000683
As      33.08612086      44.59433732      35.96313882       0.00000812      -0.00000258       0.00000450
Ga      34.52462276      46.03282966      34.52465772      -0.00001810       0.00000232      -0.00000624
As      35.96317378      47.47139024      35.96313882       0.00001600      -0.00000218       0.00000460
Ga      37.40167568      48.90988258      34.52465772      -0.00001658       0.00000184      -0.00000664
As      38.84022670      50.34844316      35.96313882       0.00001778      -0.00000273       0.00000461
Ga      40.27872860      51.78693550      34.52465772       0.00000181       0.00000498      -0.00000624
As      41.71727962      53.22549608      35.96313882      -0.00002131       0.00001791       0.00000474
Ga      43.15578152      54.66398842      34.52465772       0.00001989      -0.00001892      -0.00000545
As      44.59433254      56.10254900      35.96313882      -0.00001952      -0.00000356       0.00000526
Ga      14.38525232      23.01640630      37.40171064      -0.00001836       0.00000020      -0.00000442
As      15.82380334      24.45496688      38.84019174       0.00001276      -0.00000543       0.00000619
Ga      17.26230524      25.89345922      37.40171064       0.00001124       0.00000334      -0.00000498
As      18.70085626      27.33201980      38.84019174      -0.00001045      -0.00000315       0.00000485
Ga      20.13935816      28.77051214      37.40171064      -0.00000110       0.00000542      -0.00000461
As      21.57790918      30.20907272      38.84019174      -0.00000008       0.00000612       0.00000393
Ga      23.01641108      31.64756506      37.40171064       0.00000112      -0.00001910      -0.00000430
As      24.45496210      33.08612564      38.84019174      -0.00000196       0.00000546       0.00000351
Ga      25.89346400      34.52461798      37.40171064       0.00000279       0.00000783      -0.00000465
As      27.33201502      35.96317856      38.84019174       0.00000873       0.00001827       0.00000279
Ga      28.77051692      37.40167090      37.40171064      -0.00000882      -0.00002029      -0.00000319
As      30.20906794      38.84023148      38.84019174      -0.00000230      -0.00000519       0.00000414
Ga      31.64756984      40.27872382      37.40171064       0.00000297       0.00000348      -0.00000474
As      33.08612086      41.71728440      38.84019174       0.00000805      -0.00000191       0.00000329
Ga      34.52462276      43.15577674      37.40171064      -0.00001771       0.00000242      -0.00000419
As      35.96317378      44.59433732      38.84019174       0.00001584      -0.00000156       0.00000370
Ga      37.40167568      46.03282966      37.40171064      -0.00001647       0.00000206      -0.00000456
As      38.84022670      47.47139024      38.84019174       0.00001746      -0.00000215       0.00000352
Ga      40.27872860      48.90988258      37.40171064       0.00000227       0.00000131      -0.00000479
As      41.71727962      50.34844316      38.84019174      -0.00002234      -0.00000182       0.00000338
Ga      43.15578152      51.78693550      37.40171064       0.00002043       0.00000452      -0.00000499
As      44.59433254      53.22549608      38.84019174      -0.00001977       0.00001844       0.00000297
Ga      46.03283444      54.66398842      37.40171064       0.00002219      -0.00001875      -0.00000427
As      47.47138546      56.10254900      38.84019174      -0.00000250      -0.00000282       0.00000365
Ga      17.26230524      23.01640630      40.27876356       0.00000196      -0.00000001      -0.00000451
As      18.70085626      24.45496688      41.71724466      -0.00001450       0.00000106       0.00000260
Ga      20.13935816      25.89345922      40.27876356      -0.00000018       0.00000518      -0.00000482
As      21.57790918      27.33201980      41.71724466      -0.00000005      -0.00000488       0.00000720
Ga      23.01641108      28.77051214      40.27876356       0.00000060       0.00000622      -0.00000483
As      24.45496210      30.20907272      41.71724466      -0.00000130       0.00000560       0.00000588
Ga      25.89346400      31.64756506      40.27876356       0.00000318      -0.00001884      -0.00000422
As      27.33201502      33.08612564      41.71724466       0.00000797       0.00000672       0.00000555
Ga      28.77051692      34.52461798      40.27876356      -0.00000859       0.00000720      -0.00000358
As      30.20906794      35.96317856      41.71724466      -0.00000229       0.00001669       0.00000566
Ga      31.64756984      37.40167090      40.27876356       0.00000265      -0.00001916      -0.00000455
As      33.08612086      38.84023148      41.71724466       0.00000798      -0.00000376       0.00000520
Ga      34.52462276      40.27872382      40.27876356      -0.00001795       0.00000242      -0.00000410
As      35.96317378      41.71728440      41.71724466       0.00001603      -0.00000115       0.00000563
Ga      37.40167568      43.15577674      40.27876356      -0.00001636       0.00000284      -0.00000391
As      38.84022670      44.59433732      41.71724466       0.00001745      -0.00000251       0.00000505
Ga      40.27872860      46.03282966      40.27876356       0.00000245       0.00000221      -0.00000381
As      41.71727962      47.47139024      41.71724466      -0.00002188      -0.00000110       0.00000548
Ga      43.15578152      48.90988258      40.27876356       0.00002072       0.00000086      -0.00000439
As      44.59433254      50.34844316      41.71724466      -0.00001983      -0.00000188       0.00000562
Ga      46.03283444      51.78693550      40.27876356       0.00002335       0.00000398      -0.00000386
As      47.47138546      53.22549608      41.71724466      -0.00000098       0.00001901       0.00000503
Ga      48.90988736      54.66398842      40.27876356      -0.00001955      -0.00001933      -0.00000398
As      50.34843838      56.10254900      41.71724466       0.00001623      -0.00000317       0.00000544
Ga      20.13935816      23.01640630      43.15581648       0.00000981      -0.00000502       0.00002201
As      21.57790918      24.45496688      44.59429758      -0.00001310       0.00000093      -0.00001855
Ga      23.01641108      25.89345922      43.15581648       0.00000065       0.00000359       0.00001778
As      24.45496210      27.33201980      44.59429758      -0.00000147      -0.00000346      -0.00001616
Ga      25.89346400      28.77051214      43.15581648       0.00000280       0.00000478       0.00001826
As      27.33201502      30.20907272      44.59429758       0.00000708       0.00000700      -0.00001598
Ga      28.77051692      31.64756506      43.15581648      -0.00000864      -0.00001907       0.00001727
As      30.20906794      33.08612564      44.59429758      -0.00000174       0.00000668      -0.00001665
Ga      31.64756984      34.52461798      43.15581648       0.00000197       0.00000725       0.00001718
As      33.08612086      35.96317856      44.59429758       0.00000866       0.00001841      -0.00001672
Ga      34.52462276      37.40167090      43.15581648      -0.00001784      -0.00002044       0.00001760
As      35.96317378      38.84023148      44.59429758       0.00001548      -0.00000345      -0.00001545
Ga      37.40167568      40.27872382      43.15581648      -0.00001647       0.00000208       0.00001781
As      38.84022670      41.71728440      44.59429758       0.00001757      -0.00000112      -0.00001565
Ga      40.27872860      43.15577674      43.15581648       0.00000253       0.00000192       0.00001753
As      41.71727962      44.59433732      44.59429758      -0.00002218      -0.00000177      -0.00001581
Ga      43.15578152      46.03282966      43.15581648       0.00002091       0.00000160       0.00001728
As      44.59433254      47.47139024      44.59429758      -0.00002067      -0.00000125      -0.00001597
Ga      46.03283444      48.90988258      43.15581648       0.00002378       0.00000112       0.00001748
As      47.47138546      50.34844316      44.59429758      -0.00000139      -0.00000152      -0.00001633
Ga      48.90988736      51.78693550      43.15581648      -0.00001956       0.00000364       0.00001777
As      50.34843838      53.22549608      44.59429758       0.00001754       0.00001852      -0.00001534
Ga      51.78694028      54.66398842      43.15581648      -0.00001642      -0.00001935       0.00001723
As      53.22549130      56.10254900      44.59429758       0.00001554      -0.00000270      -0.00001588
Ga      23.01641108      23.01640630      46.03286940       0.00001017      -0.00000409      -0.00000434
As      24.45496210      24.45496688      47.47135050      -0.00001583      -0.00000168       0.00000469
Ga      25.89346400      25.89345922      46.03286940       0.00000406       0.00000466      -0.00000844
As      27.33201502      27.33201980      47.47135050       0.00000745      -0.00000350       0.00000544
Ga      28.77051692      28.77051214      46.03286940      -0.00000824       0.00000474      -0.00000762
As      30.20906794      30.20907272      47.47135050      -0.00000224       0.00000645       0.00000560
Ga      31.64756984      31.64756506      46.03286940       0.00000386      -0.00001974      -0.00000736
As      33.08612086      33.08612564      47.47135050       0.00000831       0.00000662       0.00000445
Ga      34.52462276      34.52461798      46.03286940      -0.00001822       0.00000626      -0.00000670
As      35.96317378      35.96317856      47.47135050       0.00001566       0.00001876       0.00000425
Ga      37.40167568      37.40167090      46.03286940      -0.00001595      -0.00002023      -0.00000691
As      38.84022670      38.84023148      47.47135050       0.00001726      -0.00000353       0.00000493
Ga      40.27872860      40.27872382      46.03286940       0.00000219       0.00000170      -0.00000762
As      41.71727962      41.71728440      47.47135050      -0.00002216      -0.00000154       0.00000431
Ga      43.15578152      43.15577674      46.03286940       0.00002063       0.00000214      -0.00000708
As      44.59433254      44.59433732      47.47135050      -0.00001996      -0.00000105       0.00000498
Ga      46.03283444      46.03282966      46.03286940       0.00002391       0.00000132      -0.00000698
As      47.47138546      47.47139024      47.47135050      -0.00000166      -0.00000165       0.00000513
Ga      48.90988736      48.90988258      46.03286940      -0.00001953       0.00000187      -0.00000737
As      50.34843838      50.34844316      47.47135050       0.00001636      -0.00000316       0.00000489
Ga      51.78694028      51.78693550      46.03286940      -0.00001673       0.00000514      -0.00000720
As      53.22549130      53.22549608      47.47135050       0.00001560       0.00001867       0.00000421
Ga      54.66399320      54.66398842      46.03286940      -0.00001596      -0.00001985      -0.00000620
As      56.10254422      56.10254900      47.47135050       0.00001605      -0.00000255       0.00000468
Ga      25.89346400      23.01640630      48.90992232       0.00002036       0.00000148      -0.00000578
As      27.33201502      24.45496688      50.34840342      -0.00000854       0.00000348      -0.00000141
Ga      28.77051692      25.89345922      48.90992232      -0.00000737       0.00000261      -0.00000356
As      30.20906794      27.33201980      50.34840342      -0.00000285      -0.00000378       0.00000436
Ga      31.64756984      28.77051214      48.90992232       0.00000351       0.00000560      -0.00000441
As      33.08612086      30.20907272      50.34840342       0.00000764       0.00000746       0.00000315
Ga      34.52462276      31.64756506      48.90992232      -0.00001936      -0.00002036      -0.00000393
As      35.96317378      33.08612564      50.34840342       0.00001709       0.00000752       0.00000470
Ga      37.40167568      34.52461798      48.90992232      -0.00001640       0.00000605      -0.00000353
As      38.84022670      35.96317856      50.34840342       0.00001810       0.00001842       0.00000336
Ga      40.27872860      37.40167090      48.90992232       0.00000156      -0.00002009      -0.00000351
As      41.71727962      38.84023148      50.34840342      -0.00002179      -0.00000361       0.00000341
Ga      43.15578152      40.27872382      48.90992232       0.00002083       0.00000168      -0.00000369
As      44.59433254      41.71728440      50.34840342      -0.00001967      -0.00000084       0.00000433
Ga      46.03283444      43.15577674      48.90992232       0.00002355       0.00000170      -0.00000394
As      47.47138546      44.59433732      50.34840342      -0.00000154      -0.00000194       0.00000426
Ga      48.90988736      46.03282966      48.90992232      -0.00001982       0.00000207      -0.00000391
As      50.34843838      47.47139024      50.34840342       0.00001698      -0.00000207       0.00000410
Ga      51.78694028      48.90988258      48.90992232      -0.00001646       0.00000218      -0.00000389
As      53.22549130      50.34844316      50.34840342       0.00001567      -0.00000287       0.00000386
Ga      54.66399320      51.78693550      48.90992232      -0.00001641       0.00000503      -0.00000343
As      56.10254422      53.22549608      50.34840342       0.00001793       0.00001845       0.00000351
Ga      57.54104612      54.66398842      48.90992232       0.00000173      -0.00001952      -0.00000322
As      58.97959714      56.10254900      50.34840342      -0.00002237      -0.00000333       0.00000428
Ga      28.77051692      23.01640630      51.78697524       0.00001839       0.00000094      -0.00000542
As      30.20906794      24.45496688      53.22545634      -0.00001516       0.00000088       0.00000158
Ga      31.64756984      25.89345922      51.78697524       0.00000324       0.00000264      -0.00000315
As      33.08612086      27.33201980      53.22545634       0.00000882      -0.00000164       0.00000277
Ga      34.52462276      28.77051214      51.78697524      -0.00001767       0.00000392      -0.00000317
As      35.96317378      30.20907272      53.22545634       0.00001617       0.00000737       0.00000284
Ga      37.40167568      31.64756506      51.78697524      -0.00001836      -0.00002065      -0.00000350
As      38.84022670      33.08612564      53.22545634       0.00001882       0.00000786       0.00000390
Ga      40.27872860      34.52461798      51.78697524       0.00000207       0.00000577      -0.00000364
As      41.71727962      35.96317856      53.22545634      -0.00002157       0.00001821       0.00000350
Ga      43.15578152      37.40167090      51.78697524       0.00002022      -0.00002016      -0.00000310
As      44.59433254      38.84023148      53.22545634      -0.00001909      -0.00000310       0.00000348
Ga      46.03283444      40.27872382      51.78697524       0.00002296       0.00000153      -0.00000392
As      47.47138546      41.71728440      53.22545634      -0.00000174      -0.00000170       0.00000448
Ga      48.90988736      43.15577674      51.78697524      -0.00001930       0.00000285      -0.00000439
As      50.34843838      44.59433732      53.22545634       0.00001580      -0.00000286       0.00000414
Ga      51.78694028      46.03282966      51.78697524      -0.00001562       0.00000280      -0.00000450
As      53.22549130      47.47139024      53.22545634       0.00001512      -0.00000228       0.00000384
Ga      54.66399320      48.90988258      51.78697524      -0.00001684       0.00000213      -0.00000373
As      56.10254422      50.34844316      53.22545634       0.00001789      -0.00000251       0.00000402
Ga      57.54104612      51.78693550      51.78697524       0.00000193       0.00000443      -0.00000399
As      58.97959714      53.22549608      53.22545634      -0.00002111       0.00001873       0.00000384
Ga      60.41809904      54.66398842      51.78697524       0.00001928      -0.00001931      -0.00000353
As      61.85665006      56.10254900      53.22545634      -0.00001920      -0.00000340       0.00000450
Ga      31.64756984      23.01640630      54.66402816       0.00002181      -0.00000022      -0.00000434
As      33.08612086      24.45496688      56.10250926       0.00000003      -0.00000145       0.00000347
Ga      34.52462276      25.89345922      54.66402816      -0.00001929       0.00000095      -0.00000190
As      35.96317378      27.33201980      56.10250926       0.00001727      -0.00000244       0.00000343
Ga      37.40167568      28.77051214      54.66402816      -0.00001622       0.00000394      -0.00000342
As      38.84022670      30.20907272      56.10250926       0.00001838       0.00000669       0.00000298
Ga      40.27872860      31.64756506      54.66402816       0.00000281      -0.00002089      -0.00000299
As      41.71727962      33.08612564      56.10250926      -0.00002159       0.00000726       0.00000198
Ga      43.15578152      34.52461798      54.66402816       0.00001999       0.00000495      -0.00000309
As      44.59433254      35.96317856      56.10250926      -0.00001863       0.00001944       0.00000218
Ga      46.03283444      37.40167090      54.66402816       0.00002087      -0.00001998      -0.00000356
As      47.47138546      38.84023148      56.10250926      -0.00000987       0.00000136      -0.00000140
Ga      48.90988736      40.27872382      54.66402816      -0.00001856       0.00000261      -0.00000390
As      50.34843838      41.71728440      56.10250926       0.00000818       0.00000353      -0.00000210
Ga      51.78694028      43.15577674      54.66402816      -0.00001435       0.00000301      -0.00000405
As      53.22549130      44.59433732      56.10250926       0.00001590      -0.00000334       0.00000421
Ga      54.66399320      46.03282966      54.66402816      -0.00001585       0.00000259      -0.00000427
As      56.10254422      47.47139024      56.10250926       0.00001704      -0.00000246       0.00000392
Ga      57.54104612      48.90988258      54.66402816       0.00000261       0.00000172      -0.00000386
As      58.97959714      50.34844316      56.10250926      -0.00002187      -0.00000193       0.00000314
Ga      60.41809904      51.78693550      54.66402816       0.00002019       0.00000371      -0.00000326
As      61.85665006      53.22549608      56.10250926      -0.00001847       0.00001941       0.00000217
Ga      63.29515196      54.66398842      54.66402816       0.00001890      -0.00001963      -0.00000286
As      64.73370298      56.10254900      56.10250926      -0.00001878      -0.00000311       0.00000315
Ga      -0.00001228      25.89345922      25.89349896      -0.00002416       0.00000928      -0.00001415
As       1.43853874      27.33201980      27.33198006       0.00000993      -0.00000351       0.00000501
Ga       2.87704064      28.77051214      25.89349896      -0.00000814       0.00001052      -0.00001498
As       4.31559166      30.20907272      27.33198006      -0.00000356       0.00001022       0.00000193
Ga       5.75409356      31.64756506      25.89349896      -0.00000861      -0.00001290      -0.00001424
As       7.19264458      33.08612564      27.33198006      -0.00000270       0.00001003      -0.00000006
Ga       8.63114648      34.52461798      25.89349896       0.00000094       0.00000665      -0.00000714
As      10.06969750      35.96317856      27.33198006       0.00000114       0.00002032       0.00000122
Ga      11.50819940      37.40167090      25.89349896      -0.00000097      -0.00001987      -0.00000788
As      12.94675042      38.84023148      27.33198006      -0.00000432      -0.00000373       0.00000407
Ga      14.38525232      40.27872382      25.89349896      -0.00000095       0.00000569      -0.00001150
As      15.82380334      41.71728440      27.33198006      -0.00000206      -0.00000209       0.00000435
Ga      17.26230524      43.15577674      25.89349896       0.00001111       0.00000367      -0.00001047
As      18.70085626      44.59433732      27.33198006      -0.00001219      -0.00000100       0.00000412
Ga      20.13935816      46.03282966      25.89349896      -0.00000882       0.00000937      -0.00001466
As      21.57790918      47.47139024      27.33198006      -0.00000356      -0.00000041       0.00000172
Ga      23.01641108      48.90988258      25.89349896      -0.00000715       0.00000924      -0.00001487
As      24.45496210      50.34844316      27.33198006      -0.00000582      -0.00000013       0.00000094
Ga      25.89346400      51.78693550      25.89349896       0.00000436       0.00000681      -0.00000892
As      27.33201502      53.22549608      27.33198006       0.00000549       0.00002161       0.00000133
Ga      28.77051692      54.66398842      25.89349896      -0.00000365      -0.00002140      -0.00000626
As      30.20906794      56.10254900      27.33198006      -0.00000505      -0.00000423       0.00000378
Ga      31.64756984      57.54104134      25.89349896       0.00000325       0.00000516      -0.00001115
As      33.08612086      58.97960192      27.33198006       0.00000555      -0.00000053       0.00000252
Ga       2.87704064      25.89345922      28.77055188       0.00000272       0.00000241      -0.00000441
As       4.31559166      27.33201980      30.20903298      -0.00001328       0.00000115       0.00000136
Ga       5.75409356      28.77051214      28.77055188       0.00000036       0.00000329      -0.00000217
As       7.19264458      30.20907272      30.20903298      -0.00000024       0.00000711       0.00000410
Ga       8.63114648      31.64756506      28.77055188       0.00000200      -0.00002012      -0.00000324
As      10.06969750      33.08612564      30.20903298       0.00000258       0.00000589       0.00000414
Ga      11.50819940      34.52461798      28.77055188      -0.00000276       0.00000625      -0.00000327
As      12.94675042      35.96317856      30.20903298      -0.00000093       0.00001641       0.00000395
Ga      14.38525232      37.40167090      28.77055188       0.00000164      -0.00001925      -0.00000418
As      15.82380334      38.84023148      30.20903298      -0.00000001      -0.00000511       0.00000519
Ga      17.26230524      40.27872382      28.77055188       0.00001293       0.00000285      -0.00000546
As      18.70085626      41.71728440      30.20903298      -0.00001084      -0.00000290       0.00000582
Ga      20.13935816      43.15577674      28.77055188      -0.00000033       0.00000326      -0.00000432
As      21.57790918      44.59433732      30.20903298      -0.00000056      -0.00000340       0.00000452
Ga      23.01641108      46.03282966      28.77055188       0.00000238       0.00000213      -0.00000284
As      24.45496210      47.47139024      30.20903298      -0.00000284      -0.00000282       0.00000416
Ga      25.89346400      48.90988258      28.77055188       0.00000515       0.00000129      -0.00000245
As      27.33201502      50.34844316      30.20903298       0.00000769      -0.00000177       0.00000324
Ga      28.77051692      51.78693550      28.77055188      -0.00000708       0.00000410      -0.00000267
As      30.20906794      53.22549608      30.20903298      -0.00000273       0.00001675       0.00000493
Ga      31.64756984      54.66398842      28.77055188       0.00000391      -0.00001922      -0.00000434
As      33.08612086      56.10254900      30.20903298       0.00000750      -0.00000431       0.00000410
Ga      34.52462276      57.54104134      28.77055188      -0.00001680       0.00000195      -0.00000419
As      35.96317378      58.97960192      30.20903298       0.00001625      -0.00000178       0.00000416
Ga       5.75409356      25.89345922      31.64760480       0.00000925      -0.00000187       0.00001138
As       7.19264458      27.33201980      33.08608590      -0.00001478      -0.00000074      -0.00000765
Ga       8.63114648      28.77051214      31.64760480       0.00000093       0.00000390       0.00000734
As      10.06969750      30.20907272      33.08608590       0.00000287       0.00000695      -0.00000469
Ga      11.50819940      31.64756506      31.64760480      -0.00000325      -0.00001958       0.00000658
As      12.94675042      33.08612564      33.08608590      -0.00000163       0.00000662      -0.00000618
Ga      14.38525232      34.52461798      31.64760480       0.00000125       0.00000649       0.00000649
As      15.82380334      35.96317856      33.08608590       0.00000060       0.00001807      -0.00000528
Ga      17.26230524      37.40167090      31.64760480       0.00001192      -0.00001923       0.00000618
As      18.70085626      38.84023148      33.08608590      -0.00001107      -0.00000418      -0.00000467
Ga      20.13935816      40.27872382      31.64760480      -0.00000153       0.00000257       0.00000588
As      21.57790918      41.71728440      33.08608590       0.00000004      -0.00000252      -0.00000548
Ga      23.01641108      43.15577674      31.64760480       0.00000103       0.00000330       0.00000647
As      24.45496210      44.59433732      33.08608590      -0.00000121      -0.00000261      -0.00000545
Ga      25.89346400      46.03282966      31.64760480       0.00000309       0.00000185       0.00000730
As      27.33201502      47.47139024      33.08608590       0.00000859      -0.00000117      -0.00000657
Ga      28.77051692      48.90988258      31.64760480      -0.00000954       0.00000098       0.00000788
As      30.20906794      50.34844316      33.08608590      -0.00000204      -0.00000253      -0.00000535
Ga      31.64756984      51.78693550      31.64760480       0.00000269       0.00000529       0.00000624
As      33.08612086      53.22549608      33.08608590       0.00000868       0.00001948      -0.00000578
Ga      34.52462276      54.66398842      31.64760480      -0.00001791      -0.00002081       0.00000715
As      35.96317378      56.10254900      33.08608590       0.00001576      -0.00000338      -0.00000596
Ga      37.40167568      57.54104134      31.64760480      -0.00001593       0.00000163       0.00000701
As      38.84022670      58.97960192      33.08608590       0.00001768      -0.00000082      -0.00000674
Ga       8.63114648      25.89345922      34.52465772       0.00001957       0.00000414      -0.00000804
As      10.06969750      27.33201980      35.96313882      -0.00001280       0.00000018       0.00000203
Ga      11.50819940      28.77051214      34.52465772      -0.00000238       0.00000501      -0.00000584
As      12.94675042      30.20907272      35.96313882      -0.00000101       0.00000667       0.00000421
Ga      14.38525232      31.64756506      34.52465772       0.00000143      -0.00002015      -0.00000522
As      15.82380334      33.08612564      35.96313882      -0.00000024       0.00000634       0.00000462
Ga      17.26230524      34.52461798      34.52465772       0.00001174       0.00000693      -0.00000597
As      18.70085626      35.96317856      35.96313882      -0.00001089       0.00001792       0.00000533
Ga      20.13935816      37.40167090      34.52465772      -0.00000078      -0.00001877      -0.00000626
As      21.57790918      38.84023148      35.96313882      -0.00000081      -0.00000526       0.00000490
Ga      23.01641108      40.27872382      34.52465772       0.00000145       0.00000372      -0.00000584
As      24.45496210      41.71728440      35.96313882      -0.00000222      -0.00000345       0.00000483
Ga      25.89346400      43.15577674      34.52465772       0.00000350       0.00000386      -0.00000624
As      27.33201502      44.59433732      35.96313882       0.00000800      -0.00000188       0.00000408
Ga      28.77051692      46.03282966      34.52465772      -0.00000911       0.00000172      -0.00000559
As      30.20906794      47.47139024      35.96313882      -0.00000202      -0.00000373       0.00000507
Ga      31.64756984      48.90988258      34.52465772       0.00000359       0.00000334      -0.00000620
As      33.08612086      50.34844316      35.96313882       0.00000805      -0.00000241       0.00000396
Ga      34.52462276      51.78693550      34.52465772      -0.00001818       0.00000426      -0.00000593
As      35.96317378      53.22549608      35.96313882       0.00001569       0.00001866       0.00000470
Ga      37.40167568      54.66398842      34.52465772      -0.00001620      -0.00002058      -0.00000541
As      38.84022670      56.10254900      35.96313882       0.00001758      -0.00000358       0.00000441
Ga      40.27872860      57.54104134      34.52465772       0.00000160       0.00000154      -0.00000604
As      41.71727962      58.97960192      35.96313882      -0.00002130      -0.00000133       0.00000459
Ga      11.50819940      25.89345922      37.40171064       0.00001984       0.00000291      -0.00000529
As      12.94675042      27.33201980      38.84019174      -0.00000629      -0.00000502       0.00000669
Ga      14.38525232      28.77051214      37.40171064      -0.00000164       0.00000414      -0.00000374
As      15.82380334      30.20907272      38.84019174       0.00000127       0.00000733       0.00000296
Ga      17.26230524      31.64756506      37.40171064       0.00001294      -0.00002090      -0.00000465
As      18.70085626      33.08612564      38.84019174      -0.00001195       0.00000632       0.00000375
Ga      20.13935816      34.52461798      37.40171064      -0.00000058       0.00000750      -0.00000502
As      21.57790918      35.96317856      38.84019174      -0.00000040       0.00001695       0.00000416
Ga      23.01641108      37.40167090      37.40171064       0.00000125      -0.00001862      -0.00000473
As      24.45496210      38.84023148      38.84019174      -0.00000202      -0.00000531       0.00000396
Ga      25.89346400      40.27872382      37.40171064       0.00000322       0.00000368      -0.00000481
As      27.33201502      41.71728440      38.84019174       0.00000820      -0.00000183       0.00000337
Ga      28.77051692      43.15577674      37.40171064      -0.00000951       0.00000284      -0.00000445
As      30.20906794      44.59433732      38.84019174      -0.00000202      -0.00000387       0.00000454
Ga      31.64756984      46.03282966      37.40171064       0.00000281       0.00000339      -0.00000552
As      33.08612086      47.47139024      38.84019174       0.00000784      -0.00000261       0.00000355
Ga      34.52462276      48.90988258      37.40171064      -0.00001837       0.00000173      -0.00000471
As      35.96317378      50.34844316      38.84019174       0.00001613      -0.00000246       0.00000355
Ga      37.40167568      51.78693550      37.40171064      -0.00001648       0.00000556      -0.00000430
As      38.84022670      53.22549608      38.84019174       0.00001774       0.00001803       0.00000351
Ga      40.27872860      54.66398842      37.40171064       0.00000161      -0.00001970      -0.00000448
As      41.71727962      56.10254900      38.84019174      -0.00002208      -0.00000364       0.00000343
Ga      43.15578152      57.54104134      37.40171064       0.00002015       0.00000156      -0.00000458
As      44.59433254      58.97960192      38.84019174      -0.00001889      -0.00000139       0.00000395
Ga      14.38525232      25.89345922      40.27876356      -0.00001906       0.00000189      -0.00000330
As      15.82380334      27.33201980      41.71724466       0.00001222      -0.00000578       0.00000854
Ga      17.26230524      28.77051214      40.27876356       0.00001168       0.00000526      -0.00000486
As      18.70085626      30.20907272      41.71724466      -0.00001059       0.00000715       0.00000717
Ga      20.13935816      31.64756506      40.27876356      -0.00000052      -0.00001980      -0.00000348
As      21.57790918      33.08612564      41.71724466      -0.00000035       0.00000551       0.00000629
Ga      23.01641108      34.52461798      40.27876356       0.00000125       0.00000823      -0.00000439
As      24.45496210      35.96317856      41.71724466      -0.00000170       0.00001659       0.00000593
Ga      25.89346400      37.40167090      40.27876356       0.00000289      -0.00001873      -0.00000391
As      27.33201502      38.84023148      41.71724466       0.00000817      -0.00000375       0.00000530
Ga      28.77051692      40.27872382      40.27876356      -0.00000916       0.00000248      -0.00000386
As      30.20906794      41.71728440      41.71724466      -0.00000190      -0.00000321       0.00000565
Ga      31.64756984      43.15577674      40.27876356       0.00000286       0.00000361      -0.00000455
As      33.08612086      44.59433732      41.71724466       0.00000756      -0.00000221       0.00000559
Ga      34.52462276      46.03282966      40.27876356      -0.00001764       0.00000188      -0.00000406
As      35.96317378      47.47139024      41.71724466       0.00001592      -0.00000212       0.00000585
Ga      37.40167568      48.90988258      40.27876356      -0.00001628       0.00000167      -0.00000353
As      38.84022670      50.34844316      41.71724466       0.00001742      -0.00000282       0.00000560
Ga      40.27872860      51.78693550      40.27876356       0.00000263       0.00000475      -0.00000416
As      41.71727962      53.22549608      41.71724466      -0.00002220       0.00001813       0.00000554
Ga      43.15578152      54.66398842      40.27876356       0.00002077      -0.00001986      -0.00000361
As      44.59433254      56.10254900      41.71724466      -0.00001966      -0.00000296       0.00000551
Ga      46.03283444      57.54104134      40.27876356       0.00002263       0.00000179      -0.00000461
As      47.47138546      58.97960192      41.71724466      -0.00000181      -0.00000079       0.00000568
Ga      17.26230524      25.89345922      43.15581648       0.00000195       0.00000222       0.00001795
As      18.70085626      27.33201980      44.59429758      -0.00001441       0.00000143      -0.00001991
Ga      20.13935816      28.77051214      43.15581648      -0.00000095       0.00000585       0.00001675
As      21.57790918      30.20907272      44.59429758      -0.00000038       0.00000582      -0.00001496
Ga      23.01641108      31.64756506      43.15581648       0.00000079      -0.00001895       0.00001710
As      24.45496210      33.08612564      44.59429758      -0.00000118       0.00000684      -0.00001663
Ga      25.89346400      34.52461798      43.15581648       0.00000217       0.00000782       0.00001772
As      27.33201502      35.96317856      44.59429758       0.00000803       0.00001774      -0.00001625
Ga      28.77051692      37.40167090      43.15581648      -0.00000868      -0.00001912       0.00001803
As      30.20906794      38.84023148      44.59429758      -0.00000192      -0.00000383      -0.00001659
Ga      31.64756984      40.27872382      43.15581648       0.00000163       0.00000243       0.00001853
As      33.08612086      41.71728440      44.59429758       0.00000817      -0.00000157      -0.00001630
Ga      34.52462276      43.15577674      43.15581648      -0.00001828       0.00000224       0.00001754
As      35.96317378      44.59433732      44.59429758       0.00001580      -0.00000220      -0.00001596
Ga      37.40167568      46.03282966      43.15581648      -0.00001662       0.00000232       0.00001808
As      38.84022670      47.47139024      44.59429758       0.00001763      -0.00000095      -0.00001566
Ga      40.27872860      48.90988258      43.15581648       0.00000199       0.00000132       0.00001743
As      41.71727962      50.34844316      44.59429758      -0.00002224      -0.00000214      -0.00001599
Ga      43.15578152      51.78693550      43.15581648       0.00002056       0.00000409       0.00001776
As      44.59433254      53.22549608      44.59429758      -0.00002049       0.00001876      -0.00001582
Ga      46.03283444      54.66398842      43.15581648       0.00002280      -0.00002019       0.00001784
As      47.47138546      56.10254900      44.59429758      -0.00000180      -0.00000230      -0.00001569
Ga      48.90988736      57.54104134      43.15581648      -0.00001984       0.00000163       0.00001739
As      50.34843838      58.97960192      44.59429758       0.00001656      -0.00000098      -0.00001658
Ga      20.13935816      25.89345922      46.03286940       0.00000884      -0.00000309      -0.00000306
As      21.57790918      27.33201980      47.47135050      -0.00001447      -0.00000148       0.00000403
Ga      23.01641108      28.77051214      46.03286940       0.00000190       0.00000662      -0.00000849
As      24.45496210      30.20907272      47.47135050      -0.00000210       0.00000610       0.00000582
Ga      25.89346400      31.64756506      46.03286940       0.00000337      -0.00001923      -0.00000704
As      27.33201502      33.08612564      47.47135050       0.00000728       0.00000630       0.00000446
Ga      28.77051692      34.52461798      46.03286940      -0.00000908       0.00000709      -0.00000635
As      30.20906794      35.96317856      47.47135050      -0.00000159       0.00001716       0.00000509
Ga      31.64756984      37.40167090      46.03286940       0.00000262      -0.00001841      -0.00000718
As      33.08612086      38.84023148      47.47135050       0.00000808      -0.00000424       0.00000440
Ga      34.52462276      40.27872382      46.03286940      -0.00001741       0.00000238      -0.00000716
As      35.96317378      41.71728440      47.47135050       0.00001567      -0.00000121       0.00000423
Ga      37.40167568      43.15577674      46.03286940      -0.00001593       0.00000206      -0.00000731
As      38.84022670      44.59433732      47.47135050       0.00001762      -0.00000208       0.00000402
Ga      40.27872860      46.03282966      46.03286940       0.00000257       0.00000181      -0.00000719
As      41.71727962      47.47139024      47.47135050      -0.00002226      -0.00000153       0.00000494
Ga      43.15578152      48.90988258      46.03286940       0.00002056       0.00000118      -0.00000730
As      44.59433254      50.34844316      47.47135050      -0.00002010      -0.00000200       0.00000465
Ga      46.03283444      51.78693550      46.03286940       0.00002298       0.00000344      -0.00000731
As      47.47138546      53.22549608      47.47135050      -0.00000156       0.00001930       0.00000506
Ga      48.90988736      54.66398842      46.03286940      -0.00001892      -0.00002028      -0.00000689
As      50.34843838      56.10254900      47.47135050       0.00001557      -0.00000343       0.00000462
Ga      51.78694028      57.54104134      46.03286940      -0.00001548       0.00000170      -0.00000736
As      53.22549130      58.97960192      47.47135050       0.00001597      -0.00000032       0.00000394
Ga      23.01641108      25.89345922      48.90992232       0.00000968      -0.00000172       0.00000013
As      24.45496210      27.33201980      50.34840342      -0.00001625      -0.00000246       0.00000389
Ga      25.89346400      28.77051214      48.90992232       0.00000405       0.00000632      -0.00000545
As      27.33201502      30.20907272      50.34840342       0.00000753       0.00000680       0.00000448
Ga      28.77051692      31.64756506      48.90992232      -0.00000828      -0.00001928      -0.00000402
As      30.20906794      33.08612564      50.34840342      -0.00000333       0.00000533       0.00000431
Ga      31.64756984      34.52461798      48.90992232       0.00000265       0.00000818      -0.00000415
As      33.08612086      35.96317856      50.34840342       0.00000809       0.00001817       0.00000324
Ga      34.52462276      37.40167090      48.90992232      -0.00001770      -0.00002017      -0.00000338
As      35.96317378      38.84023148      50.34840342       0.00001552      -0.00000359       0.00000373
Ga      37.40167568      40.27872382      48.90992232      -0.00001630       0.00000191      -0.00000361
As      38.84022670      41.71728440      50.34840342       0.00001760      -0.00000199       0.00000362
Ga      40.27872860      43.15577674      48.90992232       0.00000227       0.00000230      -0.00000299
As      41.71727962      44.59433732      50.34840342      -0.00002175      -0.00000165       0.00000323
Ga      43.15578152      46.03282966      48.90992232       0.00002044       0.00000104      -0.00000364
As      44.59433254      47.47139024      50.34840342      -0.00002026      -0.00000121       0.00000414
Ga      46.03283444      48.90988258      48.90992232       0.00002348       0.00000096      -0.00000435
As      47.47138546      50.34844316      50.34840342      -0.00000145      -0.00000182       0.00000459
Ga      48.90988736      51.78693550      48.90992232      -0.00001897       0.00000498      -0.00000394
As      50.34843838      53.22549608      50.34840342       0.00001609       0.00001862       0.00000419
Ga      51.78694028      54.66398842      48.90992232      -0.00001581      -0.00002048      -0.00000352
As      53.22549130      56.10254900      50.34840342       0.00001525      -0.00000350       0.00000399
Ga      54.66399320      57.54104134      48.90992232      -0.00001588       0.00000136      -0.00000375
As      56.10254422      58.97960192      50.34840342       0.00001692      -0.00000125       0.00000339
Ga      25.89346400      25.89345922      51.78697524       0.00002011       0.00000392      -0.00000544
As      27.33201502      27.33201980      53.22545634      -0.00000906       0.00000295      -0.00000070
Ga      28.77051692      28.77051214      51.78697524      -0.00000710       0.00000472      -0.00000364
As      30.20906794      30.20907272      53.22545634      -0.00000266       0.00000619       0.00000356
Ga      31.64756984      31.64756506      51.78697524       0.00000381      -0.00001875      -0.00000348
As      33.08612086      33.08612564      53.22545634       0.00000759       0.00000640       0.00000291
Ga      34.52462276      34.52461798      51.78697524      -0.00001823       0.00000586      -0.00000363
As      35.96317378      35.96317856      53.22545634       0.00001632       0.00001880       0.00000354
Ga      37.40167568      37.40167090      51.78697524      -0.00001683      -0.00002037      -0.00000372
As      38.84022670      38.84023148      53.22545634       0.00001746      -0.00000320       0.00000383
Ga      40.27872860      40.27872382      51.78697524       0.00000248       0.00000211      -0.00000350
As      41.71727962      41.71728440      53.22545634      -0.00002181      -0.00000113       0.00000368
Ga      43.15578152      43.15577674      51.78697524       0.00002021       0.00000147      -0.00000415
As      44.59433254      44.59433732      53.22545634      -0.00001979      -0.00000172       0.00000392
Ga      46.03283444      46.03282966      51.78697524       0.00002386       0.00000152      -0.00000425
As      47.47138546      47.47139024      53.22545634      -0.00000174      -0.00000182       0.00000381
Ga      48.90988736      48.90988258      51.78697524      -0.00001915       0.00000188      -0.00000404
As      50.34843838      50.34844316      53.22545634       0.00001654      -0.00000233       0.00000382
Ga      51.78694028      51.78693550      51.78697524      -0.00001701       0.00000488      -0.00000424
As      53.22549130      53.22549608      53.22545634       0.00001602       0.00001892       0.00000392
Ga      54.66399320      54.66398842      51.78697524      -0.00001649      -0.00002036      -0.00000380
As      56.10254422      56.10254900      53.22545634       0.00001748      -0.00000307       0.00000405
Ga      57.54104612      57.54104134      51.78697524       0.00000245       0.00000116      -0.00000380
As      58.97959714      58.97960192      53.22545634      -0.00002152      -0.00000133       0.00000391
Ga      28.77051692      25.89345922      54.66402816       0.00001755       0.00000346      -0.00000516
As      30.20906794      27.33201980      56.10250926      -0.00001539      -0.00000019       0.00000137
Ga      31.64756984      28.77051214      54.66402816       0.00000329       0.00000480      -0.00000292
As      33.08612086      30.20907272      56.10250926       0.00000796       0.00000833       0.00000202
Ga      34.52462276      31.64756506      54.66402816      -0.00001949      -0.00002061      -0.00000373
As      35.96317378      33.08612564      56.10250926       0.00001674       0.00000751       0.00000353
Ga      37.40167568      34.52461798      54.66402816      -0.00001735       0.00000657      -0.00000339
As      38.84022670      35.96317856      56.10250926       0.00001814       0.00001856       0.00000276
Ga      40.27872860      37.40167090      54.66402816       0.00000105      -0.00002043      -0.00000356
As      41.71727962      38.84023148      56.10250926      -0.00002117      -0.00000313       0.00000305
Ga      43.15578152      40.27872382      54.66402816       0.00001975       0.00000162      -0.00000360
As      44.59433254      41.71728440      56.10250926      -0.00001935      -0.00000052       0.00000308
Ga      46.03283444      43.15577674      54.66402816       0.00002295       0.00000171      -0.00000386
As      47.47138546      44.59433732      56.10250926      -0.00000169      -0.00000221       0.00000426
Ga      48.90988736      46.03282966      54.66402816      -0.00001943       0.00000292      -0.00000435
As      50.34843838      47.47139024      56.10250926       0.00001609      -0.00000263       0.00000355
Ga      51.78694028      48.90988258      54.66402816      -0.00001596       0.00000224      -0.00000462
As      53.22549130      50.34844316      56.10250926       0.00001574      -0.00000302       0.00000318
Ga      54.66399320      51.78693550      54.66402816      -0.00001688       0.00000507      -0.00000415
As      56.10254422      53.22549608      56.10250926       0.00001776       0.00001870       0.00000294
Ga      57.54104612      54.66398842      54.66402816       0.00000146      -0.00002022      -0.00000379
As      58.97959714      56.10254900      56.10250926      -0.00002135      -0.00000329       0.00000336
Ga      60.41809904      57.54104134      54.66402816       0.00001931       0.00000193      -0.00000411
As      61.85665006      58.97960192      56.10250926      -0.00001820      -0.00000134       0.00000365
Ga      31.64756984      25.89345922      57.54108108       0.00002059       0.00000232      -0.00000204
As      33.08612086      27.33201980      58.97956218       0.00000603      -0.00000864       0.00001385
Ga      34.52462276      28.77051214      57.54108108      -0.00001940       0.00000280      -0.00000053
As      35.96317378      30.20907272      58.97956218       0.00002424       0.00000133       0.00001251
Ga      37.40167568      31.64756506      57.54108108      -0.00001779      -0.00002041      -0.00000187
As      38.84022670      33.08612564      58.97956218       0.00002466       0.00000075       0.00001429
Ga      40.27872860      34.52461798      57.54108108       0.00000182       0.00000561      -0.00000200
As      41.71727962      35.96317856      58.97956218      -0.00001477       0.00001346       0.00001236
Ga      43.15578152      37.40167090      57.54108108       0.00001981      -0.00002102      -0.00000125
As      44.59433254      38.84023148      58.97956218      -0.00001243      -0.00000754       0.00001221
Ga      46.03283444      40.27872382      57.54108108       0.00002118       0.00000142      -0.00000274
As      47.47138546      41.71728440      58.97956218      -0.00000438      -0.00000128       0.00000811
Ga      48.90988736      43.15577674      57.54108108      -0.00001893       0.00000286      -0.00000309
As      50.34843838      44.59433732      58.97956218       0.00001382      -0.00000251       0.00000839
Ga      51.78694028      46.03282966      57.54108108      -0.00001435       0.00000320      -0.00000298
As      53.22549130      47.47139024      58.97956218       0.00002268      -0.00000873       0.00001476
Ga      54.66399320      48.90988258      57.54108108      -0.00001620       0.00000277      -0.00000242
As      56.10254422      50.34844316      58.97956218       0.00002324      -0.00000925       0.00001385
Ga      57.54104612      51.78693550      57.54108108       0.00000204       0.00000465      -0.00000222
As      58.97959714      53.22549608      58.97956218      -0.00001622       0.00001373       0.00001215
Ga      60.41809904      54.66398842      57.54108108       0.00001993      -0.00002057      -0.00000108
As      61.85665006      56.10254900      58.97956218      -0.00001287      -0.00000795       0.00001215
Ga      63.29515196      57.54104134      57.54108108       0.00001928       0.00000088      -0.00000164
As      64.73370298      58.97960192      58.97956218      -0.00001319      -0.00000599       0.00001258
Ga      -0.00001228      28.77051214      28.77055188      -0.00001387       0.00000094       0.00000315
As       1.43853874      30.20907272      30.20903298       0.00001102       0.00000615       0.00001252
Ga       2.87704064      31.64756506      28.77055188       0.00000332      -0.00002394       0.00000304
As       4.31559166      33.08612564      30.20903298       0.00000135       0.00000402       0.00000647
Ga       5.75409356      34.52461798      28.77055188       0.00000130       0.00000273       0.00000431
As       7.19264458      35.96317856      30.20903298       0.00000088       0.00001739       0.00000366
Ga       8.63114648      37.40167090      28.77055188       0.00001177      -0.00003016       0.00001095
As      10.06969750      38.84023148      30.20903298       0.00000444      -0.00000649       0.00000620
Ga      11.50819940      40.27872382      28.77055188       0.00001015      -0.00000711       0.00000963
As      12.94675042      41.71728440      30.20903298      -0.00000000      -0.00000613       0.00000821
Ga      14.38525232      43.15577674      28.77055188       0.00000977      -0.00000444       0.00000669
As      15.82380334      44.59433732      30.20903298       0.00000274      -0.00000637       0.00000853
Ga      17.26230524      46.03282966      28.77055188       0.00002149      -0.00000684       0.00000746
As      18.70085626      47.47139024      30.20903298      -0.00000784      -0.00000559       0.00000838
Ga      20.13935816      48.90988258      28.77055188       0.00000169      -0.00000126       0.00000287
As      21.57790918      50.34844316      30.20903298       0.00000123      -0.00000476       0.00000514
Ga      23.01641108      51.78693550      28.77055188       0.00000317       0.00000209       0.00000289
As      24.45496210      53.22549608      30.20903298      -0.00000097       0.00001632       0.00000529
Ga      25.89346400      54.66398842      28.77055188       0.00001528      -0.00002928       0.00000897
As      27.33201502      56.10254900      30.20903298       0.00000939      -0.00000496       0.00000472
Ga      28.77051692      57.54104134      28.77055188       0.00000742      -0.00000974       0.00001115
As      30.20906794      58.97960192      30.20903298      -0.00000112      -0.00000697       0.00000788
Ga      31.64756984      60.41809426      28.77055188       0.00001380      -0.00000483       0.00000705
As      33.08612086      61.85665484      30.20903298       0.00000971      -0.00000348       0.00000676
Ga       2.87704064      28.77051214      31.64760480       0.00000056       0.00000611       0.00000566
As       4.31559166      30.20907272      33.08608590      -0.00001717       0.00001347      -0.00000555
Ga       5.75409356      31.64756506      31.64760480      -0.00000043      -0.00001814       0.00000582
As       7.19264458      33.08612564      33.08608590       0.00000079       0.00000531      -0.00000578
Ga       8.63114648      34.52461798      31.64760480      -0.00000048       0.00000670       0.00000712
As      10.06969750      35.96317856      33.08608590       0.00000349       0.00001783      -0.00000545
Ga      11.50819940      37.40167090      31.64760480      -0.00000521      -0.00001845       0.00000561
As      12.94675042      38.84023148      33.08608590      -0.00000045      -0.00000475      -0.00000507
Ga      14.38525232      40.27872382      31.64760480      -0.00000032       0.00000464       0.00000509
As      15.82380334      41.71728440      33.08608590       0.00000102      -0.00000313      -0.00000476
Ga      17.26230524      43.15577674      31.64760480       0.00001078       0.00000470       0.00000484
As      18.70085626      44.59433732      33.08608590      -0.00001045      -0.00000319      -0.00000497
Ga      20.13935816      46.03282966      31.64760480      -0.00000273       0.00000368       0.00000545
As      21.57790918      47.47139024      33.08608590       0.00000086      -0.00000276      -0.00000484
Ga      23.01641108      48.90988258      31.64760480      -0.00000014       0.00000226       0.00000656
As      24.45496210      50.34844316      33.08608590      -0.00000113      -0.00000298      -0.00000621
Ga      25.89346400      51.78693550      31.64760480       0.00000267       0.00000481       0.00000703
As      27.33201502      53.22549608      33.08608590       0.00000845       0.00001952      -0.00000625
Ga      28.77051692      54.66398842      31.64760480      -0.00000927      -0.00002003       0.00000700
As      30.20906794      56.10254900      33.08608590      -0.00000190      -0.00000488      -0.00000490
Ga      31.64756984      57.54104134      31.64760480       0.00000211       0.00000369       0.00000526
As      33.08612086      58.97960192      33.08608590       0.00000884      -0.00000222      -0.00000499
Ga      34.52462276      60.41809426      31.64760480      -0.00001933       0.00000342       0.00000625
As      35.96317378      61.85665484      33.08608590       0.00001775      -0.00000109      -0.00000544
Ga       5.75409356      28.77051214      34.52465772       0.00000975       0.00000015      -0.00000102
As       7.19264458      30.20907272      35.96313882      -0.00001717       0.00001262       0.00000583
Ga       8.63114648      31.64756506      34.52465772       0.00000082      -0.00001956      -0.00000603
As      10.06969750      33.08612564      35.96313882       0.00000241       0.00000490       0.00000544
Ga      11.50819940      34.52461798      34.52465772      -0.00000384       0.00000778      -0.00000535
As      12.94675042      35.96317856      35.96313882      -0.00000147       0.00001704       0.00000473
Ga      14.38525232      37.40167090      34.52465772       0.00000108      -0.00001876      -0.00000570
As      15.82380334      38.84023148      35.96313882      -0.00000025      -0.00000550       0.00000513
Ga      17.26230524      40.27872382      34.52465772       0.00001229       0.00000338      -0.00000737
As      18.70085626      41.71728440      35.96313882      -0.00001053      -0.00000283       0.00000550
Ga      20.13935816      43.15577674      34.52465772      -0.00000107       0.00000379      -0.00000654
As      21.57790918      44.59433732      35.96313882      -0.00000027      -0.00000398       0.00000530
Ga      23.01641108      46.03282966      34.52465772       0.00000110       0.00000351      -0.00000675
As      24.45496210      47.47139024      35.96313882      -0.00000206      -0.00000367       0.00000528
Ga      25.89346400      48.90988258      34.52465772       0.00000364       0.00000349      -0.00000621
As      27.33201502      50.34844316      35.96313882       0.00000803      -0.00000257       0.00000389
Ga      28.77051692      51.78693550      34.52465772      -0.00000916       0.00000456      -0.00000505
As      30.20906794      53.22549608      35.96313882      -0.00000229       0.00001707       0.00000557
Ga      31.64756984      54.66398842      34.52465772       0.00000351      -0.00001882      -0.00000646
As      33.08612086      56.10254900      35.96313882       0.00000721      -0.00000442       0.00000432
Ga      34.52462276      57.54104134      34.52465772      -0.00001770       0.00000271      -0.00000620
As      35.96317378      58.97960192      35.96313882       0.00001580      -0.00000229       0.00000460
Ga      37.40167568      60.41809426      34.52465772      -0.00001636       0.00000264      -0.00000546
As      38.84022670      61.85665484      35.96313882       0.00001642      -0.00000134       0.00000411
Ga       8.63114648      28.77051214      37.40171064       0.00001904       0.00000639      -0.00000612
As      10.06969750      30.20907272      38.84019174      -0.00001562       0.00001432       0.00000354
Ga      11.50819940      31.64756506      37.40171064      -0.00000283      -0.00002009      -0.00000450
As      12.94675042      33.08612564      38.84019174      -0.00000148       0.00000629       0.00000297
Ga      14.38525232      34.52461798      37.40171064       0.00000074       0.00000741      -0.00000436
As      15.82380334      35.96317856      38.84019174       0.00000022       0.00001684       0.00000335
Ga      17.26230524      37.40167090      37.40171064       0.00001166      -0.00001913      -0.00000523
As      18.70085626      38.84023148      38.84019174      -0.00001059      -0.00000453       0.00000429
Ga      20.13935816      40.27872382      37.40171064      -0.00000084       0.00000348      -0.00000510
As      21.57790918      41.71728440      38.84019174      -0.00000064      -0.00000315       0.00000346
Ga      23.01641108      43.15577674      37.40171064       0.00000143       0.00000387      -0.00000484
As      24.45496210      44.59433732      38.84019174      -0.00000214      -0.00000347       0.00000382
Ga      25.89346400      46.03282966      37.40171064       0.00000374       0.00000289      -0.00000465
As      27.33201502      47.47139024      38.84019174       0.00000781      -0.00000197       0.00000260
Ga      28.77051692      48.90988258      37.40171064      -0.00000867       0.00000212      -0.00000363
As      30.20906794      50.34844316      38.84019174      -0.00000226      -0.00000377       0.00000398
Ga      31.64756984      51.78693550      37.40171064       0.00000284       0.00000576      -0.00000465
As      33.08612086      53.22549608      38.84019174       0.00000767       0.00001811       0.00000294
Ga      34.52462276      54.66398842      37.40171064      -0.00001693      -0.00001984      -0.00000423
As      35.96317378      56.10254900      38.84019174       0.00001559      -0.00000407       0.00000292
Ga      37.40167568      57.54104134      37.40171064      -0.00001614       0.00000173      -0.00000439
As      38.84022670      58.97960192      38.84019174       0.00001777      -0.00000202       0.00000288
Ga      40.27872860      60.41809426      37.40171064       0.00000190       0.00000248      -0.00000401
As      41.71727962      61.85665484      38.84019174      -0.00002116      -0.00000137       0.00000428
Ga      11.50819940      28.77051214      40.27876356       0.00001953       0.00000556      -0.00000425
As      12.94675042      30.20907272      41.71724466      -0.00000807       0.00000873       0.00001151
Ga      14.38525232      31.64756506      40.27876356      -0.00000168      -0.00002135      -0.00000228
As      15.82380334      33.08612564      41.71724466       0.00000114       0.00000639       0.00000577
Ga      17.26230524      34.52461798      40.27876356       0.00001145       0.00000727      -0.00000433
As      18.70085626      35.96317856      41.71724466      -0.00001039       0.00001684       0.00000696
Ga      20.13935816      37.40167090      40.27876356      -0.00000111      -0.00001897      -0.00000455
As      21.57790918      38.84023148      41.71724466       0.00000025      -0.00000533       0.00000682
Ga      23.01641108      40.27872382      40.27876356       0.00000070       0.00000388      -0.00000461
As      24.45496210      41.71728440      41.71724466      -0.00000129      -0.00000359       0.00000700
Ga      25.89346400      43.15577674      40.27876356       0.00000289       0.00000373      -0.00000487
As      27.33201502      44.59433732      41.71724466       0.00000856      -0.00000277       0.00000594
Ga      28.77051692      46.03282966      40.27876356      -0.00000922       0.00000248      -0.00000376
As      30.20906794      47.47139024      41.71724466      -0.00000150      -0.00000418       0.00000710
Ga      31.64756984      48.90988258      40.27876356       0.00000271       0.00000382      -0.00000492
As      33.08612086      50.34844316      41.71724466       0.00000879      -0.00000329       0.00000589
Ga      34.52462276      51.78693550      40.27876356      -0.00001837       0.00000532      -0.00000363
As      35.96317378      53.22549608      41.71724466       0.00001574       0.00001745       0.00000645
Ga      37.40167568      54.66398842      40.27876356      -0.00001660      -0.00001934      -0.00000424
As      38.84022670      56.10254900      41.71724466       0.00001905      -0.00000433       0.00000660
Ga      40.27872860      57.54104134      40.27876356       0.00000161       0.00000231      -0.00000424
As      41.71727962      58.97960192      41.71724466      -0.00002139      -0.00000212       0.00000644
Ga      43.15578152      60.41809426      40.27876356       0.00001939       0.00000253      -0.00000486
As      44.59433254      61.85665484      41.71724466      -0.00001851      -0.00000257       0.00000717
Ga      14.38525232      28.77051214      43.15581648      -0.00001951       0.00000383       0.00001791
As      15.82380334      30.20907272      44.59429758       0.00000970       0.00000964      -0.00001078
Ga      17.26230524      31.64756506      43.15581648       0.00001207      -0.00002084       0.00001655
As      18.70085626      33.08612564      44.59429758      -0.00001123       0.00000746      -0.00001660
Ga      20.13935816      34.52461798      43.15581648      -0.00000140       0.00000718       0.00001735
As      21.57790918      35.96317856      44.59429758       0.00000114       0.00001789      -0.00001678
Ga      23.01641108      37.40167090      43.15581648       0.00000001      -0.00001977       0.00001800
As      24.45496210      38.84023148      44.59429758      -0.00000194      -0.00000394      -0.00001680
Ga      25.89346400      40.27872382      43.15581648       0.00000242       0.00000222       0.00001794
As      27.33201502      41.71728440      44.59429758       0.00000773      -0.00000126      -0.00001734
Ga      28.77051692      43.15577674      43.15581648      -0.00000851       0.00000237       0.00001858
As      30.20906794      44.59433732      44.59429758      -0.00000162      -0.00000180      -0.00001647
Ga      31.64756984      46.03282966      43.15581648       0.00000186       0.00000224       0.00001794
As      33.08612086      47.47139024      44.59429758       0.00000764      -0.00000152      -0.00001678
Ga      34.52462276      48.90988258      43.15581648      -0.00001805       0.00000146       0.00001722
As      35.96317378      50.34844316      44.59429758       0.00001572      -0.00000152      -0.00001587
Ga      37.40167568      51.78693550      43.15581648      -0.00001634       0.00000480       0.00001742
As      38.84022670      53.22549608      44.59429758       0.00001676       0.00001848      -0.00001571
Ga      40.27872860      54.66398842      43.15581648       0.00000176      -0.00001928       0.00001679
As      41.71727962      56.10254900      44.59429758      -0.00002285      -0.00000274      -0.00001680
Ga      43.15578152      57.54104134      43.15581648       0.00002065       0.00000190       0.00001706
As      44.59433254      58.97960192      44.59429758      -0.00002068      -0.00000082      -0.00001638
Ga      46.03283444      60.41809426      43.15581648       0.00002234       0.00000226       0.00001696
As      47.47138546      61.85665484      44.59429758      -0.00000258       0.00000025      -0.00001672
Ga      17.26230524      28.77051214      46.03286940       0.00000194       0.00000394      -0.00000652
As      18.70085626      30.20907272      47.47135050      -0.00001732       0.00001436       0.00000430
Ga      20.13935816      31.64756506      46.03286940       0.00000048      -0.00001931      -0.00000760
As      21.57790918      33.08612564      47.47135050      -0.00000070       0.00000479       0.00000564
Ga      23.01641108      34.52461798      46.03286940       0.00000055       0.00000867      -0.00000732
As      24.45496210      35.96317856      47.47135050      -0.00000157       0.00001677       0.00000534
Ga      25.89346400      37.40167090      46.03286940       0.00000327      -0.00001883      -0.00000740
As      27.33201502      38.84023148      47.47135050       0.00000733      -0.00000386       0.00000397
Ga      28.77051692      40.27872382      46.03286940      -0.00000791       0.00000204      -0.00000699
As      30.20906794      41.71728440      47.47135050      -0.00000216      -0.00000314       0.00000562
Ga      31.64756984      43.15577674      46.03286940       0.00000256       0.00000343      -0.00000821
As      33.08612086      44.59433732      47.47135050       0.00000794      -0.00000223       0.00000401
Ga      34.52462276      46.03282966      46.03286940      -0.00001770       0.00000207      -0.00000726
As      35.96317378      47.47139024      47.47135050       0.00001578      -0.00000189       0.00000451
Ga      37.40167568      48.90988258      46.03286940      -0.00001614       0.00000134      -0.00000686
As      38.84022670      50.34844316      47.47135050       0.00001779      -0.00000269       0.00000461
Ga      40.27872860      51.78693550      46.03286940       0.00000179       0.00000398      -0.00000696
As      41.71727962      53.22549608      47.47135050      -0.00002237       0.00001836       0.00000495
Ga      43.15578152      54.66398842      46.03286940       0.00002126      -0.00001983      -0.00000677
As      44.59433254      56.10254900      47.47135050      -0.00002006      -0.00000298       0.00000452
Ga      46.03283444      57.54104134      46.03286940       0.00002383       0.00000119      -0.00000702
As      47.47138546      58.97960192      47.47135050      -0.00000135      -0.00000195       0.00000444
Ga      48.90988736      60.41809426      46.03286940      -0.00001966       0.00000250      -0.00000671
As      50.34843838      61.85665484      47.47135050       0.00001631      -0.00000094       0.00000423
Ga      20.13935816      28.77051214      48.90992232       0.00000881      -0.00000034       0.00000131
As      21.57790918      30.20907272      50.34840342      -0.00001661       0.00001298       0.00000527
Ga      23.01641108      31.64756506      48.90992232       0.00000160      -0.00001947      -0.00000462
As      24.45496210      33.08612564      50.34840342      -0.00000239       0.00000522       0.00000520
Ga      25.89346400      34.52461798      48.90992232       0.00000350       0.00000849      -0.00000490
As      27.33201502      35.96317856      50.34840342       0.00000777       0.00001784       0.00000368
Ga      28.77051692      37.40167090      48.90992232      -0.00000804      -0.00001979      -0.00000367
As      30.20906794      38.84023148      50.34840342      -0.00000254      -0.00000507       0.00000474
Ga      31.64756984      40.27872382      48.90992232       0.00000306       0.00000299      -0.00000420
As      33.08612086      41.71728440      50.34840342       0.00000800      -0.00000173       0.00000359
Ga      34.52462276      43.15577674      48.90992232      -0.00001771       0.00000218      -0.00000353
As      35.96317378      44.59433732      50.34840342       0.00001579      -0.00000179       0.00000398
Ga      37.40167568      46.03282966      48.90992232      -0.00001619       0.00000201      -0.00000347
As      38.84022670      47.47139024      50.34840342       0.00001728      -0.00000189       0.00000408
Ga      40.27872860      48.90988258      48.90992232       0.00000226       0.00000181      -0.00000360
As      41.71727962      50.34844316      50.34840342      -0.00002198      -0.00000188       0.00000389
Ga      43.15578152      51.78693550      48.90992232       0.00002031       0.00000369      -0.00000373
As      44.59433254      53.22549608      50.34840342      -0.00002014       0.00001877       0.00000451
Ga      46.03283444      54.66398842      48.90992232       0.00002365      -0.00001942      -0.00000411
As      47.47138546      56.10254900      50.34840342      -0.00000184      -0.00000357       0.00000405
Ga      48.90988736      57.54104134      48.90992232      -0.00001920       0.00000191      -0.00000343
As      50.34843838      58.97960192      50.34840342       0.00001656      -0.00000203       0.00000388
Ga      51.78694028      60.41809426      48.90992232      -0.00001627       0.00000166      -0.00000357
As      53.22549130      61.85665484      50.34840342       0.00001588      -0.00000067       0.00000301
Ga      23.01641108      28.77051214      51.78697524       0.00000961       0.00000057       0.00000013
As      24.45496210      30.20907272      53.22545634      -0.00001803       0.00001205       0.00000644
Ga      25.89346400      31.64756506      51.78697524       0.00000397      -0.00001972      -0.00000449
As      27.33201502      33.08612564      53.22545634       0.00000735       0.00000546       0.00000402
Ga      28.77051692      34.52461798      51.78697524      -0.00000763       0.00000717      -0.00000359
As      30.20906794      35.96317856      53.22545634      -0.00000244       0.00001695       0.00000432
Ga      31.64756984      37.40167090      51.78697524       0.00000306      -0.00001867      -0.00000427
As      33.08612086      38.84023148      53.22545634       0.00000732      -0.00000398       0.00000299
Ga      34.52462276      40.27872382      51.78697524      -0.00001768       0.00000184      -0.00000390
As      35.96317378      41.71728440      53.22545634       0.00001589      -0.00000131       0.00000339
Ga      37.40167568      43.15577674      51.78697524      -0.00001624       0.00000206      -0.00000382
As      38.84022670      44.59433732      53.22545634       0.00001764      -0.00000199       0.00000367
Ga      40.27872860      46.03282966      51.78697524       0.00000211       0.00000153      -0.00000385
As      41.71727962      47.47139024      53.22545634      -0.00002189      -0.00000129       0.00000337
Ga      43.15578152      48.90988258      51.78697524       0.00002056       0.00000117      -0.00000401
As      44.59433254      50.34844316      53.22545634      -0.00001958      -0.00000191       0.00000411
Ga      46.03283444      51.78693550      51.78697524       0.00002306       0.00000373      -0.00000355
As      47.47138546      53.22549608      53.22545634      -0.00000216       0.00001888       0.00000412
Ga      48.90988736      54.66398842      51.78697524      -0.00001864      -0.00001982      -0.00000419
As      50.34843838      56.10254900      53.22545634       0.00001663      -0.00000361       0.00000360
Ga      51.78694028      57.54104134      51.78697524      -0.00001624       0.00000183      -0.00000375
As      53.22549130      58.97960192      53.22545634       0.00001550      -0.00000226       0.00000403
Ga      54.66399320      60.41809426      51.78697524      -0.00001630       0.00000154      -0.00000335
As      56.10254422      61.85665484      53.22545634       0.00001690      -0.00000087       0.00000333
Ga      25.89346400      28.77051214      54.66402816       0.00001982       0.00000540      -0.00000577
As      27.33201502      30.20907272      56.10250926      -0.00001190       0.00001681       0.00000121
Ga      28.77051692      31.64756506      54.66402816      -0.00000659      -0.00002047      -0.00000363
As      30.20906794      33.08612564      56.10250926      -0.00000330       0.00000589       0.00000329
Ga      31.64756984      34.52461798      54.66402816       0.00000354       0.00000787      -0.00000466
As      33.08612086      35.96317856      56.10250926       0.00000776       0.00001851       0.00000216
Ga      34.52462276      37.40167090      54.66402816      -0.00001715      -0.00002027      -0.00000368
As      35.96317378      38.84023148      56.10250926       0.00001603      -0.00000352       0.00000281
Ga      37.40167568      40.27872382      54.66402816      -0.00001634       0.00000187      -0.00000403
As      38.84022670      41.71728440      56.10250926       0.00001779      -0.00000171       0.00000320
Ga      40.27872860      43.15577674      54.66402816       0.00000245       0.00000187      -0.00000426
As      41.71727962      44.59433732      56.10250926      -0.00002200      -0.00000170       0.00000283
Ga      43.15578152      46.03282966      54.66402816       0.00002059       0.00000119      -0.00000388
As      44.59433254      47.47139024      56.10250926      -0.00002015      -0.00000135       0.00000352
Ga      46.03283444      48.90988258      54.66402816       0.00002368       0.00000124      -0.00000408
As      47.47138546      50.34844316      56.10250926      -0.00000165      -0.00000173       0.00000347
Ga      48.90988736      51.78693550      54.66402816      -0.00001884       0.00000442      -0.00000354
As      50.34843838      53.22549608      56.10250926       0.00001588       0.00001813       0.00000372
Ga      51.78694028      54.66398842      54.66402816      -0.00001630      -0.00001995      -0.00000424
As      53.22549130      56.10254900      56.10250926       0.00001560      -0.00000375       0.00000319
Ga      54.66399320      57.54104134      54.66402816      -0.00001675       0.00000125      -0.00000415
As      56.10254422      58.97960192      56.10250926       0.00001802      -0.00000227       0.00000315
Ga      57.54104612      60.41809426      54.66402816       0.00000212       0.00000143      -0.00000362
As      58.97959714      61.85665484      56.10250926      -0.00002178      -0.00000099       0.00000400
Ga      28.77051692      28.77051214      57.54108108       0.00001789       0.00000554      -0.00000487
As      30.20906794      30.20907272      58.97956218      -0.00001794       0.00001457       0.00000783
Ga      31.64756984      31.64756506      57.54108108       0.00000348      -0.00002128      -0.00000313
As      33.08612086      33.08612564      58.97956218       0.00000803       0.00000730       0.00000633
Ga      34.52462276      34.52461798      57.54108108      -0.00001788       0.00000626      -0.00000333
As      35.96317378      35.96317856      58.97956218       0.00001549       0.00001852       0.00000693
Ga      37.40167568      37.40167090      57.54108108      -0.00001703      -0.00002055      -0.00000359
As      38.84022670      38.84023148      58.97956218       0.00001804      -0.00000274       0.00000701
Ga      40.27872860      40.27872382      57.54108108       0.00000135       0.00000156      -0.00000380
As      41.71727962      41.71728440      58.97956218      -0.00002122      -0.00000065       0.00000757
Ga      43.15578152      43.15577674      57.54108108       0.00002013       0.00000165      -0.00000442
As      44.59433254      44.59433732      58.97956218      -0.00001899      -0.00000145       0.00000793
Ga      46.03283444      46.03282966      57.54108108       0.00002316       0.00000171      -0.00000445
As      47.47138546      47.47139024      58.97956218      -0.00000209      -0.00000206       0.00000834
Ga      48.90988736      48.90988258      57.54108108      -0.00001922       0.00000181      -0.00000429
As      50.34843838      50.34844316      58.97956218       0.00001628      -0.00000321       0.00000809
Ga      51.78694028      51.78693550      57.54108108      -0.00001606       0.00000525      -0.00000447
As      53.22549130      53.22549608      58.97956218       0.00001448       0.00001856       0.00000794
Ga      54.66399320      54.66398842      57.54108108      -0.00001675      -0.00001981      -0.00000444
As      56.10254422      56.10254900      58.97956218       0.00001788      -0.00000352       0.00000749
Ga      57.54104612      57.54104134      57.54108108       0.00000131       0.00000171      -0.00000444
As      58.97959714      58.97960192      58.97956218      -0.00002168      -0.00000147       0.00000760
Ga      60.41809904      60.41809426      57.54108108       0.00001916       0.00000189      -0.00000446
As      61.85665006      61.85665484      58.97956218      -0.00001866      -0.00000100       0.00000843
Ga      31.64756984      28.77051214      60.41813400       0.00002161       0.00000346       0.00001283
As      33.08612086      30.20907272      61.85661510      -0.00000545       0.00001216      -0.00003021
Ga      34.52462276      31.64756506      60.41813400      -0.00001813      -0.00002215       0.00001395
As      35.96317378      33.08612564      61.85661510       0.00001553       0.00000728      -0.00003557
Ga      37.40167568      34.52461798      60.41813400      -0.00001565       0.00000501       0.00001288
As      38.84022670      35.96317856      61.85661510       0.00001586       0.00001958      -0.00003413
Ga      40.27872860      37.40167090      60.41813400       0.00000263      -0.00002095       0.00001275
As      41.71727962      38.84023148      61.85661510      -0.00002344      -0.00000044      -0.00003701
Ga      43.15578152      40.27872382      60.41813400       0.00002076       0.00000016       0.00001315
As      44.59433254      41.71728440      61.85661510      -0.00002127       0.00000208      -0.00003648
Ga      46.03283444      43.15577674      60.41813400       0.00002196       0.00000104       0.00001265
As      47.47138546      44.59433732      61.85661510      -0.00001213       0.00000562      -0.00004110
Ga      48.90988736      46.03282966      60.41813400      -0.00001811       0.00000177       0.00001217
As      50.34843838      47.47139024      61.85661510       0.00000703       0.00000498      -0.00004092
Ga      51.78694028      48.90988258      60.41813400      -0.00001412       0.00000127       0.00001165
As      53.22549130      50.34844316      61.85661510       0.00001548      -0.00000198      -0.00003474
Ga      54.66399320      51.78693550      60.41813400      -0.00001482       0.00000407       0.00001222
As      56.10254422      53.22549608      61.85661510       0.00001482       0.00001965      -0.00003370
Ga      57.54104612      54.66398842      60.41813400       0.00000325      -0.00002113       0.00001231
As      58.97959714      56.10254900      61.85661510      -0.00002392      -0.00000034      -0.00003627
Ga      60.41809904      57.54104134      60.41813400       0.00002106      -0.00000028       0.00001285
As      61.85665006      58.97960192      61.85661510      -0.00002105       0.00000114      -0.00003656
Ga      63.29515196      60.41809426      60.41813400       0.00002044       0.00000042       0.00001302
As      64.73370298      61.85665484      61.85661510      -0.00002124       0.00000201      -0.00003592
Ga      -0.00001228      31.64756506      31.64760480      -0.00002203      -0.00002305      -0.00000900
As       1.43853874      33.08612564      33.08608590       0.00001363       0.00001454      -0.00000601
Ga       2.87704064      34.52461798      31.64760480      -0.00000958       0.00001693      -0.00000566
As       4.31559166      35.96317856      33.08608590      -0.00000311       0.00001872      -0.00000492
Ga       5.75409356      37.40167090      31.64760480      -0.00001107      -0.00001065      -0.00000557
As       7.19264458      38.84023148      33.08608590      -0.00000166      -0.00000103      -0.00000851
Ga       8.63114648      40.27872382      31.64760480      -0.00000157       0.00000482       0.00000135
As      10.06969750      41.71728440      33.08608590       0.00000293      -0.00000103      -0.00000711
Ga      11.50819940      43.15577674      31.64760480      -0.00000393       0.00000487       0.00000104
As      12.94675042      44.59433732      33.08608590      -0.00000135      -0.00000335      -0.00000500
Ga      14.38525232      46.03282966      31.64760480      -0.00000447       0.00000773      -0.00000197
As      15.82380334      47.47139024      33.08608590       0.00000026      -0.00000315      -0.00000515
Ga      17.26230524      48.90988258      31.64760480       0.00000799       0.00000601       0.00000033
As      18.70085626      50.34844316      33.08608590      -0.00000991      -0.00000135      -0.00000606
Ga      20.13935816      51.78693550      31.64760480      -0.00001154       0.00001216      -0.00000495
As      21.57790918      53.22549608      33.08608590       0.00000431       0.00001053      -0.00001212
Ga      23.01641108      54.66398842      31.64760480      -0.00000941      -0.00000876      -0.00000560
As      24.45496210      56.10254900      33.08608590      -0.00000288      -0.00000164      -0.00000888
Ga      25.89346400      57.54104134      31.64760480       0.00000156       0.00000512       0.00000125
As      27.33201502      58.97960192      33.08608590       0.00000790      -0.00000027      -0.00000778
Ga      28.77051692      60.41809426      31.64760480      -0.00000643       0.00000355       0.00000326
As      30.20906794      61.85665484      33.08608590      -0.00000214      -0.00000206      -0.00000519
Ga      31.64756984      63.29514718      31.64760480      -0.00000012       0.00002840      -0.00000043
As      33.08612086      64.73370776      33.08608590       0.00000753      -0.00002420      -0.00000638
Ga       2.87704064      31.64756506      34.52465772       0.00000670      -0.00002911      -0.00001024
As       4.31559166      33.08612564      35.96313882      -0.00001158       0.00002015      -0.00000160
Ga       5.75409356      34.52461798      34.52465772      -0.00000025       0.00000725      -0.00000458
As       7.19264458      35.96317856      35.96313882      -0.00000083       0.00001803       0.00000404
Ga       8.63114648      37.40167090      34.52465772       0.00000133      -0.00002085      -0.00000380
As      10.06969750      38.84023148      35.96313882       0.00000218      -0.00000486       0.00000404
Ga      11.50819940      40.27872382      34.52465772      -0.00000337       0.00000304      -0.00000579
As      12.94675042      41.71728440      35.96313882      -0.00000141      -0.00000280       0.00000448
Ga      14.38525232      43.15577674      34.52465772       0.00000060       0.00000483      -0.00000684
As      15.82380334      44.59433732      35.96313882       0.00000015      -0.00000405       0.00000445
Ga      17.26230524      46.03282966      34.52465772       0.00001203       0.00000367      -0.00000757
As      18.70085626      47.47139024      35.96313882      -0.00001075      -0.00000379       0.00000595
Ga      20.13935816      48.90988258      34.52465772      -0.00000145       0.00000406      -0.00000690
As      21.57790918      50.34844316      35.96313882       0.00000046      -0.00000302       0.00000464
Ga      23.01641108      51.78693550      34.52465772       0.00000150       0.00000391      -0.00000579
As      24.45496210      53.22549608      35.96313882       0.00000285       0.00000849      -0.00000069
Ga      25.89346400      54.66398842      34.52465772       0.00000461      -0.00001797      -0.00000566
As      27.33201502      56.10254900      35.96313882       0.00000725      -0.00000336       0.00000268
Ga      28.77051692      57.54104134      34.52465772      -0.00000765       0.00000192      -0.00000526
As      30.20906794      58.97960192      35.96313882      -0.00000268      -0.00000326       0.00000497
Ga      31.64756984      60.41809426      34.52465772       0.00000317       0.00000416      -0.00000712
As      33.08612086      61.85665484      35.96313882       0.00000845      -0.00000215       0.00000412
Ga      34.52462276      63.29514718      34.52465772      -0.00001901       0.00002341      -0.00000775
As      35.96317378      64.73370776      35.96313882       0.00001719      -0.00002378       0.00000564
Ga       5.75409356      31.64756506      37.40171064       0.00001411      -0.00003375      -0.00000394
As       7.19264458      33.08612564      38.84019174      -0.00001232       0.00001808       0.00000048
Ga       8.63114648      34.52461798      37.40171064       0.00000097       0.00000747      -0.00000343
As      10.06969750      35.96317856      38.84019174       0.00000236       0.00001662       0.00000490
Ga      11.50819940      37.40167090      37.40171064      -0.00000380      -0.00001871      -0.00000373
As      12.94675042      38.84023148      38.84019174      -0.00000104      -0.00000467       0.00000389
Ga      14.38525232      40.27872382      37.40171064       0.00000082       0.00000339      -0.00000406
As      15.82380334      41.71728440      38.84019174      -0.00000007      -0.00000342       0.00000447
Ga      17.26230524      43.15577674      37.40171064       0.00001182       0.00000387      -0.00000496
As      18.70085626      44.59433732      38.84019174      -0.00001051      -0.00000317       0.00000493
Ga      20.13935816      46.03282966      37.40171064      -0.00000196       0.00000408      -0.00000485
As      21.57790918      47.47139024      38.84019174       0.00000008      -0.00000418       0.00000456
Ga      23.01641108      48.90988258      37.40171064       0.00000056       0.00000439      -0.00000397
As      24.45496210      50.34844316      38.84019174      -0.00000103      -0.00000295       0.00000377
Ga      25.89346400      51.78693550      37.40171064       0.00000329       0.00000433      -0.00000424
As      27.33201502      53.22549608      38.84019174       0.00001308       0.00000925      -0.00000201
Ga      28.77051692      54.66398842      37.40171064      -0.00000828      -0.00001798      -0.00000333
As      30.20906794      56.10254900      38.84019174      -0.00000182      -0.00000571       0.00000437
Ga      31.64756984      57.54104134      37.40171064       0.00000301       0.00000371      -0.00000481
As      33.08612086      58.97960192      38.84019174       0.00000806      -0.00000166       0.00000385
Ga      34.52462276      60.41809426      37.40171064      -0.00001815       0.00000256      -0.00000445
As      35.96317378      61.85665484      38.84019174       0.00001594      -0.00000120       0.00000410
Ga      37.40167568      63.29514718      37.40171064      -0.00001642       0.00002340      -0.00000520
As      38.84022670      64.73370776      38.84019174       0.00001657      -0.00002334       0.00000555
Ga       8.63114648      31.64756506      40.27876356       0.00002366      -0.00002826      -0.00000860
As      10.06969750      33.08612564      41.71724466      -0.00001642       0.00002476       0.00000820
Ga      11.50819940      34.52461798      40.27876356      -0.00000249       0.00000821      -0.00000281
As      12.94675042      35.96317856      41.71724466      -0.00000872       0.00002372       0.00001514
Ga      14.38525232      37.40167090      40.27876356       0.00000067      -0.00001918      -0.00000255
As      15.82380334      38.84023148      41.71724466      -0.00000629       0.00000212       0.00001469
Ga      17.26230524      40.27872382      40.27876356       0.00001213       0.00000300      -0.00000373
As      18.70085626      41.71728440      41.71724466      -0.00001652       0.00000266       0.00001426
Ga      20.13935816      43.15577674      40.27876356      -0.00000103       0.00000447      -0.00000278
As      21.57790918      44.59433732      41.71724466      -0.00000683       0.00000306       0.00001416
Ga      23.01641108      46.03282966      40.27876356       0.00000115       0.00000349      -0.00000277
As      24.45496210      47.47139024      41.71724466      -0.00000866       0.00000319       0.00001478
Ga      25.89346400      48.90988258      40.27876356       0.00000275       0.00000371      -0.00000216
As      27.33201502      50.34844316      41.71724466       0.00000191       0.00000457       0.00001258
Ga      28.77051692      51.78693550      40.27876356      -0.00000864       0.00000409      -0.00000184
As      30.20906794      53.22549608      41.71724466      -0.00000419       0.00001422       0.00000947
Ga      31.64756984      54.66398842      40.27876356       0.00000383      -0.00001660      -0.00000265
As      33.08612086      56.10254900      41.71724466       0.00000213       0.00000311       0.00001292
Ga      34.52462276      57.54104134      40.27876356      -0.00001835       0.00000200      -0.00000182
As      35.96317378      58.97960192      41.71724466       0.00000981       0.00000440       0.00001269
Ga      37.40167568      60.41809426      40.27876356      -0.00001638       0.00000237      -0.00000209
As      38.84022670      61.85665484      41.71724466       0.00001215       0.00000498       0.00001292
Ga      40.27872860      63.29514718      40.27876356       0.00000236       0.00002350      -0.00000352
As      41.71727962      64.73370776      41.71724466      -0.00002770      -0.00001790       0.00001277
Ga      11.50819940      31.64756506      43.15581648       0.00002396      -0.00002922       0.00000885
As      12.94675042      33.08612564      44.59429758       0.00000269       0.00000913      -0.00002329
Ga      14.38525232      34.52461798      43.15581648      -0.00000225       0.00000666       0.00001600
As      15.82380334      35.96317856      44.59429758       0.00000747       0.00001225      -0.00002389
Ga      17.26230524      37.40167090      43.15581648       0.00001044      -0.00001984       0.00001485
As      18.70085626      38.84023148      44.59429758      -0.00000456      -0.00000961      -0.00002390
Ga      20.13935816      40.27872382      43.15581648      -0.00000211       0.00000347       0.00001505
As      21.57790918      41.71728440      44.59429758       0.00000711      -0.00000827      -0.00002500
Ga      23.01641108      43.15577674      43.15581648      -0.00000024       0.00000348       0.00001489
As      24.45496210      44.59433732      44.59429758       0.00000581      -0.00000892      -0.00002526
Ga      25.89346400      46.03282966      43.15581648       0.00000164       0.00000327       0.00001509
As      27.33201502      47.47139024      44.59429758       0.00001401      -0.00000882      -0.00002472
Ga      28.77051692      48.90988258      43.15581648      -0.00001040       0.00000339       0.00001535
As      30.20906794      50.34844316      44.59429758       0.00000599      -0.00000829      -0.00002543
Ga      31.64756984      51.78693550      43.15581648       0.00000162       0.00000482       0.00001434
As      33.08612086      53.22549608      44.59429758       0.00002007       0.00000180      -0.00002945
Ga      34.52462276      54.66398842      43.15581648      -0.00001859      -0.00001718       0.00001344
As      35.96317378      56.10254900      44.59429758       0.00002312      -0.00001048      -0.00002480
Ga      37.40167568      57.54104134      43.15581648      -0.00001718       0.00000227       0.00001356
As      38.84022670      58.97960192      44.59429758       0.00002489      -0.00000814      -0.00002426
Ga      40.27872860      60.41809426      43.15581648       0.00000151       0.00000243       0.00001373
As      41.71727962      61.85665484      44.59429758      -0.00001574      -0.00000751      -0.00002375
Ga      43.15578152      63.29514718      43.15581648       0.00002021       0.00002371       0.00001396
As      44.59433254      64.73370776      44.59429758      -0.00001405      -0.00002939      -0.00002316
Ga      14.38525232      31.64756506      46.03286940      -0.00001462      -0.00003186      -0.00000996
As      15.82380334      33.08612564      47.47135050       0.00001506       0.00001443       0.00000632
Ga      17.26230524      34.52461798      46.03286940       0.00001167       0.00000729      -0.00000727
As      18.70085626      35.96317856      47.47135050      -0.00001175       0.00001715       0.00000671
Ga      20.13935816      37.40167090      46.03286940       0.00000037      -0.00001873      -0.00000646
As      21.57790918      38.84023148      47.47135050      -0.00000107      -0.00000562       0.00000514
Ga      23.01641108      40.27872382      46.03286940       0.00000179       0.00000292      -0.00000649
As      24.45496210      41.71728440      47.47135050      -0.00000221      -0.00000297       0.00000525
Ga      25.89346400      43.15577674      46.03286940       0.00000319       0.00000353      -0.00000578
As      27.33201502      44.59433732      47.47135050       0.00000793      -0.00000185       0.00000364
Ga      28.77051692      46.03282966      46.03286940      -0.00000844       0.00000207      -0.00000546
As      30.20906794      47.47139024      47.47135050      -0.00000202      -0.00000422       0.00000511
Ga      31.64756984      48.90988258      46.03286940       0.00000283       0.00000307      -0.00000612
As      33.08612086      50.34844316      47.47135050       0.00000893      -0.00000160       0.00000340
Ga      34.52462276      51.78693550      46.03286940      -0.00001799       0.00000350      -0.00000626
As      35.96317378      53.22549608      47.47135050       0.00002121       0.00000894      -0.00000047
Ga      37.40167568      54.66398842      46.03286940      -0.00001548      -0.00001830      -0.00000610
As      38.84022670      56.10254900      47.47135050       0.00001795      -0.00000326       0.00000420
Ga      40.27872860      57.54104134      46.03286940       0.00000275       0.00000130      -0.00000573
As      41.71727962      58.97960192      47.47135050      -0.00002248      -0.00000131       0.00000491
Ga      43.15578152      60.41809426      46.03286940       0.00002098       0.00000148      -0.00000601
As      44.59433254      61.85665484      47.47135050      -0.00001963      -0.00000042       0.00000490
Ga      46.03283444      63.29514718      46.03286940       0.00002387       0.00002198      -0.00000504
As      47.47138546      64.73370776      47.47135050      -0.00000302      -0.00002343       0.00000519
Ga      17.26230524      31.64756506      48.90992232       0.00000657      -0.00003049      -0.00000764
As      18.70085626      33.08612564      50.34840342      -0.00001328       0.00001975      -0.00000147
Ga      20.13935816      34.52461798      48.90992232       0.00000077       0.00000889      -0.00000506
As      21.57790918      35.96317856      50.34840342      -0.00000144       0.00001581       0.00000588
Ga      23.01641108      37.40167090      48.90992232       0.00000144      -0.00001809      -0.00000512
As      24.45496210      38.84023148      50.34840342      -0.00000184      -0.00000566       0.00000416
Ga      25.89346400      40.27872382      48.90992232       0.00000320       0.00000377      -0.00000473
As      27.33201502      41.71728440      50.34840342       0.00000820      -0.00000208       0.00000322
Ga      28.77051692      43.15577674      48.90992232      -0.00000925       0.00000270      -0.00000386
As      30.20906794      44.59433732      50.34840342      -0.00000203      -0.00000375       0.00000403
Ga      31.64756984      46.03282966      48.90992232       0.00000259       0.00000371      -0.00000444
As      33.08612086      47.47139024      50.34840342       0.00000801      -0.00000299       0.00000355
Ga      34.52462276      48.90988258      48.90992232      -0.00001829       0.00000188      -0.00000374
As      35.96317378      50.34844316      50.34840342       0.00001655      -0.00000103       0.00000311
Ga      37.40167568      51.78693550      48.90992232      -0.00001633       0.00000292      -0.00000499
As      38.84022670      53.22549608      50.34840342       0.00002257       0.00000894      -0.00000151
Ga      40.27872860      54.66398842      48.90992232       0.00000258      -0.00001830      -0.00000482
As      41.71727962      56.10254900      50.34840342      -0.00002133      -0.00000305       0.00000253
Ga      43.15578152      57.54104134      48.90992232       0.00002086       0.00000134      -0.00000426
As      44.59433254      58.97960192      50.34840342      -0.00002011      -0.00000085       0.00000344
Ga      46.03283444      60.41809426      48.90992232       0.00002371       0.00000155      -0.00000445
As      47.47138546      61.85665484      50.34840342      -0.00000151      -0.00000037       0.00000328
Ga      48.90988736      63.29514718      48.90992232      -0.00001980       0.00002313      -0.00000498
As      50.34843838      64.73370776      50.34840342       0.00001672      -0.00002302       0.00000424
Ga      20.13935816      31.64756506      51.78697524       0.00001323      -0.00003527      -0.00000352
As      21.57790918      33.08612564      53.22545634      -0.00001257       0.00001773       0.00000110
Ga      23.01641108      34.52461798      51.78697524       0.00000174       0.00000957      -0.00000571
As      24.45496210      35.96317856      53.22545634      -0.00000282       0.00001586       0.00000595
Ga      25.89346400      37.40167090      51.78697524       0.00000379      -0.00001754      -0.00000480
As      27.33201502      38.84023148      53.22545634       0.00000718      -0.00000389       0.00000361
Ga      28.77051692      40.27872382      51.78697524      -0.00000833       0.00000265      -0.00000394
As      30.20906794      41.71728440      53.22545634      -0.00000232      -0.00000376       0.00000487
Ga      31.64756984      43.15577674      51.78697524       0.00000251       0.00000408      -0.00000463
As      33.08612086      44.59433732      53.22545634       0.00000864      -0.00000217       0.00000381
Ga      34.52462276      46.03282966      51.78697524      -0.00001802       0.00000221      -0.00000434
As      35.96317378      47.47139024      53.22545634       0.00001531      -0.00000251       0.00000400
Ga      37.40167568      48.90988258      51.78697524      -0.00001660       0.00000215      -0.00000377
As      38.84022670      50.34844316      53.22545634       0.00001807      -0.00000075       0.00000342
Ga      40.27872860      51.78693550      51.78697524       0.00000272       0.00000252      -0.00000418
As      41.71727962      53.22549608      53.22545634      -0.00001745       0.00000927      -0.00000048
Ga      43.15578152      54.66398842      51.78697524       0.00002100      -0.00001795      -0.00000456
As      44.59433254      56.10254900      53.22545634      -0.00001962      -0.00000298       0.00000360
Ga      46.03283444      57.54104134      51.78697524       0.00002385       0.00000142      -0.00000426
As      47.47138546      58.97960192      53.22545634      -0.00000187      -0.00000080       0.00000431
Ga      48.90988736      60.41809426      51.78697524      -0.00001975       0.00000145      -0.00000415
As      50.34843838      61.85665484      53.22545634       0.00001655      -0.00000114       0.00000386
Ga      51.78694028      63.29514718      51.78697524      -0.00001600       0.00002348      -0.00000491
As      53.22549130      64.73370776      53.22545634       0.00001608      -0.00002236       0.00000506
Ga      23.01641108      31.64756506      54.66402816       0.00001476      -0.00003387      -0.00000409
As      24.45496210      33.08612564      56.10250926      -0.00001456       0.00001698       0.00000179
Ga      25.89346400      34.52461798      54.66402816       0.00000394       0.00000977      -0.00000496
As      27.33201502      35.96317856      56.10250926       0.00000631       0.00001726       0.00000449
Ga      28.77051692      37.40167090      54.66402816      -0.00000771      -0.00001845      -0.00000351
As      30.20906794      38.84023148      56.10250926      -0.00000322      -0.00000558       0.00000406
Ga      31.64756984      40.27872382      54.66402816       0.00000339       0.00000352      -0.00000415
As      33.08612086      41.71728440      56.10250926       0.00000767      -0.00000132       0.00000299
Ga      34.52462276      43.15577674      54.66402816      -0.00001832       0.00000251      -0.00000302
As      35.96317378      44.59433732      56.10250926       0.00001598      -0.00000094       0.00000318
Ga      37.40167568      46.03282966      54.66402816      -0.00001690       0.00000156      -0.00000347
As      38.84022670      47.47139024      56.10250926       0.00001717      -0.00000170       0.00000329
Ga      40.27872860      48.90988258      54.66402816       0.00000182       0.00000162      -0.00000331
As      41.71727962      50.34844316      56.10250926      -0.00002186       0.00000009       0.00000325
Ga      43.15578152      51.78693550      54.66402816       0.00002068       0.00000268      -0.00000442
As      44.59433254      53.22549608      56.10250926      -0.00001530       0.00000973      -0.00000094
Ga      46.03283444      54.66398842      54.66402816       0.00002409      -0.00001777      -0.00000403
As      47.47138546      56.10254900      56.10250926      -0.00000183      -0.00000290       0.00000326
Ga      48.90988736      57.54104134      54.66402816      -0.00001968       0.00000207      -0.00000385
As      50.34843838      58.97960192      56.10250926       0.00001622      -0.00000110       0.00000357
Ga      51.78694028      60.41809426      54.66402816      -0.00001619       0.00000196      -0.00000364
As      53.22549130      61.85665484      56.10250926       0.00001541      -0.00000045       0.00000342
Ga      54.66399320      63.29514718      54.66402816      -0.00001626       0.00002309      -0.00000437
As      56.10254422      64.73370776      56.10250926       0.00001609      -0.00002178       0.00000508
Ga      25.89346400      31.64756506      57.54108108       0.00002458      -0.00002896      -0.00000801
As      27.33201502      33.08612564      58.97956218      -0.00001308       0.00002694       0.00000627
Ga      28.77051692      34.52461798      57.54108108      -0.00000667       0.00000783      -0.00000185
As      30.20906794      35.96317856      58.97956218      -0.00001020       0.00002273       0.00001525
Ga      31.64756984      37.40167090      57.54108108       0.00000373      -0.00001809      -0.00000240
As      33.08612086      38.84023148      58.97956218       0.00000156       0.00000324       0.00001313
Ga      34.52462276      40.27872382      57.54108108      -0.00001854       0.00000161      -0.00000127
As      35.96317378      41.71728440      58.97956218       0.00001061       0.00000439       0.00001257
Ga      37.40167568      43.15577674      57.54108108      -0.00001661       0.00000246      -0.00000124
As      38.84022670      44.59433732      58.97956218       0.00001215       0.00000373       0.00001288
Ga      40.27872860      46.03282966      57.54108108       0.00000196       0.00000116      -0.00000149
As      41.71727962      47.47139024      58.97956218      -0.00002698       0.00000383       0.00001317
Ga      43.15578152      48.90988258      57.54108108       0.00002002       0.00000116      -0.00000154
As      44.59433254      50.34844316      58.97956218      -0.00002527       0.00000511       0.00001264
Ga      46.03283444      51.78693550      57.54108108       0.00002395       0.00000251      -0.00000271
As      47.47138546      53.22549608      58.97956218      -0.00000230       0.00001524       0.00000863
Ga      48.90988736      54.66398842      57.54108108      -0.00001799      -0.00001771      -0.00000283
As      50.34843838      56.10254900      58.97956218       0.00001095       0.00000241       0.00001270
Ga      51.78694028      57.54104134      57.54108108      -0.00001615       0.00000199      -0.00000211
As      53.22549130      58.97960192      58.97956218       0.00001005       0.00000425       0.00001334
Ga      54.66399320      60.41809426      57.54108108      -0.00001626       0.00000204      -0.00000154
As      56.10254422      61.85665484      58.97956218       0.00001173       0.00000499       0.00001294
Ga      57.54104612      63.29514718      57.54108108       0.00000265       0.00002278      -0.00000217
As      58.97959714      64.73370776      58.97956218      -0.00002847      -0.00001712       0.00001258
Ga      28.77051692      31.64756506      60.41813400       0.00002163      -0.00002837       0.00000669
As      30.20906794      33.08612564      61.85661510      -0.00001184       0.00002006      -0.00003957
Ga      31.64756984      34.52461798      60.41813400       0.00000136       0.00000776       0.00001364
As      33.08612086      35.96317856      61.85661510       0.00000900       0.00001594      -0.00003474
Ga      34.52462276      37.40167090      60.41813400      -0.00001893      -0.00001850       0.00001248
As      35.96317378      38.84023148      61.85661510       0.00001814      -0.00000522      -0.00003543
Ga      37.40167568      40.27872382      60.41813400      -0.00001796       0.00000258       0.00001281
As      38.84022670      41.71728440      61.85661510       0.00002042      -0.00000300      -0.00003563
Ga      40.27872860      43.15577674      60.41813400      -0.00000002       0.00000254       0.00001257
As      41.71727962      44.59433732      61.85661510      -0.00002016      -0.00000221      -0.00003602
Ga      43.15578152      46.03282966      60.41813400       0.00001907       0.00000238       0.00001238
As      44.59433254      47.47139024      61.85661510      -0.00001914      -0.00000273      -0.00003561
Ga      46.03283444      48.90988258      60.41813400       0.00002237       0.00000284       0.00001245
As      47.47138546      50.34844316      61.85661510       0.00000082      -0.00000304      -0.00003474
Ga      48.90988736      51.78693550      60.41813400      -0.00002018       0.00000416       0.00001166
As      50.34843838      53.22549608      61.85661510       0.00002411       0.00000620      -0.00003938
Ga      51.78694028      54.66398842      60.41813400      -0.00001640      -0.00001598       0.00001102
As      53.22549130      56.10254900      61.85661510       0.00001766      -0.00000593      -0.00003566
Ga      54.66399320      57.54104134      60.41813400      -0.00001783       0.00000304       0.00001204
As      56.10254422      58.97960192      61.85661510       0.00002013      -0.00000328      -0.00003558
Ga      57.54104612      60.41809426      60.41813400       0.00000115       0.00000312       0.00001227
As      58.97959714      61.85665484      61.85661510      -0.00002052      -0.00000163      -0.00003524
Ga      60.41809904      63.29514718      60.41813400       0.00001978       0.00002365       0.00001243
As      61.85665006      64.73370776      61.85661510      -0.00001817      -0.00002492      -0.00003362
Ga      31.64756984      31.64756506      63.29518692       0.00002568      -0.00003107       0.00001103
As      33.08612086      33.08612564      64.73366802       0.00000122       0.00001769       0.00002253
Ga      34.52462276      34.52461798      63.29518692      -0.00001956       0.00000619       0.00001708
As      35.96317378      35.96317856      64.73366802       0.00001666       0.00001731       0.00002589
Ga      37.40167568      37.40167090      63.29518692      -0.00001651      -0.00001973       0.00001563
As      38.84022670      38.84023148      64.73366802       0.00001844      -0.00000350       0.00002488
Ga      40.27872860      40.27872382      63.29518692       0.00000162       0.00000163       0.00001592
As      41.71727962      41.71728440      64.73366802      -0.00002046      -0.00000033       0.00002351
Ga      43.15578152      43.15577674      63.29518692       0.00002010       0.00000020       0.00001701
As      44.59433254      44.59433732      64.73366802      -0.00001823      -0.00000061       0.00002301
Ga      46.03283444      46.03282966      63.29518692       0.00002104       0.00000087       0.00001643
As      47.47138546      47.47139024      64.73366802      -0.00000961       0.00000359       0.00001997
Ga      48.90988736      48.90988258      63.29518692      -0.00002058       0.00000286       0.00001547
As      50.34843838      50.34844316      64.73366802       0.00000885       0.00000454       0.00001918
Ga      51.78694028      51.78693550      63.29518692      -0.00001507       0.00000498       0.00001476
As      53.22549130      53.22549608      64.73366802       0.00002146       0.00000812       0.00002045
Ga      54.66399320      54.66398842      63.29518692      -0.00001534      -0.00001779       0.00001424
As      56.10254422      56.10254900      64.73366802       0.00001733      -0.00000384       0.00002528
Ga      57.54104612      57.54104134      63.29518692       0.00000216       0.00000166       0.00001496
As      58.97959714      58.97960192      64.73366802      -0.00002160      -0.00000067       0.00002398
Ga      60.41809904      60.41809426      63.29518692       0.00002056       0.00000060       0.00001619
As      61.85665006      61.85665484      64.73366802      -0.00001790       0.00000065       0.00002360
Ga      63.29515196      63.29514718      63.29518692       0.00001966       0.00002234       0.00001618
As      64.73370298      64.73370776      64.73366802      -0.00001928      -0.00002329       0.00002374
