2000
Lattice="1.0488562364235478e-15 27.351729882872576 27.35172988287259 27.351729882872576 1.6707676072748525e-16 27.35172988287259 27.351729882872576 27.351729882872576 5.38248607748203e-16" Properties=species:S:1:pos:R:3:forces:R:3 energy=-10849.37078566794 stress="-1.5972374477449263e-09 2.959065706067255e-16 3.5037577832454834e-16 2.959065706067255e-16 -1.5972374277310815e-09 3.164507187695291e-16 3.5037577832454834e-16 3.164507187695291e-16 -1.5972372442228874e-09" pbc="T T T"
Si       0.00000000       0.00000000       0.00000000       0.00000000       0.00000000       0.00000000
Si       1.36758649       1.36758649       1.36758649       0.00000000       0.00000000      -0.00000000
Si       2.73517299       2.73517299       0.00000000       0.00000000       0.00000000       0.00000000
Si       4.10275948       4.10275948       1.36758649      -0.00000000      -0.00000000       0.00000000
Si       5.47034598       5.47034598       0.00000000       0.00000000       0.00000000       0.00000000
Si       6.83793247       6.83793247       1.36758649       0.00000000       0.00000000      -0.00000000
Si       8.20551896       8.20551896       0.00000000      -0.00000000       0.00000000       0.00000000
Si       9.57310546       9.57310546       1.36758649      -0.00000000      -0.00000000       0.00000000
Si      10.94069195      10.94069195       0.00000000       0.00000000      -0.00000000       0.00000000
Si      12.30827845      12.30827845       1.36758649      -0.00000000      -0.00000000       0.00000000
Si      13.67586494      13.67586494       0.00000000       0.00000000       0.00000000       0.00000000
Si      15.04345144      15.04345144       1.36758649       0.00000000       0.00000000      -0.00000000
Si      16.41103793      16.41103793       0.00000000      -0.00000000      -0.00000000       0.00000000
Si      17.77862442      17.77862442       1.36758649      -0.00000000      -0.00000000       0.00000000
Si      19.14621092      19.14621092       0.00000000       0.00000000       0.00000000       0.00000000
Si      20.51379741      20.51379741       1.36758649      -0.00000000      -0.00000000       0.00000000
Si      21.88138391      21.88138391       0.00000000       0.00000000       0.00000000       0.00000000
Si      23.24897040      23.24897040       1.36758649      -0.00000000      -0.00000000      -0.00000000
Si      24.61655689      24.61655689       0.00000000       0.00000000       0.00000000       0.00000000
Si      25.98414339      25.98414339       1.36758649      -0.00000000      -0.00000000       0.00000000
Si       2.73517299       0.00000000       2.73517299      -0.00000000       0.00000000      -0.00000000
Si       4.10275948       1.36758649       4.10275948       0.00000000       0.00000000       0.00000000
Si       5.47034598       2.73517299       2.73517299      -0.00000000       0.00000000       0.00000000
Si       6.83793247       4.10275948       4.10275948       0.00000000       0.00000000       0.00000000
Si       8.20551896       5.47034598       2.73517299      -0.00000000      -0.00000000       0.00000000
Si       9.57310546       6.83793247       4.10275948       0.00000000       0.00000000       0.00000000
Si      10.94069195       8.20551896       2.73517299      -0.00000000       0.00000000       0.00000000
Si      12.30827845       9.57310546       4.10275948       0.00000000       0.00000000       0.00000000
Si      13.67586494      10.94069195       2.73517299      -0.00000000       0.00000000       0.00000000
Si      15.04345144      12.30827845       4.10275948       0.00000000       0.00000000       0.00000000
Si      16.41103793      13.67586494       2.73517299      -0.00000000      -0.00000000       0.00000000
Si      17.77862442      15.04345144       4.10275948      -0.00000000       0.00000000       0.00000000
Si      19.14621092      16.41103793       2.73517299       0.00000000       0.00000000       0.00000000
Si      20.51379741      17.77862442       4.10275948      -0.00000000      -0.00000000      -0.00000000
Si      21.88138391      19.14621092       2.73517299       0.00000000       0.00000000       0.00000000
Si      23.24897040      20.51379741       4.10275948      -0.00000000      -0.00000000       0.00000000
Si      24.61655689      21.88138391       2.73517299       0.00000000       0.00000000       0.00000000
Si      25.98414339      23.24897040       4.10275948      -0.00000000      -0.00000000      -0.00000000
Si      27.35172988      24.61655689       2.73517299       0.00000000       0.00000000       0.00000000
Si      28.71931638      25.98414339       4.10275948      -0.00000000      -0.00000000       0.00000000
Si       5.47034598       0.00000000       5.47034598       0.00000000       0.00000000      -0.00000000
Si       6.83793247       1.36758649       6.83793247       0.00000000       0.00000000       0.00000000
Si       8.20551896       2.73517299       5.47034598      -0.00000000      -0.00000000      -0.00000000
Si       9.57310546       4.10275948       6.83793247       0.00000000       0.00000000       0.00000000
Si      10.94069195       5.47034598       5.47034598      -0.00000000       0.00000000      -0.00000000
Si      12.30827845       6.83793247       6.83793247       0.00000000       0.00000000       0.00000000
Si      13.67586494       8.20551896       5.47034598      -0.00000000       0.00000000       0.00000000
Si      15.04345144       9.57310546       6.83793247       0.00000000       0.00000000       0.00000000
Si      16.41103793      10.94069195       5.47034598      -0.00000000      -0.00000000      -0.00000000
Si      17.77862442      12.30827845       6.83793247      -0.00000000       0.00000000       0.00000000
Si      19.14621092      13.67586494       5.47034598      -0.00000000       0.00000000      -0.00000000
Si      20.51379741      15.04345144       6.83793247       0.00000000       0.00000000       0.00000000
Si      21.88138391      16.41103793       5.47034598      -0.00000000       0.00000000       0.00000000
Si      23.24897040      17.77862442       6.83793247       0.00000000      -0.00000000       0.00000000
Si      24.61655689      19.14621092       5.47034598      -0.00000000       0.00000000      -0.00000000
Si      25.98414339      20.51379741       6.83793247      -0.00000000      -0.00000000       0.00000000
Si      27.35172988      21.88138391       5.47034598       0.00000000       0.00000000      -0.00000000
Si      28.71931638      23.24897040       6.83793247      -0.00000000       0.00000000       0.00000000
Si      30.08690287      24.61655689       5.47034598      -0.00000000       0.00000000       0.00000000
Si      31.45448937      25.98414339       6.83793247      -0.00000000      -0.00000000       0.00000000
Si       8.20551896       0.00000000       8.20551896       0.00000000       0.00000000      -0.00000000
Si       9.57310546       1.36758649       9.57310546       0.00000000       0.00000000       0.00000000
Si      10.94069195       2.73517299       8.20551896      -0.00000000       0.00000000       0.00000000
Si      12.30827845       4.10275948       9.57310546       0.00000000       0.00000000      -0.00000000
Si      13.67586494       5.47034598       8.20551896      -0.00000000       0.00000000       0.00000000
Si      15.04345144       6.83793247       9.57310546       0.00000000       0.00000000      -0.00000000
Si      16.41103793       8.20551896       8.20551896      -0.00000000      -0.00000000       0.00000000
Si      17.77862442       9.57310546       9.57310546      -0.00000000       0.00000000       0.00000000
Si      19.14621092      10.94069195       8.20551896       0.00000000      -0.00000000      -0.00000000
Si      20.51379741      12.30827845       9.57310546       0.00000000       0.00000000       0.00000000
Si      21.88138391      13.67586494       8.20551896      -0.00000000       0.00000000      -0.00000000
Si      23.24897040      15.04345144       9.57310546       0.00000000       0.00000000       0.00000000
Si      24.61655689      16.41103793       8.20551896      -0.00000000       0.00000000       0.00000000
Si      25.98414339      17.77862442       9.57310546      -0.00000000      -0.00000000      -0.00000000
Si      27.35172988      19.14621092       8.20551896      -0.00000000       0.00000000       0.00000000
Si      28.71931638      20.51379741       9.57310546       0.00000000      -0.00000000       0.00000000
Si      30.08690287      21.88138391       8.20551896      -0.00000000      -0.00000000      -0.00000000
Si      31.45448937      23.24897040       9.57310546      -0.00000000       0.00000000       0.00000000
Si      32.82207586      24.61655689       8.20551896      -0.00000000      -0.00000000      -0.00000000
Si      34.18966235      25.98414339       9.57310546      -0.00000000      -0.00000000       0.00000000
Si      10.94069195       0.00000000      10.94069195       0.00000000       0.00000000      -0.00000000
Si      12.30827845       1.36758649      12.30827845       0.00000000       0.00000000       0.00000000
Si      13.67586494       2.73517299      10.94069195      -0.00000000       0.00000000       0.00000000
Si      15.04345144       4.10275948      12.30827845       0.00000000       0.00000000      -0.00000000
Si      16.41103793       5.47034598      10.94069195      -0.00000000      -0.00000000      -0.00000000
Si      17.77862442       6.83793247      12.30827845      -0.00000000       0.00000000       0.00000000
Si      19.14621092       8.20551896      10.94069195      -0.00000000       0.00000000       0.00000000
Si      20.51379741       9.57310546      12.30827845      -0.00000000       0.00000000      -0.00000000
Si      21.88138391      10.94069195      10.94069195      -0.00000000       0.00000000       0.00000000
Si      23.24897040      12.30827845      12.30827845      -0.00000000       0.00000000       0.00000000
Si      24.61655689      13.67586494      10.94069195      -0.00000000       0.00000000      -0.00000000
Si      25.98414339      15.04345144      12.30827845       0.00000000       0.00000000       0.00000000
Si      27.35172988      16.41103793      10.94069195      -0.00000000      -0.00000000       0.00000000
Si      28.71931638      17.77862442      12.30827845      -0.00000000      -0.00000000       0.00000000
Si      30.08690287      19.14621092      10.94069195      -0.00000000       0.00000000      -0.00000000
Si      31.45448937      20.51379741      12.30827845       0.00000000      -0.00000000       0.00000000
Si      32.82207586      21.88138391      10.94069195      -0.00000000      -0.00000000       0.00000000
Si      34.18966235      23.24897040      12.30827845      -0.00000000       0.00000000       0.00000000
Si      35.55724885      24.61655689      10.94069195       0.00000000       0.00000000      -0.00000000
Si      36.92483534      25.98414339      12.30827845      -0.00000000      -0.00000000       0.00000000
Si      13.67586494       0.00000000      13.67586494       0.00000000       0.00000000       0.00000000
Si      15.04345144       1.36758649      15.04345144       0.00000000       0.00000000      -0.00000000
Si      16.41103793       2.73517299      13.67586494      -0.00000000      -0.00000000       0.00000000
Si      17.77862442       4.10275948      15.04345144      -0.00000000       0.00000000       0.00000000
Si      19.14621092       5.47034598      13.67586494      -0.00000000       0.00000000       0.00000000
Si      20.51379741       6.83793247      15.04345144       0.00000000       0.00000000      -0.00000000
Si      21.88138391       8.20551896      13.67586494      -0.00000000       0.00000000       0.00000000
Si      23.24897040       9.57310546      15.04345144      -0.00000000       0.00000000       0.00000000
Si      24.61655689      10.94069195      13.67586494      -0.00000000       0.00000000       0.00000000
Si      25.98414339      12.30827845      15.04345144      -0.00000000      -0.00000000       0.00000000
Si      27.35172988      13.67586494      13.67586494       0.00000000       0.00000000       0.00000000
Si      28.71931638      15.04345144      15.04345144      -0.00000000       0.00000000      -0.00000000
Si      30.08690287      16.41103793      13.67586494      -0.00000000      -0.00000000       0.00000000
Si      31.45448937      17.77862442      15.04345144      -0.00000000      -0.00000000       0.00000000
Si      32.82207586      19.14621092      13.67586494      -0.00000000       0.00000000       0.00000000
Si      34.18966235      20.51379741      15.04345144      -0.00000000       0.00000000       0.00000000
Si      35.55724885      21.88138391      13.67586494       0.00000000      -0.00000000       0.00000000
Si      36.92483534      23.24897040      15.04345144      -0.00000000      -0.00000000       0.00000000
Si      38.29242184      24.61655689      13.67586494       0.00000000       0.00000000       0.00000000
Si      39.66000833      25.98414339      15.04345144      -0.00000000      -0.00000000       0.00000000
Si      16.41103793       0.00000000      16.41103793       0.00000000       0.00000000      -0.00000000
Si      17.77862442       1.36758649      17.77862442       0.00000000       0.00000000      -0.00000000
Si      19.14621092       2.73517299      16.41103793      -0.00000000      -0.00000000       0.00000000
Si      20.51379741       4.10275948      17.77862442       0.00000000       0.00000000      -0.00000000
Si      21.88138391       5.47034598      16.41103793      -0.00000000       0.00000000       0.00000000
Si      23.24897040       6.83793247      17.77862442       0.00000000       0.00000000      -0.00000000
Si      24.61655689       8.20551896      16.41103793      -0.00000000      -0.00000000       0.00000000
Si      25.98414339       9.57310546      17.77862442       0.00000000       0.00000000      -0.00000000
Si      27.35172988      10.94069195      16.41103793       0.00000000       0.00000000       0.00000000
Si      28.71931638      12.30827845      17.77862442      -0.00000000      -0.00000000      -0.00000000
Si      30.08690287      13.67586494      16.41103793      -0.00000000       0.00000000       0.00000000
Si      31.45448937      15.04345144      17.77862442       0.00000000       0.00000000      -0.00000000
Si      32.82207586      16.41103793      16.41103793      -0.00000000      -0.00000000       0.00000000
Si      34.18966235      17.77862442      17.77862442       0.00000000      -0.00000000      -0.00000000
Si      35.55724885      19.14621092      16.41103793      -0.00000000       0.00000000       0.00000000
Si      36.92483534      20.51379741      17.77862442      -0.00000000       0.00000000       0.00000000
Si      38.29242184      21.88138391      16.41103793       0.00000000       0.00000000       0.00000000
Si      39.66000833      23.24897040      17.77862442      -0.00000000      -0.00000000      -0.00000000
Si      41.02759482      24.61655689      16.41103793       0.00000000       0.00000000      -0.00000000
Si      42.39518132      25.98414339      17.77862442      -0.00000000      -0.00000000       0.00000000
Si      19.14621092       0.00000000      19.14621092       0.00000000       0.00000000      -0.00000000
Si      20.51379741       1.36758649      20.51379741      -0.00000000       0.00000000       0.00000000
Si      21.88138391       2.73517299      19.14621092      -0.00000000      -0.00000000      -0.00000000
Si      23.24897040       4.10275948      20.51379741       0.00000000       0.00000000       0.00000000
Si      24.61655689       5.47034598      19.14621092      -0.00000000      -0.00000000      -0.00000000
Si      25.98414339       6.83793247      20.51379741       0.00000000       0.00000000       0.00000000
Si      27.35172988       8.20551896      19.14621092      -0.00000000      -0.00000000      -0.00000000
Si      28.71931638       9.57310546      20.51379741       0.00000000       0.00000000       0.00000000
Si      30.08690287      10.94069195      19.14621092      -0.00000000      -0.00000000      -0.00000000
Si      31.45448937      12.30827845      20.51379741       0.00000000       0.00000000       0.00000000
Si      32.82207586      13.67586494      19.14621092      -0.00000000       0.00000000       0.00000000
Si      34.18966235      15.04345144      20.51379741      -0.00000000       0.00000000       0.00000000
Si      35.55724885      16.41103793      19.14621092      -0.00000000       0.00000000      -0.00000000
Si      36.92483534      17.77862442      20.51379741      -0.00000000      -0.00000000       0.00000000
Si      38.29242184      19.14621092      19.14621092       0.00000000       0.00000000      -0.00000000
Si      39.66000833      20.51379741      20.51379741      -0.00000000       0.00000000       0.00000000
Si      41.02759482      21.88138391      19.14621092       0.00000000       0.00000000       0.00000000
Si      42.39518132      23.24897040      20.51379741      -0.00000000      -0.00000000      -0.00000000
Si      43.76276781      24.61655689      19.14621092      -0.00000000       0.00000000      -0.00000000
Si      45.13035431      25.98414339      20.51379741      -0.00000000      -0.00000000       0.00000000
Si      21.88138391       0.00000000      21.88138391       0.00000000       0.00000000       0.00000000
Si      23.24897040       1.36758649      23.24897040      -0.00000000       0.00000000      -0.00000000
Si      24.61655689       2.73517299      21.88138391       0.00000000      -0.00000000       0.00000000
Si      25.98414339       4.10275948      23.24897040      -0.00000000      -0.00000000      -0.00000000
Si      27.35172988       5.47034598      21.88138391       0.00000000       0.00000000       0.00000000
Si      28.71931638       6.83793247      23.24897040      -0.00000000       0.00000000      -0.00000000
Si      30.08690287       8.20551896      21.88138391      -0.00000000       0.00000000       0.00000000
Si      31.45448937       9.57310546      23.24897040       0.00000000       0.00000000      -0.00000000
Si      32.82207586      10.94069195      21.88138391      -0.00000000      -0.00000000       0.00000000
Si      34.18966235      12.30827845      23.24897040      -0.00000000       0.00000000      -0.00000000
Si      35.55724885      13.67586494      21.88138391       0.00000000       0.00000000       0.00000000
Si      36.92483534      15.04345144      23.24897040       0.00000000       0.00000000      -0.00000000
Si      38.29242184      16.41103793      21.88138391       0.00000000      -0.00000000       0.00000000
Si      39.66000833      17.77862442      23.24897040      -0.00000000      -0.00000000      -0.00000000
Si      41.02759482      19.14621092      21.88138391       0.00000000       0.00000000       0.00000000
Si      42.39518132      20.51379741      23.24897040      -0.00000000      -0.00000000      -0.00000000
Si      43.76276781      21.88138391      21.88138391       0.00000000      -0.00000000       0.00000000
Si      45.13035431      23.24897040      23.24897040      -0.00000000       0.00000000      -0.00000000
Si      46.49794080      24.61655689      21.88138391      -0.00000000      -0.00000000       0.00000000
Si      47.86552730      25.98414339      23.24897040      -0.00000000      -0.00000000       0.00000000
Si      24.61655689       0.00000000      24.61655689       0.00000000       0.00000000      -0.00000000
Si      25.98414339       1.36758649      25.98414339      -0.00000000       0.00000000      -0.00000000
Si      27.35172988       2.73517299      24.61655689       0.00000000       0.00000000       0.00000000
Si      28.71931638       4.10275948      25.98414339      -0.00000000       0.00000000      -0.00000000
Si      30.08690287       5.47034598      24.61655689      -0.00000000      -0.00000000       0.00000000
Si      31.45448937       6.83793247      25.98414339      -0.00000000       0.00000000      -0.00000000
Si      32.82207586       8.20551896      24.61655689      -0.00000000       0.00000000       0.00000000
Si      34.18966235       9.57310546      25.98414339      -0.00000000       0.00000000      -0.00000000
Si      35.55724885      10.94069195      24.61655689       0.00000000       0.00000000       0.00000000
Si      36.92483534      12.30827845      25.98414339      -0.00000000       0.00000000      -0.00000000
Si      38.29242184      13.67586494      24.61655689      -0.00000000       0.00000000       0.00000000
Si      39.66000833      15.04345144      25.98414339      -0.00000000       0.00000000      -0.00000000
Si      41.02759482      16.41103793      24.61655689      -0.00000000      -0.00000000       0.00000000
Si      42.39518132      17.77862442      25.98414339       0.00000000       0.00000000      -0.00000000
Si      43.76276781      19.14621092      24.61655689      -0.00000000       0.00000000       0.00000000
Si      45.13035431      20.51379741      25.98414339      -0.00000000       0.00000000      -0.00000000
Si      46.49794080      21.88138391      24.61655689       0.00000000      -0.00000000       0.00000000
Si      47.86552730      23.24897040      25.98414339      -0.00000000      -0.00000000      -0.00000000
Si      49.23311379      24.61655689      24.61655689       0.00000000       0.00000000       0.00000000
Si      50.60070028      25.98414339      25.98414339      -0.00000000      -0.00000000      -0.00000000
Si       0.00000000       2.73517299       2.73517299       0.00000000       0.00000000      -0.00000000
Si       1.36758649       4.10275948       4.10275948       0.00000000      -0.00000000      -0.00000000
Si       2.73517299       5.47034598       2.73517299       0.00000000      -0.00000000       0.00000000
Si       4.10275948       6.83793247       4.10275948       0.00000000       0.00000000       0.00000000
Si       5.47034598       8.20551896       2.73517299      -0.00000000      -0.00000000       0.00000000
Si       6.83793247       9.57310546       4.10275948       0.00000000       0.00000000       0.00000000
Si       8.20551896      10.94069195       2.73517299       0.00000000      -0.00000000       0.00000000
Si       9.57310546      12.30827845       4.10275948       0.00000000       0.00000000       0.00000000
Si      10.94069195      13.67586494       2.73517299       0.00000000      -0.00000000       0.00000000
Si      12.30827845      15.04345144       4.10275948       0.00000000       0.00000000       0.00000000
Si      13.67586494      16.41103793       2.73517299      -0.00000000      -0.00000000       0.00000000
Si      15.04345144      17.77862442       4.10275948       0.00000000      -0.00000000       0.00000000
Si      16.41103793      19.14621092       2.73517299       0.00000000       0.00000000       0.00000000
Si      17.77862442      20.51379741       4.10275948      -0.00000000      -0.00000000      -0.00000000
Si      19.14621092      21.88138391       2.73517299       0.00000000       0.00000000       0.00000000
Si      20.51379741      23.24897040       4.10275948      -0.00000000      -0.00000000       0.00000000
Si      21.88138391      24.61655689       2.73517299       0.00000000       0.00000000       0.00000000
Si      23.24897040      25.98414339       4.10275948      -0.00000000      -0.00000000      -0.00000000
Si      24.61655689      27.35172988       2.73517299       0.00000000       0.00000000       0.00000000
Si      25.98414339      28.71931638       4.10275948      -0.00000000      -0.00000000       0.00000000
Si       2.73517299       2.73517299       5.47034598       0.00000000       0.00000000      -0.00000000
Si       4.10275948       4.10275948       6.83793247      -0.00000000      -0.00000000       0.00000000
Si       5.47034598       5.47034598       5.47034598      -0.00000000      -0.00000000       0.00000000
Si       6.83793247       6.83793247       6.83793247       0.00000000       0.00000000       0.00000000
Si       8.20551896       8.20551896       5.47034598      -0.00000000      -0.00000000       0.00000000
Si       9.57310546       9.57310546       6.83793247      -0.00000000      -0.00000000       0.00000000
Si      10.94069195      10.94069195       5.47034598       0.00000000       0.00000000       0.00000000
Si      12.30827845      12.30827845       6.83793247      -0.00000000      -0.00000000       0.00000000
Si      13.67586494      13.67586494       5.47034598       0.00000000       0.00000000       0.00000000
Si      15.04345144      15.04345144       6.83793247       0.00000000       0.00000000       0.00000000
Si      16.41103793      16.41103793       5.47034598       0.00000000       0.00000000       0.00000000
Si      17.77862442      17.77862442       6.83793247      -0.00000000      -0.00000000       0.00000000
Si      19.14621092      19.14621092       5.47034598       0.00000000       0.00000000       0.00000000
Si      20.51379741      20.51379741       6.83793247      -0.00000000      -0.00000000       0.00000000
Si      21.88138391      21.88138391       5.47034598       0.00000000       0.00000000       0.00000000
Si      23.24897040      23.24897040       6.83793247      -0.00000000      -0.00000000       0.00000000
Si      24.61655689      24.61655689       5.47034598       0.00000000       0.00000000       0.00000000
Si      25.98414339      25.98414339       6.83793247      -0.00000000      -0.00000000       0.00000000
Si      27.35172988      27.35172988       5.47034598       0.00000000       0.00000000       0.00000000
Si      28.71931638      28.71931638       6.83793247      -0.00000000      -0.00000000       0.00000000
Si       5.47034598       2.73517299       8.20551896       0.00000000       0.00000000      -0.00000000
Si       6.83793247       4.10275948       9.57310546       0.00000000       0.00000000      -0.00000000
Si       8.20551896       5.47034598       8.20551896      -0.00000000       0.00000000      -0.00000000
Si       9.57310546       6.83793247       9.57310546      -0.00000000       0.00000000      -0.00000000
Si      10.94069195       8.20551896       8.20551896      -0.00000000      -0.00000000      -0.00000000
Si      12.30827845       9.57310546       9.57310546       0.00000000      -0.00000000      -0.00000000
Si      13.67586494      10.94069195       8.20551896      -0.00000000       0.00000000       0.00000000
Si      15.04345144      12.30827845       9.57310546      -0.00000000      -0.00000000      -0.00000000
Si      16.41103793      13.67586494       8.20551896       0.00000000       0.00000000      -0.00000000
Si      17.77862442      15.04345144       9.57310546      -0.00000000       0.00000000      -0.00000000
Si      19.14621092      16.41103793       8.20551896      -0.00000000      -0.00000000       0.00000000
Si      20.51379741      17.77862442       9.57310546      -0.00000000      -0.00000000      -0.00000000
Si      21.88138391      19.14621092       8.20551896      -0.00000000       0.00000000       0.00000000
Si      23.24897040      20.51379741       9.57310546      -0.00000000      -0.00000000      -0.00000000
Si      24.61655689      21.88138391       8.20551896       0.00000000       0.00000000      -0.00000000
Si      25.98414339      23.24897040       9.57310546      -0.00000000      -0.00000000       0.00000000
Si      27.35172988      24.61655689       8.20551896       0.00000000       0.00000000      -0.00000000
Si      28.71931638      25.98414339       9.57310546      -0.00000000      -0.00000000      -0.00000000
Si      30.08690287      27.35172988       8.20551896      -0.00000000       0.00000000       0.00000000
Si      31.45448937      28.71931638       9.57310546      -0.00000000      -0.00000000       0.00000000
Si       8.20551896       2.73517299      10.94069195       0.00000000       0.00000000      -0.00000000
Si       9.57310546       4.10275948      12.30827845       0.00000000      -0.00000000      -0.00000000
Si      10.94069195       5.47034598      10.94069195      -0.00000000       0.00000000       0.00000000
Si      12.30827845       6.83793247      12.30827845      -0.00000000       0.00000000      -0.00000000
Si      13.67586494       8.20551896      10.94069195       0.00000000      -0.00000000       0.00000000
Si      15.04345144       9.57310546      12.30827845      -0.00000000      -0.00000000      -0.00000000
Si      16.41103793      10.94069195      10.94069195       0.00000000      -0.00000000       0.00000000
Si      17.77862442      12.30827845      12.30827845      -0.00000000       0.00000000      -0.00000000
Si      19.14621092      13.67586494      10.94069195       0.00000000       0.00000000       0.00000000
Si      20.51379741      15.04345144      12.30827845      -0.00000000       0.00000000      -0.00000000
Si      21.88138391      16.41103793      10.94069195      -0.00000000       0.00000000       0.00000000
Si      23.24897040      17.77862442      12.30827845       0.00000000       0.00000000      -0.00000000
Si      24.61655689      19.14621092      10.94069195      -0.00000000      -0.00000000       0.00000000
Si      25.98414339      20.51379741      12.30827845      -0.00000000      -0.00000000       0.00000000
Si      27.35172988      21.88138391      10.94069195       0.00000000       0.00000000      -0.00000000
Si      28.71931638      23.24897040      12.30827845       0.00000000       0.00000000      -0.00000000
Si      30.08690287      24.61655689      10.94069195      -0.00000000      -0.00000000       0.00000000
Si      31.45448937      25.98414339      12.30827845      -0.00000000      -0.00000000       0.00000000
Si      32.82207586      27.35172988      10.94069195       0.00000000       0.00000000       0.00000000
Si      34.18966235      28.71931638      12.30827845      -0.00000000      -0.00000000       0.00000000
Si      10.94069195       2.73517299      13.67586494       0.00000000       0.00000000      -0.00000000
Si      12.30827845       4.10275948      15.04345144      -0.00000000       0.00000000      -0.00000000
Si      13.67586494       5.47034598      13.67586494       0.00000000      -0.00000000       0.00000000
Si      15.04345144       6.83793247      15.04345144       0.00000000       0.00000000      -0.00000000
Si      16.41103793       8.20551896      13.67586494      -0.00000000      -0.00000000       0.00000000
Si      17.77862442       9.57310546      15.04345144      -0.00000000      -0.00000000      -0.00000000
Si      19.14621092      10.94069195      13.67586494       0.00000000      -0.00000000       0.00000000
Si      20.51379741      12.30827845      15.04345144       0.00000000       0.00000000       0.00000000
Si      21.88138391      13.67586494      13.67586494      -0.00000000       0.00000000       0.00000000
Si      23.24897040      15.04345144      15.04345144      -0.00000000       0.00000000       0.00000000
Si      24.61655689      16.41103793      13.67586494       0.00000000       0.00000000       0.00000000
Si      25.98414339      17.77862442      15.04345144      -0.00000000      -0.00000000      -0.00000000
Si      27.35172988      19.14621092      13.67586494       0.00000000       0.00000000       0.00000000
Si      28.71931638      20.51379741      15.04345144       0.00000000      -0.00000000      -0.00000000
Si      30.08690287      21.88138391      13.67586494      -0.00000000       0.00000000       0.00000000
Si      31.45448937      23.24897040      15.04345144      -0.00000000      -0.00000000       0.00000000
Si      32.82207586      24.61655689      13.67586494       0.00000000       0.00000000       0.00000000
Si      34.18966235      25.98414339      15.04345144      -0.00000000      -0.00000000       0.00000000
Si      35.55724885      27.35172988      13.67586494      -0.00000000       0.00000000       0.00000000
Si      36.92483534      28.71931638      15.04345144       0.00000000      -0.00000000       0.00000000
Si      13.67586494       2.73517299      16.41103793       0.00000000      -0.00000000      -0.00000000
Si      15.04345144       4.10275948      17.77862442       0.00000000       0.00000000      -0.00000000
Si      16.41103793       5.47034598      16.41103793      -0.00000000      -0.00000000       0.00000000
Si      17.77862442       6.83793247      17.77862442      -0.00000000       0.00000000       0.00000000
Si      19.14621092       8.20551896      16.41103793       0.00000000      -0.00000000       0.00000000
Si      20.51379741       9.57310546      17.77862442      -0.00000000       0.00000000      -0.00000000
Si      21.88138391      10.94069195      16.41103793      -0.00000000      -0.00000000      -0.00000000
Si      23.24897040      12.30827845      17.77862442      -0.00000000      -0.00000000       0.00000000
Si      24.61655689      13.67586494      16.41103793       0.00000000       0.00000000       0.00000000
Si      25.98414339      15.04345144      17.77862442      -0.00000000       0.00000000       0.00000000
Si      27.35172988      16.41103793      16.41103793       0.00000000      -0.00000000       0.00000000
Si      28.71931638      17.77862442      17.77862442      -0.00000000      -0.00000000      -0.00000000
Si      30.08690287      19.14621092      16.41103793      -0.00000000       0.00000000       0.00000000
Si      31.45448937      20.51379741      17.77862442      -0.00000000      -0.00000000       0.00000000
Si      32.82207586      21.88138391      16.41103793      -0.00000000       0.00000000       0.00000000
Si      34.18966235      23.24897040      17.77862442      -0.00000000      -0.00000000       0.00000000
Si      35.55724885      24.61655689      16.41103793       0.00000000       0.00000000       0.00000000
Si      36.92483534      25.98414339      17.77862442      -0.00000000      -0.00000000      -0.00000000
Si      38.29242184      27.35172988      16.41103793      -0.00000000       0.00000000      -0.00000000
Si      39.66000833      28.71931638      17.77862442      -0.00000000      -0.00000000       0.00000000
Si      16.41103793       2.73517299      19.14621092       0.00000000       0.00000000      -0.00000000
Si      17.77862442       4.10275948      20.51379741      -0.00000000      -0.00000000      -0.00000000
Si      19.14621092       5.47034598      19.14621092      -0.00000000      -0.00000000      -0.00000000
Si      20.51379741       6.83793247      20.51379741      -0.00000000       0.00000000      -0.00000000
Si      21.88138391       8.20551896      19.14621092       0.00000000      -0.00000000       0.00000000
Si      23.24897040       9.57310546      20.51379741      -0.00000000       0.00000000      -0.00000000
Si      24.61655689      10.94069195      19.14621092      -0.00000000       0.00000000       0.00000000
Si      25.98414339      12.30827845      20.51379741      -0.00000000       0.00000000      -0.00000000
Si      27.35172988      13.67586494      19.14621092       0.00000000       0.00000000      -0.00000000
Si      28.71931638      15.04345144      20.51379741      -0.00000000       0.00000000       0.00000000
Si      30.08690287      16.41103793      19.14621092       0.00000000      -0.00000000       0.00000000
Si      31.45448937      17.77862442      20.51379741       0.00000000      -0.00000000      -0.00000000
Si      32.82207586      19.14621092      19.14621092      -0.00000000       0.00000000       0.00000000
Si      34.18966235      20.51379741      20.51379741      -0.00000000      -0.00000000       0.00000000
Si      35.55724885      21.88138391      19.14621092       0.00000000       0.00000000      -0.00000000
Si      36.92483534      23.24897040      20.51379741      -0.00000000       0.00000000      -0.00000000
Si      38.29242184      24.61655689      19.14621092       0.00000000      -0.00000000      -0.00000000
Si      39.66000833      25.98414339      20.51379741       0.00000000      -0.00000000       0.00000000
Si      41.02759482      27.35172988      19.14621092       0.00000000       0.00000000       0.00000000
Si      42.39518132      28.71931638      20.51379741      -0.00000000      -0.00000000       0.00000000
Si      19.14621092       2.73517299      21.88138391       0.00000000       0.00000000      -0.00000000
Si      20.51379741       4.10275948      23.24897040       0.00000000       0.00000000       0.00000000
Si      21.88138391       5.47034598      21.88138391       0.00000000      -0.00000000       0.00000000
Si      23.24897040       6.83793247      23.24897040       0.00000000       0.00000000      -0.00000000
Si      24.61655689       8.20551896      21.88138391      -0.00000000      -0.00000000       0.00000000
Si      25.98414339       9.57310546      23.24897040       0.00000000       0.00000000       0.00000000
Si      27.35172988      10.94069195      21.88138391       0.00000000      -0.00000000       0.00000000
Si      28.71931638      12.30827845      23.24897040      -0.00000000      -0.00000000       0.00000000
Si      30.08690287      13.67586494      21.88138391       0.00000000       0.00000000      -0.00000000
Si      31.45448937      15.04345144      23.24897040      -0.00000000       0.00000000       0.00000000
Si      32.82207586      16.41103793      21.88138391       0.00000000      -0.00000000      -0.00000000
Si      34.18966235      17.77862442      23.24897040      -0.00000000      -0.00000000      -0.00000000
Si      35.55724885      19.14621092      21.88138391      -0.00000000       0.00000000      -0.00000000
Si      36.92483534      20.51379741      23.24897040      -0.00000000       0.00000000      -0.00000000
Si      38.29242184      21.88138391      21.88138391       0.00000000      -0.00000000      -0.00000000
Si      39.66000833      23.24897040      23.24897040      -0.00000000      -0.00000000       0.00000000
Si      41.02759482      24.61655689      21.88138391       0.00000000       0.00000000       0.00000000
Si      42.39518132      25.98414339      23.24897040       0.00000000      -0.00000000      -0.00000000
Si      43.76276781      27.35172988      21.88138391      -0.00000000       0.00000000      -0.00000000
Si      45.13035431      28.71931638      23.24897040      -0.00000000      -0.00000000       0.00000000
Si      21.88138391       2.73517299      24.61655689       0.00000000       0.00000000      -0.00000000
Si      23.24897040       4.10275948      25.98414339      -0.00000000      -0.00000000      -0.00000000
Si      24.61655689       5.47034598      24.61655689       0.00000000       0.00000000       0.00000000
Si      25.98414339       6.83793247      25.98414339      -0.00000000      -0.00000000      -0.00000000
Si      27.35172988       8.20551896      24.61655689       0.00000000      -0.00000000       0.00000000
Si      28.71931638       9.57310546      25.98414339      -0.00000000      -0.00000000      -0.00000000
Si      30.08690287      10.94069195      24.61655689      -0.00000000      -0.00000000       0.00000000
Si      31.45448937      12.30827845      25.98414339      -0.00000000      -0.00000000       0.00000000
Si      32.82207586      13.67586494      24.61655689       0.00000000       0.00000000      -0.00000000
Si      34.18966235      15.04345144      25.98414339      -0.00000000       0.00000000      -0.00000000
Si      35.55724885      16.41103793      24.61655689       0.00000000      -0.00000000       0.00000000
Si      36.92483534      17.77862442      25.98414339      -0.00000000      -0.00000000      -0.00000000
Si      38.29242184      19.14621092      24.61655689       0.00000000      -0.00000000       0.00000000
Si      39.66000833      20.51379741      25.98414339      -0.00000000      -0.00000000      -0.00000000
Si      41.02759482      21.88138391      24.61655689       0.00000000       0.00000000       0.00000000
Si      42.39518132      23.24897040      25.98414339      -0.00000000      -0.00000000      -0.00000000
Si      43.76276781      24.61655689      24.61655689      -0.00000000       0.00000000       0.00000000
Si      45.13035431      25.98414339      25.98414339      -0.00000000      -0.00000000      -0.00000000
Si      46.49794080      27.35172988      24.61655689       0.00000000       0.00000000      -0.00000000
Si      47.86552730      28.71931638      25.98414339      -0.00000000      -0.00000000      -0.00000000
Si      24.61655689       2.73517299      27.35172988       0.00000000       0.00000000       0.00000000
Si      25.98414339       4.10275948      28.71931638      -0.00000000      -0.00000000      -0.00000000
Si      27.35172988       5.47034598      27.35172988       0.00000000       0.00000000      -0.00000000
Si      28.71931638       6.83793247      28.71931638      -0.00000000       0.00000000      -0.00000000
Si      30.08690287       8.20551896      27.35172988       0.00000000      -0.00000000       0.00000000
Si      31.45448937       9.57310546      28.71931638      -0.00000000       0.00000000      -0.00000000
Si      32.82207586      10.94069195      27.35172988      -0.00000000      -0.00000000       0.00000000
Si      34.18966235      12.30827845      28.71931638      -0.00000000       0.00000000      -0.00000000
Si      35.55724885      13.67586494      27.35172988       0.00000000       0.00000000       0.00000000
Si      36.92483534      15.04345144      28.71931638      -0.00000000      -0.00000000      -0.00000000
Si      38.29242184      16.41103793      27.35172988       0.00000000       0.00000000       0.00000000
Si      39.66000833      17.77862442      28.71931638      -0.00000000      -0.00000000      -0.00000000
Si      41.02759482      19.14621092      27.35172988       0.00000000       0.00000000       0.00000000
Si      42.39518132      20.51379741      28.71931638      -0.00000000      -0.00000000      -0.00000000
Si      43.76276781      21.88138391      27.35172988       0.00000000       0.00000000       0.00000000
Si      45.13035431      23.24897040      28.71931638      -0.00000000       0.00000000      -0.00000000
Si      46.49794080      24.61655689      27.35172988      -0.00000000       0.00000000       0.00000000
Si      47.86552730      25.98414339      28.71931638      -0.00000000      -0.00000000      -0.00000000
Si      49.23311379      27.35172988      27.35172988       0.00000000       0.00000000      -0.00000000
Si      50.60070028      28.71931638      28.71931638      -0.00000000      -0.00000000       0.00000000
Si       0.00000000       5.47034598       5.47034598       0.00000000       0.00000000      -0.00000000
Si       1.36758649       6.83793247       6.83793247       0.00000000       0.00000000       0.00000000
Si       2.73517299       8.20551896       5.47034598      -0.00000000      -0.00000000      -0.00000000
Si       4.10275948       9.57310546       6.83793247       0.00000000      -0.00000000       0.00000000
Si       5.47034598      10.94069195       5.47034598       0.00000000      -0.00000000      -0.00000000
Si       6.83793247      12.30827845       6.83793247       0.00000000       0.00000000       0.00000000
Si       8.20551896      13.67586494       5.47034598       0.00000000      -0.00000000       0.00000000
Si       9.57310546      15.04345144       6.83793247       0.00000000       0.00000000       0.00000000
Si      10.94069195      16.41103793       5.47034598      -0.00000000      -0.00000000      -0.00000000
Si      12.30827845      17.77862442       6.83793247       0.00000000      -0.00000000       0.00000000
Si      13.67586494      19.14621092       5.47034598       0.00000000      -0.00000000      -0.00000000
Si      15.04345144      20.51379741       6.83793247       0.00000000       0.00000000       0.00000000
Si      16.41103793      21.88138391       5.47034598       0.00000000      -0.00000000       0.00000000
Si      17.77862442      23.24897040       6.83793247      -0.00000000       0.00000000       0.00000000
Si      19.14621092      24.61655689       5.47034598       0.00000000      -0.00000000       0.00000000
Si      20.51379741      25.98414339       6.83793247      -0.00000000      -0.00000000       0.00000000
Si      21.88138391      27.35172988       5.47034598       0.00000000       0.00000000      -0.00000000
Si      23.24897040      28.71931638       6.83793247       0.00000000      -0.00000000       0.00000000
Si      24.61655689      30.08690287       5.47034598       0.00000000      -0.00000000       0.00000000
Si      25.98414339      31.45448937       6.83793247      -0.00000000      -0.00000000       0.00000000
Si       2.73517299       5.47034598       8.20551896       0.00000000       0.00000000      -0.00000000
Si       4.10275948       6.83793247       9.57310546       0.00000000       0.00000000      -0.00000000
Si       5.47034598       8.20551896       8.20551896       0.00000000      -0.00000000       0.00000000
Si       6.83793247       9.57310546       9.57310546       0.00000000      -0.00000000      -0.00000000
Si       8.20551896      10.94069195       8.20551896      -0.00000000      -0.00000000      -0.00000000
Si       9.57310546      12.30827845       9.57310546      -0.00000000       0.00000000      -0.00000000
Si      10.94069195      13.67586494       8.20551896       0.00000000      -0.00000000       0.00000000
Si      12.30827845      15.04345144       9.57310546      -0.00000000      -0.00000000      -0.00000000
Si      13.67586494      16.41103793       8.20551896       0.00000000       0.00000000      -0.00000000
Si      15.04345144      17.77862442       9.57310546       0.00000000       0.00000000      -0.00000000
Si      16.41103793      19.14621092       8.20551896      -0.00000000      -0.00000000       0.00000000
Si      17.77862442      20.51379741       9.57310546       0.00000000      -0.00000000      -0.00000000
Si      19.14621092      21.88138391       8.20551896       0.00000000      -0.00000000       0.00000000
Si      20.51379741      23.24897040       9.57310546      -0.00000000      -0.00000000      -0.00000000
Si      21.88138391      24.61655689       8.20551896       0.00000000       0.00000000      -0.00000000
Si      23.24897040      25.98414339       9.57310546      -0.00000000      -0.00000000       0.00000000
Si      24.61655689      27.35172988       8.20551896       0.00000000       0.00000000      -0.00000000
Si      25.98414339      28.71931638       9.57310546      -0.00000000      -0.00000000      -0.00000000
Si      27.35172988      30.08690287       8.20551896       0.00000000      -0.00000000       0.00000000
Si      28.71931638      31.45448937       9.57310546      -0.00000000      -0.00000000       0.00000000
Si       5.47034598       5.47034598      10.94069195       0.00000000       0.00000000      -0.00000000
Si       6.83793247       6.83793247      12.30827845       0.00000000       0.00000000      -0.00000000
Si       8.20551896       8.20551896      10.94069195      -0.00000000      -0.00000000       0.00000000
Si       9.57310546       9.57310546      12.30827845      -0.00000000       0.00000000      -0.00000000
Si      10.94069195      10.94069195      10.94069195      -0.00000000      -0.00000000       0.00000000
Si      12.30827845      12.30827845      12.30827845       0.00000000       0.00000000       0.00000000
Si      13.67586494      13.67586494      10.94069195       0.00000000       0.00000000       0.00000000
Si      15.04345144      15.04345144      12.30827845       0.00000000      -0.00000000      -0.00000000
Si      16.41103793      16.41103793      10.94069195      -0.00000000      -0.00000000       0.00000000
Si      17.77862442      17.77862442      12.30827845      -0.00000000      -0.00000000       0.00000000
Si      19.14621092      19.14621092      10.94069195       0.00000000       0.00000000       0.00000000
Si      20.51379741      20.51379741      12.30827845      -0.00000000      -0.00000000      -0.00000000
Si      21.88138391      21.88138391      10.94069195       0.00000000       0.00000000       0.00000000
Si      23.24897040      23.24897040      12.30827845      -0.00000000      -0.00000000      -0.00000000
Si      24.61655689      24.61655689      10.94069195       0.00000000       0.00000000       0.00000000
Si      25.98414339      25.98414339      12.30827845      -0.00000000      -0.00000000       0.00000000
Si      27.35172988      27.35172988      10.94069195       0.00000000       0.00000000      -0.00000000
Si      28.71931638      28.71931638      12.30827845      -0.00000000      -0.00000000      -0.00000000
Si      30.08690287      30.08690287      10.94069195      -0.00000000      -0.00000000       0.00000000
Si      31.45448937      31.45448937      12.30827845      -0.00000000      -0.00000000       0.00000000
Si       8.20551896       5.47034598      13.67586494       0.00000000       0.00000000      -0.00000000
Si       9.57310546       6.83793247      15.04345144       0.00000000       0.00000000      -0.00000000
Si      10.94069195       8.20551896      13.67586494       0.00000000      -0.00000000       0.00000000
Si      12.30827845       9.57310546      15.04345144       0.00000000      -0.00000000       0.00000000
Si      13.67586494      10.94069195      13.67586494      -0.00000000       0.00000000       0.00000000
Si      15.04345144      12.30827845      15.04345144       0.00000000       0.00000000       0.00000000
Si      16.41103793      13.67586494      13.67586494      -0.00000000       0.00000000       0.00000000
Si      17.77862442      15.04345144      15.04345144      -0.00000000      -0.00000000       0.00000000
Si      19.14621092      16.41103793      13.67586494       0.00000000       0.00000000      -0.00000000
Si      20.51379741      17.77862442      15.04345144      -0.00000000       0.00000000      -0.00000000
Si      21.88138391      19.14621092      13.67586494       0.00000000       0.00000000       0.00000000
Si      23.24897040      20.51379741      15.04345144      -0.00000000       0.00000000      -0.00000000
Si      24.61655689      21.88138391      13.67586494      -0.00000000       0.00000000       0.00000000
Si      25.98414339      23.24897040      15.04345144      -0.00000000      -0.00000000       0.00000000
Si      27.35172988      24.61655689      13.67586494       0.00000000       0.00000000       0.00000000
Si      28.71931638      25.98414339      15.04345144       0.00000000      -0.00000000       0.00000000
Si      30.08690287      27.35172988      13.67586494      -0.00000000       0.00000000       0.00000000
Si      31.45448937      28.71931638      15.04345144       0.00000000      -0.00000000       0.00000000
Si      32.82207586      30.08690287      13.67586494      -0.00000000      -0.00000000       0.00000000
Si      34.18966235      31.45448937      15.04345144      -0.00000000      -0.00000000       0.00000000
Si      10.94069195       5.47034598      16.41103793       0.00000000       0.00000000      -0.00000000
Si      12.30827845       6.83793247      17.77862442      -0.00000000       0.00000000      -0.00000000
Si      13.67586494       8.20551896      16.41103793       0.00000000       0.00000000       0.00000000
Si      15.04345144       9.57310546      17.77862442       0.00000000      -0.00000000      -0.00000000
Si      16.41103793      10.94069195      16.41103793      -0.00000000       0.00000000       0.00000000
Si      17.77862442      12.30827845      17.77862442      -0.00000000       0.00000000      -0.00000000
Si      19.14621092      13.67586494      16.41103793       0.00000000       0.00000000      -0.00000000
Si      20.51379741      15.04345144      17.77862442      -0.00000000       0.00000000      -0.00000000
Si      21.88138391      16.41103793      16.41103793       0.00000000      -0.00000000      -0.00000000
Si      23.24897040      17.77862442      17.77862442      -0.00000000      -0.00000000       0.00000000
Si      24.61655689      19.14621092      16.41103793       0.00000000       0.00000000      -0.00000000
Si      25.98414339      20.51379741      17.77862442      -0.00000000       0.00000000      -0.00000000
Si      27.35172988      21.88138391      16.41103793      -0.00000000       0.00000000       0.00000000
Si      28.71931638      23.24897040      17.77862442      -0.00000000       0.00000000      -0.00000000
Si      30.08690287      24.61655689      16.41103793      -0.00000000       0.00000000       0.00000000
Si      31.45448937      25.98414339      17.77862442      -0.00000000      -0.00000000       0.00000000
Si      32.82207586      27.35172988      16.41103793       0.00000000       0.00000000      -0.00000000
Si      34.18966235      28.71931638      17.77862442      -0.00000000      -0.00000000      -0.00000000
Si      35.55724885      30.08690287      16.41103793       0.00000000       0.00000000       0.00000000
Si      36.92483534      31.45448937      17.77862442      -0.00000000      -0.00000000       0.00000000
Si      13.67586494       5.47034598      19.14621092       0.00000000       0.00000000      -0.00000000
Si      15.04345144       6.83793247      20.51379741       0.00000000       0.00000000       0.00000000
Si      16.41103793       8.20551896      19.14621092      -0.00000000      -0.00000000      -0.00000000
Si      17.77862442       9.57310546      20.51379741      -0.00000000      -0.00000000       0.00000000
Si      19.14621092      10.94069195      19.14621092       0.00000000       0.00000000      -0.00000000
Si      20.51379741      12.30827845      20.51379741      -0.00000000      -0.00000000       0.00000000
Si      21.88138391      13.67586494      19.14621092       0.00000000      -0.00000000       0.00000000
Si      23.24897040      15.04345144      20.51379741      -0.00000000      -0.00000000       0.00000000
Si      24.61655689      16.41103793      19.14621092       0.00000000      -0.00000000      -0.00000000
Si      25.98414339      17.77862442      20.51379741      -0.00000000      -0.00000000       0.00000000
Si      27.35172988      19.14621092      19.14621092       0.00000000       0.00000000      -0.00000000
Si      28.71931638      20.51379741      20.51379741      -0.00000000       0.00000000      -0.00000000
Si      30.08690287      21.88138391      19.14621092       0.00000000       0.00000000       0.00000000
Si      31.45448937      23.24897040      20.51379741      -0.00000000       0.00000000      -0.00000000
Si      32.82207586      24.61655689      19.14621092       0.00000000       0.00000000       0.00000000
Si      34.18966235      25.98414339      20.51379741      -0.00000000      -0.00000000      -0.00000000
Si      35.55724885      27.35172988      19.14621092       0.00000000       0.00000000      -0.00000000
Si      36.92483534      28.71931638      20.51379741       0.00000000      -0.00000000       0.00000000
Si      38.29242184      30.08690287      19.14621092       0.00000000       0.00000000       0.00000000
Si      39.66000833      31.45448937      20.51379741      -0.00000000      -0.00000000       0.00000000
Si      16.41103793       5.47034598      21.88138391       0.00000000       0.00000000      -0.00000000
Si      17.77862442       6.83793247      23.24897040      -0.00000000       0.00000000      -0.00000000
Si      19.14621092       8.20551896      21.88138391      -0.00000000       0.00000000       0.00000000
Si      20.51379741       9.57310546      23.24897040      -0.00000000       0.00000000      -0.00000000
Si      21.88138391      10.94069195      21.88138391      -0.00000000       0.00000000       0.00000000
Si      23.24897040      12.30827845      23.24897040       0.00000000      -0.00000000       0.00000000
Si      24.61655689      13.67586494      21.88138391      -0.00000000       0.00000000       0.00000000
Si      25.98414339      15.04345144      23.24897040      -0.00000000       0.00000000       0.00000000
Si      27.35172988      16.41103793      21.88138391      -0.00000000      -0.00000000      -0.00000000
Si      28.71931638      17.77862442      23.24897040      -0.00000000      -0.00000000       0.00000000
Si      30.08690287      19.14621092      21.88138391       0.00000000       0.00000000       0.00000000
Si      31.45448937      20.51379741      23.24897040      -0.00000000       0.00000000      -0.00000000
Si      32.82207586      21.88138391      21.88138391       0.00000000      -0.00000000       0.00000000
Si      34.18966235      23.24897040      23.24897040      -0.00000000       0.00000000      -0.00000000
Si      35.55724885      24.61655689      21.88138391       0.00000000      -0.00000000       0.00000000
Si      36.92483534      25.98414339      23.24897040      -0.00000000      -0.00000000      -0.00000000
Si      38.29242184      27.35172988      21.88138391      -0.00000000       0.00000000       0.00000000
Si      39.66000833      28.71931638      23.24897040      -0.00000000      -0.00000000       0.00000000
Si      41.02759482      30.08690287      21.88138391       0.00000000       0.00000000       0.00000000
Si      42.39518132      31.45448937      23.24897040      -0.00000000      -0.00000000       0.00000000
Si      19.14621092       5.47034598      24.61655689       0.00000000       0.00000000      -0.00000000
Si      20.51379741       6.83793247      25.98414339       0.00000000       0.00000000       0.00000000
Si      21.88138391       8.20551896      24.61655689       0.00000000      -0.00000000       0.00000000
Si      23.24897040       9.57310546      25.98414339       0.00000000      -0.00000000      -0.00000000
Si      24.61655689      10.94069195      24.61655689      -0.00000000      -0.00000000      -0.00000000
Si      25.98414339      12.30827845      25.98414339       0.00000000       0.00000000       0.00000000
Si      27.35172988      13.67586494      24.61655689       0.00000000       0.00000000      -0.00000000
Si      28.71931638      15.04345144      25.98414339      -0.00000000       0.00000000      -0.00000000
Si      30.08690287      16.41103793      24.61655689      -0.00000000      -0.00000000      -0.00000000
Si      31.45448937      17.77862442      25.98414339      -0.00000000      -0.00000000      -0.00000000
Si      32.82207586      19.14621092      24.61655689       0.00000000       0.00000000       0.00000000
Si      34.18966235      20.51379741      25.98414339      -0.00000000       0.00000000      -0.00000000
Si      35.55724885      21.88138391      24.61655689      -0.00000000      -0.00000000       0.00000000
Si      36.92483534      23.24897040      25.98414339      -0.00000000       0.00000000      -0.00000000
Si      38.29242184      24.61655689      24.61655689       0.00000000      -0.00000000       0.00000000
Si      39.66000833      25.98414339      25.98414339      -0.00000000      -0.00000000      -0.00000000
Si      41.02759482      27.35172988      24.61655689       0.00000000       0.00000000      -0.00000000
Si      42.39518132      28.71931638      25.98414339       0.00000000      -0.00000000      -0.00000000
Si      43.76276781      30.08690287      24.61655689      -0.00000000      -0.00000000       0.00000000
Si      45.13035431      31.45448937      25.98414339      -0.00000000      -0.00000000       0.00000000
Si      21.88138391       5.47034598      27.35172988       0.00000000       0.00000000      -0.00000000
Si      23.24897040       6.83793247      28.71931638      -0.00000000       0.00000000       0.00000000
Si      24.61655689       8.20551896      27.35172988       0.00000000      -0.00000000       0.00000000
Si      25.98414339       9.57310546      28.71931638      -0.00000000      -0.00000000       0.00000000
Si      27.35172988      10.94069195      27.35172988       0.00000000      -0.00000000       0.00000000
Si      28.71931638      12.30827845      28.71931638      -0.00000000       0.00000000      -0.00000000
Si      30.08690287      13.67586494      27.35172988      -0.00000000       0.00000000       0.00000000
Si      31.45448937      15.04345144      28.71931638      -0.00000000       0.00000000       0.00000000
Si      32.82207586      16.41103793      27.35172988      -0.00000000      -0.00000000       0.00000000
Si      34.18966235      17.77862442      28.71931638      -0.00000000      -0.00000000       0.00000000
Si      35.55724885      19.14621092      27.35172988       0.00000000       0.00000000       0.00000000
Si      36.92483534      20.51379741      28.71931638      -0.00000000       0.00000000      -0.00000000
Si      38.29242184      21.88138391      27.35172988       0.00000000      -0.00000000       0.00000000
Si      39.66000833      23.24897040      28.71931638      -0.00000000      -0.00000000       0.00000000
Si      41.02759482      24.61655689      27.35172988       0.00000000       0.00000000      -0.00000000
Si      42.39518132      25.98414339      28.71931638       0.00000000       0.00000000       0.00000000
Si      43.76276781      27.35172988      27.35172988      -0.00000000       0.00000000       0.00000000
Si      45.13035431      28.71931638      28.71931638       0.00000000      -0.00000000       0.00000000
Si      46.49794080      30.08690287      27.35172988      -0.00000000      -0.00000000       0.00000000
Si      47.86552730      31.45448937      28.71931638      -0.00000000      -0.00000000       0.00000000
Si      24.61655689       5.47034598      30.08690287       0.00000000       0.00000000      -0.00000000
Si      25.98414339       6.83793247      31.45448937      -0.00000000       0.00000000       0.00000000
Si      27.35172988       8.20551896      30.08690287       0.00000000       0.00000000      -0.00000000
Si      28.71931638       9.57310546      31.45448937      -0.00000000       0.00000000      -0.00000000
Si      30.08690287      10.94069195      30.08690287      -0.00000000      -0.00000000       0.00000000
Si      31.45448937      12.30827845      31.45448937      -0.00000000       0.00000000      -0.00000000
Si      32.82207586      13.67586494      30.08690287      -0.00000000       0.00000000       0.00000000
Si      34.18966235      15.04345144      31.45448937      -0.00000000       0.00000000      -0.00000000
Si      35.55724885      16.41103793      30.08690287       0.00000000       0.00000000      -0.00000000
Si      36.92483534      17.77862442      31.45448937       0.00000000      -0.00000000       0.00000000
Si      38.29242184      19.14621092      30.08690287      -0.00000000       0.00000000       0.00000000
Si      39.66000833      20.51379741      31.45448937      -0.00000000       0.00000000      -0.00000000
Si      41.02759482      21.88138391      30.08690287      -0.00000000       0.00000000       0.00000000
Si      42.39518132      23.24897040      31.45448937      -0.00000000       0.00000000      -0.00000000
Si      43.76276781      24.61655689      30.08690287      -0.00000000       0.00000000       0.00000000
Si      45.13035431      25.98414339      31.45448937      -0.00000000      -0.00000000       0.00000000
Si      46.49794080      27.35172988      30.08690287       0.00000000       0.00000000       0.00000000
Si      47.86552730      28.71931638      31.45448937      -0.00000000      -0.00000000      -0.00000000
Si      49.23311379      30.08690287      30.08690287       0.00000000       0.00000000       0.00000000
Si      50.60070028      31.45448937      31.45448937      -0.00000000      -0.00000000       0.00000000
Si       0.00000000       8.20551896       8.20551896       0.00000000       0.00000000      -0.00000000
Si       1.36758649       9.57310546       9.57310546       0.00000000       0.00000000      -0.00000000
Si       2.73517299      10.94069195       8.20551896       0.00000000      -0.00000000       0.00000000
Si       4.10275948      12.30827845       9.57310546       0.00000000       0.00000000      -0.00000000
Si       5.47034598      13.67586494       8.20551896       0.00000000      -0.00000000       0.00000000
Si       6.83793247      15.04345144       9.57310546       0.00000000       0.00000000       0.00000000
Si       8.20551896      16.41103793       8.20551896      -0.00000000      -0.00000000       0.00000000
Si       9.57310546      17.77862442       9.57310546       0.00000000      -0.00000000       0.00000000
Si      10.94069195      19.14621092       8.20551896      -0.00000000      -0.00000000      -0.00000000
Si      12.30827845      20.51379741       9.57310546       0.00000000      -0.00000000       0.00000000
Si      13.67586494      21.88138391       8.20551896       0.00000000      -0.00000000      -0.00000000
Si      15.04345144      23.24897040       9.57310546       0.00000000      -0.00000000       0.00000000
Si      16.41103793      24.61655689       8.20551896       0.00000000      -0.00000000       0.00000000
Si      17.77862442      25.98414339       9.57310546      -0.00000000      -0.00000000      -0.00000000
Si      19.14621092      27.35172988       8.20551896       0.00000000      -0.00000000       0.00000000
Si      20.51379741      28.71931638       9.57310546      -0.00000000       0.00000000       0.00000000
Si      21.88138391      30.08690287       8.20551896      -0.00000000      -0.00000000      -0.00000000
Si      23.24897040      31.45448937       9.57310546       0.00000000      -0.00000000       0.00000000
Si      24.61655689      32.82207586       8.20551896      -0.00000000      -0.00000000      -0.00000000
Si      25.98414339      34.18966235       9.57310546      -0.00000000      -0.00000000       0.00000000
Si       2.73517299       8.20551896      10.94069195       0.00000000       0.00000000      -0.00000000
Si       4.10275948       9.57310546      12.30827845       0.00000000       0.00000000      -0.00000000
Si       5.47034598      10.94069195      10.94069195      -0.00000000       0.00000000       0.00000000
Si       6.83793247      12.30827845      12.30827845       0.00000000      -0.00000000      -0.00000000
Si       8.20551896      13.67586494      10.94069195      -0.00000000       0.00000000       0.00000000
Si       9.57310546      15.04345144      12.30827845       0.00000000       0.00000000      -0.00000000
Si      10.94069195      16.41103793      10.94069195      -0.00000000      -0.00000000       0.00000000
Si      12.30827845      17.77862442      12.30827845      -0.00000000       0.00000000       0.00000000
Si      13.67586494      19.14621092      10.94069195       0.00000000       0.00000000       0.00000000
Si      15.04345144      20.51379741      12.30827845       0.00000000      -0.00000000      -0.00000000
Si      16.41103793      21.88138391      10.94069195      -0.00000000      -0.00000000       0.00000000
Si      17.77862442      23.24897040      12.30827845       0.00000000       0.00000000      -0.00000000
Si      19.14621092      24.61655689      10.94069195      -0.00000000      -0.00000000       0.00000000
Si      20.51379741      25.98414339      12.30827845      -0.00000000      -0.00000000       0.00000000
Si      21.88138391      27.35172988      10.94069195       0.00000000       0.00000000      -0.00000000
Si      23.24897040      28.71931638      12.30827845       0.00000000       0.00000000      -0.00000000
Si      24.61655689      30.08690287      10.94069195      -0.00000000      -0.00000000       0.00000000
Si      25.98414339      31.45448937      12.30827845      -0.00000000      -0.00000000       0.00000000
Si      27.35172988      32.82207586      10.94069195       0.00000000       0.00000000       0.00000000
Si      28.71931638      34.18966235      12.30827845      -0.00000000      -0.00000000       0.00000000
Si       5.47034598       8.20551896      13.67586494       0.00000000       0.00000000      -0.00000000
Si       6.83793247       9.57310546      15.04345144       0.00000000       0.00000000      -0.00000000
Si       8.20551896      10.94069195      13.67586494      -0.00000000       0.00000000       0.00000000
Si       9.57310546      12.30827845      15.04345144      -0.00000000       0.00000000       0.00000000
Si      10.94069195      13.67586494      13.67586494       0.00000000      -0.00000000       0.00000000
Si      12.30827845      15.04345144      15.04345144       0.00000000      -0.00000000       0.00000000
Si      13.67586494      16.41103793      13.67586494       0.00000000      -0.00000000       0.00000000
Si      15.04345144      17.77862442      15.04345144      -0.00000000      -0.00000000       0.00000000
Si      16.41103793      19.14621092      13.67586494       0.00000000       0.00000000       0.00000000
Si      17.77862442      20.51379741      15.04345144       0.00000000      -0.00000000       0.00000000
Si      19.14621092      21.88138391      13.67586494       0.00000000       0.00000000       0.00000000
Si      20.51379741      23.24897040      15.04345144      -0.00000000      -0.00000000      -0.00000000
Si      21.88138391      24.61655689      13.67586494       0.00000000      -0.00000000       0.00000000
Si      23.24897040      25.98414339      15.04345144      -0.00000000      -0.00000000       0.00000000
Si      24.61655689      27.35172988      13.67586494       0.00000000       0.00000000       0.00000000
Si      25.98414339      28.71931638      15.04345144      -0.00000000       0.00000000       0.00000000
Si      27.35172988      30.08690287      13.67586494       0.00000000      -0.00000000       0.00000000
Si      28.71931638      31.45448937      15.04345144      -0.00000000       0.00000000       0.00000000
Si      30.08690287      32.82207586      13.67586494      -0.00000000      -0.00000000       0.00000000
Si      31.45448937      34.18966235      15.04345144      -0.00000000      -0.00000000       0.00000000
Si       8.20551896       8.20551896      16.41103793       0.00000000       0.00000000      -0.00000000
Si       9.57310546       9.57310546      17.77862442       0.00000000       0.00000000      -0.00000000
Si      10.94069195      10.94069195      16.41103793      -0.00000000      -0.00000000      -0.00000000
Si      12.30827845      12.30827845      17.77862442       0.00000000       0.00000000      -0.00000000
Si      13.67586494      13.67586494      16.41103793       0.00000000       0.00000000      -0.00000000
Si      15.04345144      15.04345144      17.77862442       0.00000000       0.00000000      -0.00000000
Si      16.41103793      16.41103793      16.41103793      -0.00000000      -0.00000000       0.00000000
Si      17.77862442      17.77862442      17.77862442      -0.00000000      -0.00000000       0.00000000
Si      19.14621092      19.14621092      16.41103793       0.00000000       0.00000000      -0.00000000
Si      20.51379741      20.51379741      17.77862442      -0.00000000      -0.00000000       0.00000000
Si      21.88138391      21.88138391      16.41103793       0.00000000       0.00000000      -0.00000000
Si      23.24897040      23.24897040      17.77862442      -0.00000000      -0.00000000      -0.00000000
Si      24.61655689      24.61655689      16.41103793      -0.00000000      -0.00000000       0.00000000
Si      25.98414339      25.98414339      17.77862442      -0.00000000      -0.00000000       0.00000000
Si      27.35172988      27.35172988      16.41103793       0.00000000       0.00000000      -0.00000000
Si      28.71931638      28.71931638      17.77862442       0.00000000       0.00000000      -0.00000000
Si      30.08690287      30.08690287      16.41103793      -0.00000000      -0.00000000      -0.00000000
Si      31.45448937      31.45448937      17.77862442      -0.00000000      -0.00000000      -0.00000000
Si      32.82207586      32.82207586      16.41103793      -0.00000000      -0.00000000       0.00000000
Si      34.18966235      34.18966235      17.77862442      -0.00000000      -0.00000000       0.00000000
Si      10.94069195       8.20551896      19.14621092       0.00000000       0.00000000      -0.00000000
Si      12.30827845       9.57310546      20.51379741       0.00000000       0.00000000      -0.00000000
Si      13.67586494      10.94069195      19.14621092       0.00000000      -0.00000000      -0.00000000
Si      15.04345144      12.30827845      20.51379741       0.00000000       0.00000000      -0.00000000
Si      16.41103793      13.67586494      19.14621092      -0.00000000      -0.00000000       0.00000000
Si      17.77862442      15.04345144      20.51379741      -0.00000000      -0.00000000      -0.00000000
Si      19.14621092      16.41103793      19.14621092       0.00000000       0.00000000      -0.00000000
Si      20.51379741      17.77862442      20.51379741      -0.00000000       0.00000000      -0.00000000
Si      21.88138391      19.14621092      19.14621092      -0.00000000       0.00000000       0.00000000
Si      23.24897040      20.51379741      20.51379741      -0.00000000      -0.00000000      -0.00000000
Si      24.61655689      21.88138391      19.14621092       0.00000000       0.00000000      -0.00000000
Si      25.98414339      23.24897040      20.51379741      -0.00000000       0.00000000      -0.00000000
Si      27.35172988      24.61655689      19.14621092       0.00000000       0.00000000      -0.00000000
Si      28.71931638      25.98414339      20.51379741      -0.00000000       0.00000000      -0.00000000
Si      30.08690287      27.35172988      19.14621092      -0.00000000       0.00000000      -0.00000000
Si      31.45448937      28.71931638      20.51379741       0.00000000      -0.00000000      -0.00000000
Si      32.82207586      30.08690287      19.14621092      -0.00000000      -0.00000000      -0.00000000
Si      34.18966235      31.45448937      20.51379741      -0.00000000       0.00000000      -0.00000000
Si      35.55724885      32.82207586      19.14621092       0.00000000      -0.00000000      -0.00000000
Si      36.92483534      34.18966235      20.51379741       0.00000000      -0.00000000       0.00000000
Si      13.67586494       8.20551896      21.88138391       0.00000000       0.00000000      -0.00000000
Si      15.04345144       9.57310546      23.24897040       0.00000000      -0.00000000      -0.00000000
Si      16.41103793      10.94069195      21.88138391       0.00000000      -0.00000000       0.00000000
Si      17.77862442      12.30827845      23.24897040       0.00000000       0.00000000      -0.00000000
Si      19.14621092      13.67586494      21.88138391       0.00000000      -0.00000000       0.00000000
Si      20.51379741      15.04345144      23.24897040       0.00000000      -0.00000000      -0.00000000
Si      21.88138391      16.41103793      21.88138391       0.00000000      -0.00000000       0.00000000
Si      23.24897040      17.77862442      23.24897040      -0.00000000      -0.00000000      -0.00000000
Si      24.61655689      19.14621092      21.88138391       0.00000000      -0.00000000       0.00000000
Si      25.98414339      20.51379741      23.24897040       0.00000000      -0.00000000      -0.00000000
Si      27.35172988      21.88138391      21.88138391       0.00000000      -0.00000000       0.00000000
Si      28.71931638      23.24897040      23.24897040      -0.00000000       0.00000000      -0.00000000
Si      30.08690287      24.61655689      21.88138391       0.00000000       0.00000000       0.00000000
Si      31.45448937      25.98414339      23.24897040      -0.00000000      -0.00000000      -0.00000000
Si      32.82207586      27.35172988      21.88138391       0.00000000       0.00000000       0.00000000
Si      34.18966235      28.71931638      23.24897040      -0.00000000      -0.00000000       0.00000000
Si      35.55724885      30.08690287      21.88138391       0.00000000       0.00000000       0.00000000
Si      36.92483534      31.45448937      23.24897040      -0.00000000      -0.00000000      -0.00000000
Si      38.29242184      32.82207586      21.88138391       0.00000000      -0.00000000       0.00000000
Si      39.66000833      34.18966235      23.24897040      -0.00000000      -0.00000000       0.00000000
Si      16.41103793       8.20551896      24.61655689       0.00000000       0.00000000      -0.00000000
Si      17.77862442       9.57310546      25.98414339      -0.00000000      -0.00000000      -0.00000000
Si      19.14621092      10.94069195      24.61655689       0.00000000      -0.00000000       0.00000000
Si      20.51379741      12.30827845      25.98414339      -0.00000000       0.00000000      -0.00000000
Si      21.88138391      13.67586494      24.61655689       0.00000000      -0.00000000       0.00000000
Si      23.24897040      15.04345144      25.98414339      -0.00000000       0.00000000      -0.00000000
Si      24.61655689      16.41103793      24.61655689      -0.00000000      -0.00000000      -0.00000000
Si      25.98414339      17.77862442      25.98414339      -0.00000000      -0.00000000      -0.00000000
Si      27.35172988      19.14621092      24.61655689       0.00000000       0.00000000      -0.00000000
Si      28.71931638      20.51379741      25.98414339       0.00000000      -0.00000000      -0.00000000
Si      30.08690287      21.88138391      24.61655689       0.00000000       0.00000000       0.00000000
Si      31.45448937      23.24897040      25.98414339      -0.00000000      -0.00000000      -0.00000000
Si      32.82207586      24.61655689      24.61655689       0.00000000      -0.00000000       0.00000000
Si      34.18966235      25.98414339      25.98414339      -0.00000000      -0.00000000      -0.00000000
Si      35.55724885      27.35172988      24.61655689      -0.00000000       0.00000000      -0.00000000
Si      36.92483534      28.71931638      25.98414339      -0.00000000       0.00000000      -0.00000000
Si      38.29242184      30.08690287      24.61655689      -0.00000000      -0.00000000      -0.00000000
Si      39.66000833      31.45448937      25.98414339       0.00000000       0.00000000      -0.00000000
Si      41.02759482      32.82207586      24.61655689      -0.00000000      -0.00000000       0.00000000
Si      42.39518132      34.18966235      25.98414339      -0.00000000      -0.00000000      -0.00000000
Si      19.14621092       8.20551896      27.35172988       0.00000000       0.00000000      -0.00000000
Si      20.51379741       9.57310546      28.71931638      -0.00000000      -0.00000000       0.00000000
Si      21.88138391      10.94069195      27.35172988       0.00000000       0.00000000       0.00000000
Si      23.24897040      12.30827845      28.71931638      -0.00000000       0.00000000      -0.00000000
Si      24.61655689      13.67586494      27.35172988      -0.00000000       0.00000000       0.00000000
Si      25.98414339      15.04345144      28.71931638      -0.00000000       0.00000000      -0.00000000
Si      27.35172988      16.41103793      27.35172988       0.00000000       0.00000000       0.00000000
Si      28.71931638      17.77862442      28.71931638      -0.00000000      -0.00000000      -0.00000000
Si      30.08690287      19.14621092      27.35172988      -0.00000000       0.00000000       0.00000000
Si      31.45448937      20.51379741      28.71931638      -0.00000000      -0.00000000       0.00000000
Si      32.82207586      21.88138391      27.35172988       0.00000000       0.00000000      -0.00000000
Si      34.18966235      23.24897040      28.71931638       0.00000000       0.00000000       0.00000000
Si      35.55724885      24.61655689      27.35172988      -0.00000000      -0.00000000       0.00000000
Si      36.92483534      25.98414339      28.71931638      -0.00000000       0.00000000       0.00000000
Si      38.29242184      27.35172988      27.35172988       0.00000000       0.00000000       0.00000000
Si      39.66000833      28.71931638      28.71931638      -0.00000000      -0.00000000       0.00000000
Si      41.02759482      30.08690287      27.35172988       0.00000000      -0.00000000       0.00000000
Si      42.39518132      31.45448937      28.71931638       0.00000000      -0.00000000       0.00000000
Si      43.76276781      32.82207586      27.35172988      -0.00000000      -0.00000000       0.00000000
Si      45.13035431      34.18966235      28.71931638      -0.00000000      -0.00000000       0.00000000
Si      21.88138391       8.20551896      30.08690287       0.00000000       0.00000000      -0.00000000
Si      23.24897040       9.57310546      31.45448937       0.00000000       0.00000000      -0.00000000
Si      24.61655689      10.94069195      30.08690287       0.00000000      -0.00000000       0.00000000
Si      25.98414339      12.30827845      31.45448937      -0.00000000      -0.00000000      -0.00000000
Si      27.35172988      13.67586494      30.08690287       0.00000000       0.00000000       0.00000000
Si      28.71931638      15.04345144      31.45448937      -0.00000000      -0.00000000      -0.00000000
Si      30.08690287      16.41103793      30.08690287       0.00000000      -0.00000000       0.00000000
Si      31.45448937      17.77862442      31.45448937      -0.00000000      -0.00000000      -0.00000000
Si      32.82207586      19.14621092      30.08690287      -0.00000000       0.00000000       0.00000000
Si      34.18966235      20.51379741      31.45448937      -0.00000000      -0.00000000       0.00000000
Si      35.55724885      21.88138391      30.08690287       0.00000000       0.00000000      -0.00000000
Si      36.92483534      23.24897040      31.45448937       0.00000000      -0.00000000      -0.00000000
Si      38.29242184      24.61655689      30.08690287       0.00000000      -0.00000000       0.00000000
Si      39.66000833      25.98414339      31.45448937      -0.00000000      -0.00000000      -0.00000000
Si      41.02759482      27.35172988      30.08690287       0.00000000       0.00000000      -0.00000000
Si      42.39518132      28.71931638      31.45448937       0.00000000       0.00000000      -0.00000000
Si      43.76276781      30.08690287      30.08690287      -0.00000000      -0.00000000      -0.00000000
Si      45.13035431      31.45448937      31.45448937      -0.00000000      -0.00000000      -0.00000000
Si      46.49794080      32.82207586      30.08690287      -0.00000000      -0.00000000       0.00000000
Si      47.86552730      34.18966235      31.45448937      -0.00000000      -0.00000000      -0.00000000
Si      24.61655689       8.20551896      32.82207586       0.00000000       0.00000000      -0.00000000
Si      25.98414339       9.57310546      34.18966235      -0.00000000       0.00000000      -0.00000000
Si      27.35172988      10.94069195      32.82207586       0.00000000      -0.00000000       0.00000000
Si      28.71931638      12.30827845      34.18966235      -0.00000000       0.00000000      -0.00000000
Si      30.08690287      13.67586494      32.82207586       0.00000000       0.00000000       0.00000000
Si      31.45448937      15.04345144      34.18966235      -0.00000000       0.00000000      -0.00000000
Si      32.82207586      16.41103793      32.82207586       0.00000000       0.00000000       0.00000000
Si      34.18966235      17.77862442      34.18966235      -0.00000000      -0.00000000      -0.00000000
Si      35.55724885      19.14621092      32.82207586       0.00000000       0.00000000       0.00000000
Si      36.92483534      20.51379741      34.18966235      -0.00000000      -0.00000000       0.00000000
Si      38.29242184      21.88138391      32.82207586       0.00000000       0.00000000      -0.00000000
Si      39.66000833      23.24897040      34.18966235      -0.00000000       0.00000000      -0.00000000
Si      41.02759482      24.61655689      32.82207586       0.00000000      -0.00000000       0.00000000
Si      42.39518132      25.98414339      34.18966235      -0.00000000       0.00000000      -0.00000000
Si      43.76276781      27.35172988      32.82207586      -0.00000000       0.00000000      -0.00000000
Si      45.13035431      28.71931638      34.18966235      -0.00000000       0.00000000      -0.00000000
Si      46.49794080      30.08690287      32.82207586      -0.00000000      -0.00000000       0.00000000
Si      47.86552730      31.45448937      34.18966235      -0.00000000       0.00000000      -0.00000000
Si      49.23311379      32.82207586      32.82207586       0.00000000      -0.00000000       0.00000000
Si      50.60070028      34.18966235      34.18966235       0.00000000      -0.00000000      -0.00000000
Si       0.00000000      10.94069195      10.94069195       0.00000000       0.00000000       0.00000000
Si       1.36758649      12.30827845      12.30827845       0.00000000      -0.00000000      -0.00000000
Si       2.73517299      13.67586494      10.94069195       0.00000000      -0.00000000       0.00000000
Si       4.10275948      15.04345144      12.30827845       0.00000000       0.00000000      -0.00000000
Si       5.47034598      16.41103793      10.94069195      -0.00000000      -0.00000000       0.00000000
Si       6.83793247      17.77862442      12.30827845       0.00000000      -0.00000000       0.00000000
Si       8.20551896      19.14621092      10.94069195       0.00000000      -0.00000000       0.00000000
Si       9.57310546      20.51379741      12.30827845       0.00000000      -0.00000000      -0.00000000
Si      10.94069195      21.88138391      10.94069195      -0.00000000      -0.00000000       0.00000000
Si      12.30827845      23.24897040      12.30827845       0.00000000      -0.00000000       0.00000000
Si      13.67586494      24.61655689      10.94069195       0.00000000       0.00000000      -0.00000000
Si      15.04345144      25.98414339      12.30827845       0.00000000       0.00000000       0.00000000
Si      16.41103793      27.35172988      10.94069195      -0.00000000      -0.00000000       0.00000000
Si      17.77862442      28.71931638      12.30827845      -0.00000000      -0.00000000       0.00000000
Si      19.14621092      30.08690287      10.94069195       0.00000000      -0.00000000      -0.00000000
Si      20.51379741      31.45448937      12.30827845      -0.00000000       0.00000000       0.00000000
Si      21.88138391      32.82207586      10.94069195      -0.00000000      -0.00000000       0.00000000
Si      23.24897040      34.18966235      12.30827845       0.00000000      -0.00000000       0.00000000
Si      24.61655689      35.55724885      10.94069195       0.00000000       0.00000000      -0.00000000
Si      25.98414339      36.92483534      12.30827845      -0.00000000      -0.00000000       0.00000000
Si       2.73517299      10.94069195      13.67586494       0.00000000       0.00000000      -0.00000000
Si       4.10275948      12.30827845      15.04345144       0.00000000      -0.00000000      -0.00000000
Si       5.47034598      13.67586494      13.67586494      -0.00000000       0.00000000       0.00000000
Si       6.83793247      15.04345144      15.04345144       0.00000000       0.00000000      -0.00000000
Si       8.20551896      16.41103793      13.67586494      -0.00000000      -0.00000000       0.00000000
Si       9.57310546      17.77862442      15.04345144       0.00000000      -0.00000000      -0.00000000
Si      10.94069195      19.14621092      13.67586494       0.00000000       0.00000000       0.00000000
Si      12.30827845      20.51379741      15.04345144      -0.00000000      -0.00000000      -0.00000000
Si      13.67586494      21.88138391      13.67586494       0.00000000       0.00000000       0.00000000
Si      15.04345144      23.24897040      15.04345144      -0.00000000      -0.00000000       0.00000000
Si      16.41103793      24.61655689      13.67586494       0.00000000       0.00000000       0.00000000
Si      17.77862442      25.98414339      15.04345144      -0.00000000      -0.00000000      -0.00000000
Si      19.14621092      27.35172988      13.67586494       0.00000000       0.00000000       0.00000000
Si      20.51379741      28.71931638      15.04345144      -0.00000000       0.00000000      -0.00000000
Si      21.88138391      30.08690287      13.67586494       0.00000000      -0.00000000       0.00000000
Si      23.24897040      31.45448937      15.04345144      -0.00000000      -0.00000000       0.00000000
Si      24.61655689      32.82207586      13.67586494       0.00000000       0.00000000       0.00000000
Si      25.98414339      34.18966235      15.04345144      -0.00000000      -0.00000000       0.00000000
Si      27.35172988      35.55724885      13.67586494       0.00000000      -0.00000000       0.00000000
Si      28.71931638      36.92483534      15.04345144      -0.00000000       0.00000000       0.00000000
Si       5.47034598      10.94069195      16.41103793       0.00000000       0.00000000      -0.00000000
Si       6.83793247      12.30827845      17.77862442       0.00000000      -0.00000000      -0.00000000
Si       8.20551896      13.67586494      16.41103793       0.00000000       0.00000000      -0.00000000
Si       9.57310546      15.04345144      17.77862442      -0.00000000       0.00000000      -0.00000000
Si      10.94069195      16.41103793      16.41103793       0.00000000      -0.00000000       0.00000000
Si      12.30827845      17.77862442      17.77862442       0.00000000      -0.00000000      -0.00000000
Si      13.67586494      19.14621092      16.41103793       0.00000000       0.00000000       0.00000000
Si      15.04345144      20.51379741      17.77862442       0.00000000      -0.00000000      -0.00000000
Si      16.41103793      21.88138391      16.41103793      -0.00000000       0.00000000       0.00000000
Si      17.77862442      23.24897040      17.77862442      -0.00000000      -0.00000000       0.00000000
Si      19.14621092      24.61655689      16.41103793       0.00000000       0.00000000      -0.00000000
Si      20.51379741      25.98414339      17.77862442       0.00000000      -0.00000000      -0.00000000
Si      21.88138391      27.35172988      16.41103793       0.00000000       0.00000000       0.00000000
Si      23.24897040      28.71931638      17.77862442       0.00000000      -0.00000000      -0.00000000
Si      24.61655689      30.08690287      16.41103793       0.00000000      -0.00000000       0.00000000
Si      25.98414339      31.45448937      17.77862442      -0.00000000      -0.00000000       0.00000000
Si      27.35172988      32.82207586      16.41103793       0.00000000       0.00000000      -0.00000000
Si      28.71931638      34.18966235      17.77862442      -0.00000000      -0.00000000      -0.00000000
Si      30.08690287      35.55724885      16.41103793       0.00000000       0.00000000       0.00000000
Si      31.45448937      36.92483534      17.77862442      -0.00000000      -0.00000000       0.00000000
Si       8.20551896      10.94069195      19.14621092       0.00000000       0.00000000      -0.00000000
Si       9.57310546      12.30827845      20.51379741       0.00000000       0.00000000      -0.00000000
Si      10.94069195      13.67586494      19.14621092      -0.00000000       0.00000000      -0.00000000
Si      12.30827845      15.04345144      20.51379741       0.00000000       0.00000000      -0.00000000
Si      13.67586494      16.41103793      19.14621092      -0.00000000      -0.00000000       0.00000000
Si      15.04345144      17.77862442      20.51379741      -0.00000000      -0.00000000      -0.00000000
Si      16.41103793      19.14621092      19.14621092       0.00000000       0.00000000      -0.00000000
Si      17.77862442      20.51379741      20.51379741       0.00000000      -0.00000000      -0.00000000
Si      19.14621092      21.88138391      19.14621092       0.00000000      -0.00000000       0.00000000
Si      20.51379741      23.24897040      20.51379741      -0.00000000      -0.00000000      -0.00000000
Si      21.88138391      24.61655689      19.14621092       0.00000000       0.00000000      -0.00000000
Si      23.24897040      25.98414339      20.51379741       0.00000000      -0.00000000      -0.00000000
Si      24.61655689      27.35172988      19.14621092       0.00000000      -0.00000000       0.00000000
Si      25.98414339      28.71931638      20.51379741       0.00000000      -0.00000000      -0.00000000
Si      27.35172988      30.08690287      19.14621092       0.00000000      -0.00000000       0.00000000
Si      28.71931638      31.45448937      20.51379741      -0.00000000       0.00000000      -0.00000000
Si      30.08690287      32.82207586      19.14621092       0.00000000      -0.00000000      -0.00000000
Si      31.45448937      34.18966235      20.51379741       0.00000000      -0.00000000      -0.00000000
Si      32.82207586      35.55724885      19.14621092      -0.00000000       0.00000000      -0.00000000
Si      34.18966235      36.92483534      20.51379741      -0.00000000       0.00000000       0.00000000
Si      10.94069195      10.94069195      21.88138391       0.00000000       0.00000000      -0.00000000
Si      12.30827845      12.30827845      23.24897040       0.00000000       0.00000000      -0.00000000
Si      13.67586494      13.67586494      21.88138391       0.00000000       0.00000000       0.00000000
Si      15.04345144      15.04345144      23.24897040       0.00000000       0.00000000      -0.00000000
Si      16.41103793      16.41103793      21.88138391      -0.00000000      -0.00000000       0.00000000
Si      17.77862442      17.77862442      23.24897040      -0.00000000      -0.00000000      -0.00000000
Si      19.14621092      19.14621092      21.88138391       0.00000000       0.00000000       0.00000000
Si      20.51379741      20.51379741      23.24897040      -0.00000000      -0.00000000      -0.00000000
Si      21.88138391      21.88138391      21.88138391       0.00000000       0.00000000       0.00000000
Si      23.24897040      23.24897040      23.24897040      -0.00000000      -0.00000000      -0.00000000
Si      24.61655689      24.61655689      21.88138391       0.00000000       0.00000000       0.00000000
Si      25.98414339      25.98414339      23.24897040       0.00000000      -0.00000000      -0.00000000
Si      27.35172988      27.35172988      21.88138391       0.00000000       0.00000000       0.00000000
Si      28.71931638      28.71931638      23.24897040       0.00000000       0.00000000      -0.00000000
Si      30.08690287      30.08690287      21.88138391      -0.00000000      -0.00000000       0.00000000
Si      31.45448937      31.45448937      23.24897040      -0.00000000      -0.00000000      -0.00000000
Si      32.82207586      32.82207586      21.88138391      -0.00000000      -0.00000000       0.00000000
Si      34.18966235      34.18966235      23.24897040      -0.00000000      -0.00000000      -0.00000000
Si      35.55724885      35.55724885      21.88138391       0.00000000       0.00000000       0.00000000
Si      36.92483534      36.92483534      23.24897040      -0.00000000      -0.00000000      -0.00000000
Si      13.67586494      10.94069195      24.61655689       0.00000000       0.00000000      -0.00000000
Si      15.04345144      12.30827845      25.98414339       0.00000000       0.00000000       0.00000000
Si      16.41103793      13.67586494      24.61655689      -0.00000000       0.00000000       0.00000000
Si      17.77862442      15.04345144      25.98414339      -0.00000000       0.00000000      -0.00000000
Si      19.14621092      16.41103793      24.61655689       0.00000000      -0.00000000       0.00000000
Si      20.51379741      17.77862442      25.98414339       0.00000000      -0.00000000      -0.00000000
Si      21.88138391      19.14621092      24.61655689       0.00000000       0.00000000       0.00000000
Si      23.24897040      20.51379741      25.98414339      -0.00000000      -0.00000000       0.00000000
Si      24.61655689      21.88138391      24.61655689       0.00000000       0.00000000       0.00000000
Si      25.98414339      23.24897040      25.98414339      -0.00000000      -0.00000000       0.00000000
Si      27.35172988      24.61655689      24.61655689       0.00000000       0.00000000       0.00000000
Si      28.71931638      25.98414339      25.98414339      -0.00000000      -0.00000000      -0.00000000
Si      30.08690287      27.35172988      24.61655689      -0.00000000       0.00000000       0.00000000
Si      31.45448937      28.71931638      25.98414339      -0.00000000      -0.00000000      -0.00000000
Si      32.82207586      30.08690287      24.61655689       0.00000000       0.00000000       0.00000000
Si      34.18966235      31.45448937      25.98414339      -0.00000000      -0.00000000      -0.00000000
Si      35.55724885      32.82207586      24.61655689      -0.00000000      -0.00000000       0.00000000
Si      36.92483534      34.18966235      25.98414339       0.00000000       0.00000000       0.00000000
Si      38.29242184      35.55724885      24.61655689       0.00000000       0.00000000       0.00000000
Si      39.66000833      36.92483534      25.98414339      -0.00000000      -0.00000000       0.00000000
Si      16.41103793      10.94069195      27.35172988       0.00000000       0.00000000      -0.00000000
Si      17.77862442      12.30827845      28.71931638      -0.00000000       0.00000000      -0.00000000
Si      19.14621092      13.67586494      27.35172988       0.00000000       0.00000000       0.00000000
Si      20.51379741      15.04345144      28.71931638       0.00000000       0.00000000       0.00000000
Si      21.88138391      16.41103793      27.35172988      -0.00000000       0.00000000       0.00000000
Si      23.24897040      17.77862442      28.71931638       0.00000000      -0.00000000      -0.00000000
Si      24.61655689      19.14621092      27.35172988      -0.00000000       0.00000000      -0.00000000
Si      25.98414339      20.51379741      28.71931638       0.00000000      -0.00000000       0.00000000
Si      27.35172988      21.88138391      27.35172988      -0.00000000       0.00000000      -0.00000000
Si      28.71931638      23.24897040      28.71931638       0.00000000      -0.00000000       0.00000000
Si      30.08690287      24.61655689      27.35172988      -0.00000000      -0.00000000       0.00000000
Si      31.45448937      25.98414339      28.71931638       0.00000000      -0.00000000      -0.00000000
Si      32.82207586      27.35172988      27.35172988      -0.00000000       0.00000000       0.00000000
Si      34.18966235      28.71931638      28.71931638      -0.00000000      -0.00000000       0.00000000
Si      35.55724885      30.08690287      27.35172988       0.00000000       0.00000000       0.00000000
Si      36.92483534      31.45448937      28.71931638      -0.00000000      -0.00000000       0.00000000
Si      38.29242184      32.82207586      27.35172988      -0.00000000       0.00000000       0.00000000
Si      39.66000833      34.18966235      28.71931638      -0.00000000      -0.00000000      -0.00000000
Si      41.02759482      35.55724885      27.35172988      -0.00000000       0.00000000      -0.00000000
Si      42.39518132      36.92483534      28.71931638      -0.00000000       0.00000000       0.00000000
Si      19.14621092      10.94069195      30.08690287       0.00000000       0.00000000      -0.00000000
Si      20.51379741      12.30827845      31.45448937       0.00000000       0.00000000       0.00000000
Si      21.88138391      13.67586494      30.08690287      -0.00000000      -0.00000000      -0.00000000
Si      23.24897040      15.04345144      31.45448937       0.00000000       0.00000000       0.00000000
Si      24.61655689      16.41103793      30.08690287      -0.00000000      -0.00000000       0.00000000
Si      25.98414339      17.77862442      31.45448937      -0.00000000      -0.00000000      -0.00000000
Si      27.35172988      19.14621092      30.08690287       0.00000000       0.00000000      -0.00000000
Si      28.71931638      20.51379741      31.45448937      -0.00000000      -0.00000000       0.00000000
Si      30.08690287      21.88138391      30.08690287      -0.00000000       0.00000000      -0.00000000
Si      31.45448937      23.24897040      31.45448937       0.00000000       0.00000000       0.00000000
Si      32.82207586      24.61655689      30.08690287      -0.00000000       0.00000000       0.00000000
Si      34.18966235      25.98414339      31.45448937      -0.00000000      -0.00000000      -0.00000000
Si      35.55724885      27.35172988      30.08690287      -0.00000000       0.00000000       0.00000000
Si      36.92483534      28.71931638      31.45448937      -0.00000000      -0.00000000      -0.00000000
Si      38.29242184      30.08690287      30.08690287       0.00000000      -0.00000000      -0.00000000
Si      39.66000833      31.45448937      31.45448937       0.00000000       0.00000000      -0.00000000
Si      41.02759482      32.82207586      30.08690287       0.00000000      -0.00000000       0.00000000
Si      42.39518132      34.18966235      31.45448937       0.00000000      -0.00000000       0.00000000
Si      43.76276781      35.55724885      30.08690287       0.00000000       0.00000000       0.00000000
Si      45.13035431      36.92483534      31.45448937      -0.00000000      -0.00000000       0.00000000
Si      21.88138391      10.94069195      32.82207586       0.00000000       0.00000000      -0.00000000
Si      23.24897040      12.30827845      34.18966235      -0.00000000      -0.00000000      -0.00000000
Si      24.61655689      13.67586494      32.82207586       0.00000000       0.00000000      -0.00000000
Si      25.98414339      15.04345144      34.18966235      -0.00000000       0.00000000      -0.00000000
Si      27.35172988      16.41103793      32.82207586       0.00000000       0.00000000       0.00000000
Si      28.71931638      17.77862442      34.18966235      -0.00000000      -0.00000000      -0.00000000
Si      30.08690287      19.14621092      32.82207586      -0.00000000       0.00000000       0.00000000
Si      31.45448937      20.51379741      34.18966235      -0.00000000      -0.00000000      -0.00000000
Si      32.82207586      21.88138391      32.82207586      -0.00000000       0.00000000      -0.00000000
Si      34.18966235      23.24897040      34.18966235      -0.00000000       0.00000000       0.00000000
Si      35.55724885      24.61655689      32.82207586       0.00000000       0.00000000       0.00000000
Si      36.92483534      25.98414339      34.18966235      -0.00000000      -0.00000000      -0.00000000
Si      38.29242184      27.35172988      32.82207586       0.00000000       0.00000000       0.00000000
Si      39.66000833      28.71931638      34.18966235      -0.00000000      -0.00000000       0.00000000
Si      41.02759482      30.08690287      32.82207586       0.00000000       0.00000000      -0.00000000
Si      42.39518132      31.45448937      34.18966235       0.00000000       0.00000000      -0.00000000
Si      43.76276781      32.82207586      32.82207586       0.00000000      -0.00000000      -0.00000000
Si      45.13035431      34.18966235      34.18966235      -0.00000000      -0.00000000      -0.00000000
Si      46.49794080      35.55724885      32.82207586      -0.00000000       0.00000000      -0.00000000
Si      47.86552730      36.92483534      34.18966235      -0.00000000       0.00000000       0.00000000
Si      24.61655689      10.94069195      35.55724885       0.00000000       0.00000000      -0.00000000
Si      25.98414339      12.30827845      36.92483534      -0.00000000      -0.00000000      -0.00000000
Si      27.35172988      13.67586494      35.55724885       0.00000000       0.00000000       0.00000000
Si      28.71931638      15.04345144      36.92483534      -0.00000000       0.00000000      -0.00000000
Si      30.08690287      16.41103793      35.55724885       0.00000000      -0.00000000       0.00000000
Si      31.45448937      17.77862442      36.92483534      -0.00000000      -0.00000000      -0.00000000
Si      32.82207586      19.14621092      35.55724885      -0.00000000       0.00000000       0.00000000
Si      34.18966235      20.51379741      36.92483534      -0.00000000       0.00000000      -0.00000000
Si      35.55724885      21.88138391      35.55724885       0.00000000       0.00000000       0.00000000
Si      36.92483534      23.24897040      36.92483534      -0.00000000      -0.00000000      -0.00000000
Si      38.29242184      24.61655689      35.55724885       0.00000000       0.00000000      -0.00000000
Si      39.66000833      25.98414339      36.92483534       0.00000000      -0.00000000      -0.00000000
Si      41.02759482      27.35172988      35.55724885       0.00000000      -0.00000000       0.00000000
Si      42.39518132      28.71931638      36.92483534      -0.00000000       0.00000000      -0.00000000
Si      43.76276781      30.08690287      35.55724885      -0.00000000       0.00000000      -0.00000000
Si      45.13035431      31.45448937      36.92483534      -0.00000000       0.00000000      -0.00000000
Si      46.49794080      32.82207586      35.55724885      -0.00000000      -0.00000000      -0.00000000
Si      47.86552730      34.18966235      36.92483534      -0.00000000      -0.00000000      -0.00000000
Si      49.23311379      35.55724885      35.55724885       0.00000000       0.00000000       0.00000000
Si      50.60070028      36.92483534      36.92483534      -0.00000000      -0.00000000      -0.00000000
Si       0.00000000      13.67586494      13.67586494       0.00000000       0.00000000       0.00000000
Si       1.36758649      15.04345144      15.04345144       0.00000000      -0.00000000      -0.00000000
Si       2.73517299      16.41103793      13.67586494       0.00000000      -0.00000000       0.00000000
Si       4.10275948      17.77862442      15.04345144       0.00000000      -0.00000000      -0.00000000
Si       5.47034598      19.14621092      13.67586494       0.00000000      -0.00000000       0.00000000
Si       6.83793247      20.51379741      15.04345144       0.00000000      -0.00000000       0.00000000
Si       8.20551896      21.88138391      13.67586494       0.00000000      -0.00000000       0.00000000
Si       9.57310546      23.24897040      15.04345144       0.00000000      -0.00000000       0.00000000
Si      10.94069195      24.61655689      13.67586494       0.00000000      -0.00000000       0.00000000
Si      12.30827845      25.98414339      15.04345144      -0.00000000      -0.00000000       0.00000000
Si      13.67586494      27.35172988      13.67586494       0.00000000       0.00000000       0.00000000
Si      15.04345144      28.71931638      15.04345144       0.00000000      -0.00000000      -0.00000000
Si      16.41103793      30.08690287      13.67586494      -0.00000000      -0.00000000       0.00000000
Si      17.77862442      31.45448937      15.04345144      -0.00000000      -0.00000000       0.00000000
Si      19.14621092      32.82207586      13.67586494       0.00000000      -0.00000000       0.00000000
Si      20.51379741      34.18966235      15.04345144       0.00000000      -0.00000000       0.00000000
Si      21.88138391      35.55724885      13.67586494       0.00000000      -0.00000000       0.00000000
Si      23.24897040      36.92483534      15.04345144      -0.00000000      -0.00000000       0.00000000
Si      24.61655689      38.29242184      13.67586494       0.00000000       0.00000000       0.00000000
Si      25.98414339      39.66000833      15.04345144      -0.00000000      -0.00000000       0.00000000
Si       2.73517299      13.67586494      16.41103793       0.00000000       0.00000000      -0.00000000
Si       4.10275948      15.04345144      17.77862442       0.00000000       0.00000000      -0.00000000
Si       5.47034598      16.41103793      16.41103793      -0.00000000      -0.00000000       0.00000000
Si       6.83793247      17.77862442      17.77862442       0.00000000      -0.00000000       0.00000000
Si       8.20551896      19.14621092      16.41103793      -0.00000000       0.00000000       0.00000000
Si       9.57310546      20.51379741      17.77862442       0.00000000      -0.00000000      -0.00000000
Si      10.94069195      21.88138391      16.41103793       0.00000000       0.00000000       0.00000000
Si      12.30827845      23.24897040      17.77862442       0.00000000      -0.00000000      -0.00000000
Si      13.67586494      24.61655689      16.41103793      -0.00000000       0.00000000       0.00000000
Si      15.04345144      25.98414339      17.77862442      -0.00000000      -0.00000000      -0.00000000
Si      16.41103793      27.35172988      16.41103793       0.00000000       0.00000000      -0.00000000
Si      17.77862442      28.71931638      17.77862442      -0.00000000      -0.00000000      -0.00000000
Si      19.14621092      30.08690287      16.41103793       0.00000000      -0.00000000       0.00000000
Si      20.51379741      31.45448937      17.77862442       0.00000000      -0.00000000       0.00000000
Si      21.88138391      32.82207586      16.41103793       0.00000000      -0.00000000       0.00000000
Si      23.24897040      34.18966235      17.77862442      -0.00000000      -0.00000000       0.00000000
Si      24.61655689      35.55724885      16.41103793       0.00000000       0.00000000       0.00000000
Si      25.98414339      36.92483534      17.77862442      -0.00000000      -0.00000000      -0.00000000
Si      27.35172988      38.29242184      16.41103793       0.00000000      -0.00000000      -0.00000000
Si      28.71931638      39.66000833      17.77862442      -0.00000000      -0.00000000       0.00000000
Si       5.47034598      13.67586494      19.14621092       0.00000000       0.00000000      -0.00000000
Si       6.83793247      15.04345144      20.51379741      -0.00000000       0.00000000       0.00000000
Si       8.20551896      16.41103793      19.14621092      -0.00000000       0.00000000      -0.00000000
Si       9.57310546      17.77862442      20.51379741      -0.00000000      -0.00000000       0.00000000
Si      10.94069195      19.14621092      19.14621092      -0.00000000       0.00000000      -0.00000000
Si      12.30827845      20.51379741      20.51379741       0.00000000      -0.00000000       0.00000000
Si      13.67586494      21.88138391      19.14621092      -0.00000000       0.00000000       0.00000000
Si      15.04345144      23.24897040      20.51379741       0.00000000      -0.00000000       0.00000000
Si      16.41103793      24.61655689      19.14621092      -0.00000000       0.00000000      -0.00000000
Si      17.77862442      25.98414339      20.51379741      -0.00000000      -0.00000000       0.00000000
Si      19.14621092      27.35172988      19.14621092       0.00000000       0.00000000      -0.00000000
Si      20.51379741      28.71931638      20.51379741       0.00000000      -0.00000000       0.00000000
Si      21.88138391      30.08690287      19.14621092      -0.00000000       0.00000000       0.00000000
Si      23.24897040      31.45448937      20.51379741      -0.00000000      -0.00000000       0.00000000
Si      24.61655689      32.82207586      19.14621092       0.00000000       0.00000000      -0.00000000
Si      25.98414339      34.18966235      20.51379741      -0.00000000      -0.00000000      -0.00000000
Si      27.35172988      35.55724885      19.14621092      -0.00000000       0.00000000      -0.00000000
Si      28.71931638      36.92483534      20.51379741       0.00000000       0.00000000       0.00000000
Si      30.08690287      38.29242184      19.14621092      -0.00000000       0.00000000       0.00000000
Si      31.45448937      39.66000833      20.51379741      -0.00000000      -0.00000000       0.00000000
Si       8.20551896      13.67586494      21.88138391       0.00000000       0.00000000      -0.00000000
Si       9.57310546      15.04345144      23.24897040      -0.00000000       0.00000000      -0.00000000
Si      10.94069195      16.41103793      21.88138391      -0.00000000       0.00000000       0.00000000
Si      12.30827845      17.77862442      23.24897040       0.00000000       0.00000000      -0.00000000
Si      13.67586494      19.14621092      21.88138391      -0.00000000       0.00000000       0.00000000
Si      15.04345144      20.51379741      23.24897040      -0.00000000       0.00000000      -0.00000000
Si      16.41103793      21.88138391      21.88138391      -0.00000000       0.00000000       0.00000000
Si      17.77862442      23.24897040      23.24897040      -0.00000000      -0.00000000      -0.00000000
Si      19.14621092      24.61655689      21.88138391      -0.00000000       0.00000000       0.00000000
Si      20.51379741      25.98414339      23.24897040      -0.00000000       0.00000000      -0.00000000
Si      21.88138391      27.35172988      21.88138391      -0.00000000       0.00000000       0.00000000
Si      23.24897040      28.71931638      23.24897040       0.00000000      -0.00000000      -0.00000000
Si      24.61655689      30.08690287      21.88138391       0.00000000       0.00000000       0.00000000
Si      25.98414339      31.45448937      23.24897040      -0.00000000      -0.00000000      -0.00000000
Si      27.35172988      32.82207586      21.88138391       0.00000000      -0.00000000       0.00000000
Si      28.71931638      34.18966235      23.24897040      -0.00000000      -0.00000000       0.00000000
Si      30.08690287      35.55724885      21.88138391       0.00000000       0.00000000       0.00000000
Si      31.45448937      36.92483534      23.24897040      -0.00000000      -0.00000000      -0.00000000
Si      32.82207586      38.29242184      21.88138391      -0.00000000       0.00000000       0.00000000
Si      34.18966235      39.66000833      23.24897040      -0.00000000      -0.00000000       0.00000000
Si      10.94069195      13.67586494      24.61655689       0.00000000       0.00000000      -0.00000000
Si      12.30827845      15.04345144      25.98414339       0.00000000       0.00000000       0.00000000
Si      13.67586494      16.41103793      24.61655689       0.00000000      -0.00000000       0.00000000
Si      15.04345144      17.77862442      25.98414339       0.00000000      -0.00000000      -0.00000000
Si      16.41103793      19.14621092      24.61655689      -0.00000000       0.00000000       0.00000000
Si      17.77862442      20.51379741      25.98414339      -0.00000000       0.00000000      -0.00000000
Si      19.14621092      21.88138391      24.61655689       0.00000000       0.00000000       0.00000000
Si      20.51379741      23.24897040      25.98414339      -0.00000000      -0.00000000       0.00000000
Si      21.88138391      24.61655689      24.61655689       0.00000000       0.00000000       0.00000000
Si      23.24897040      25.98414339      25.98414339      -0.00000000      -0.00000000       0.00000000
Si      24.61655689      27.35172988      24.61655689       0.00000000       0.00000000       0.00000000
Si      25.98414339      28.71931638      25.98414339      -0.00000000      -0.00000000      -0.00000000
Si      27.35172988      30.08690287      24.61655689       0.00000000      -0.00000000       0.00000000
Si      28.71931638      31.45448937      25.98414339      -0.00000000      -0.00000000      -0.00000000
Si      30.08690287      32.82207586      24.61655689      -0.00000000       0.00000000       0.00000000
Si      31.45448937      34.18966235      25.98414339      -0.00000000      -0.00000000      -0.00000000
Si      32.82207586      35.55724885      24.61655689      -0.00000000      -0.00000000       0.00000000
Si      34.18966235      36.92483534      25.98414339       0.00000000       0.00000000       0.00000000
Si      35.55724885      38.29242184      24.61655689      -0.00000000       0.00000000       0.00000000
Si      36.92483534      39.66000833      25.98414339      -0.00000000      -0.00000000       0.00000000
Si      13.67586494      13.67586494      27.35172988       0.00000000       0.00000000      -0.00000000
Si      15.04345144      15.04345144      28.71931638       0.00000000       0.00000000       0.00000000
Si      16.41103793      16.41103793      27.35172988      -0.00000000      -0.00000000       0.00000000
Si      17.77862442      17.77862442      28.71931638      -0.00000000      -0.00000000       0.00000000
Si      19.14621092      19.14621092      27.35172988       0.00000000       0.00000000       0.00000000
Si      20.51379741      20.51379741      28.71931638       0.00000000       0.00000000       0.00000000
Si      21.88138391      21.88138391      27.35172988       0.00000000       0.00000000       0.00000000
Si      23.24897040      23.24897040      28.71931638      -0.00000000      -0.00000000       0.00000000
Si      24.61655689      24.61655689      27.35172988       0.00000000       0.00000000      -0.00000000
Si      25.98414339      25.98414339      28.71931638      -0.00000000      -0.00000000       0.00000000
Si      27.35172988      27.35172988      27.35172988       0.00000000       0.00000000       0.00000000
Si      28.71931638      28.71931638      28.71931638      -0.00000000      -0.00000000       0.00000000
Si      30.08690287      30.08690287      27.35172988      -0.00000000      -0.00000000       0.00000000
Si      31.45448937      31.45448937      28.71931638      -0.00000000      -0.00000000       0.00000000
Si      32.82207586      32.82207586      27.35172988       0.00000000       0.00000000       0.00000000
Si      34.18966235      34.18966235      28.71931638      -0.00000000      -0.00000000       0.00000000
Si      35.55724885      35.55724885      27.35172988       0.00000000       0.00000000       0.00000000
Si      36.92483534      36.92483534      28.71931638      -0.00000000      -0.00000000       0.00000000
Si      38.29242184      38.29242184      27.35172988       0.00000000       0.00000000       0.00000000
Si      39.66000833      39.66000833      28.71931638      -0.00000000      -0.00000000       0.00000000
Si      16.41103793      13.67586494      30.08690287       0.00000000       0.00000000      -0.00000000
Si      17.77862442      15.04345144      31.45448937      -0.00000000       0.00000000      -0.00000000
Si      19.14621092      16.41103793      30.08690287       0.00000000      -0.00000000       0.00000000
Si      20.51379741      17.77862442      31.45448937      -0.00000000      -0.00000000       0.00000000
Si      21.88138391      19.14621092      30.08690287       0.00000000       0.00000000       0.00000000
Si      23.24897040      20.51379741      31.45448937       0.00000000       0.00000000       0.00000000
Si      24.61655689      21.88138391      30.08690287      -0.00000000       0.00000000       0.00000000
Si      25.98414339      23.24897040      31.45448937      -0.00000000      -0.00000000       0.00000000
Si      27.35172988      24.61655689      30.08690287       0.00000000       0.00000000      -0.00000000
Si      28.71931638      25.98414339      31.45448937      -0.00000000      -0.00000000       0.00000000
Si      30.08690287      27.35172988      30.08690287      -0.00000000       0.00000000      -0.00000000
Si      31.45448937      28.71931638      31.45448937      -0.00000000      -0.00000000      -0.00000000
Si      32.82207586      30.08690287      30.08690287       0.00000000      -0.00000000       0.00000000
Si      34.18966235      31.45448937      31.45448937      -0.00000000      -0.00000000       0.00000000
Si      35.55724885      32.82207586      30.08690287       0.00000000       0.00000000      -0.00000000
Si      36.92483534      34.18966235      31.45448937      -0.00000000      -0.00000000      -0.00000000
Si      38.29242184      35.55724885      30.08690287       0.00000000       0.00000000      -0.00000000
Si      39.66000833      36.92483534      31.45448937      -0.00000000      -0.00000000       0.00000000
Si      41.02759482      38.29242184      30.08690287       0.00000000       0.00000000      -0.00000000
Si      42.39518132      39.66000833      31.45448937      -0.00000000      -0.00000000       0.00000000
Si      19.14621092      13.67586494      32.82207586       0.00000000       0.00000000       0.00000000
Si      20.51379741      15.04345144      34.18966235       0.00000000       0.00000000      -0.00000000
Si      21.88138391      16.41103793      32.82207586      -0.00000000       0.00000000       0.00000000
Si      23.24897040      17.77862442      34.18966235       0.00000000      -0.00000000      -0.00000000
Si      24.61655689      19.14621092      32.82207586      -0.00000000       0.00000000       0.00000000
Si      25.98414339      20.51379741      34.18966235      -0.00000000       0.00000000      -0.00000000
Si      27.35172988      21.88138391      32.82207586       0.00000000       0.00000000       0.00000000
Si      28.71931638      23.24897040      34.18966235       0.00000000      -0.00000000      -0.00000000
Si      30.08690287      24.61655689      32.82207586      -0.00000000       0.00000000       0.00000000
Si      31.45448937      25.98414339      34.18966235      -0.00000000      -0.00000000      -0.00000000
Si      32.82207586      27.35172988      32.82207586       0.00000000       0.00000000       0.00000000
Si      34.18966235      28.71931638      34.18966235      -0.00000000      -0.00000000      -0.00000000
Si      35.55724885      30.08690287      32.82207586      -0.00000000      -0.00000000       0.00000000
Si      36.92483534      31.45448937      34.18966235      -0.00000000      -0.00000000      -0.00000000
Si      38.29242184      32.82207586      32.82207586       0.00000000       0.00000000       0.00000000
Si      39.66000833      34.18966235      34.18966235      -0.00000000      -0.00000000      -0.00000000
Si      41.02759482      35.55724885      32.82207586      -0.00000000       0.00000000       0.00000000
Si      42.39518132      36.92483534      34.18966235      -0.00000000       0.00000000      -0.00000000
Si      43.76276781      38.29242184      32.82207586      -0.00000000       0.00000000       0.00000000
Si      45.13035431      39.66000833      34.18966235      -0.00000000      -0.00000000      -0.00000000
Si      21.88138391      13.67586494      35.55724885       0.00000000       0.00000000       0.00000000
Si      23.24897040      15.04345144      36.92483534      -0.00000000      -0.00000000      -0.00000000
Si      24.61655689      16.41103793      35.55724885       0.00000000       0.00000000       0.00000000
Si      25.98414339      17.77862442      36.92483534      -0.00000000      -0.00000000      -0.00000000
Si      27.35172988      19.14621092      35.55724885       0.00000000      -0.00000000       0.00000000
Si      28.71931638      20.51379741      36.92483534       0.00000000      -0.00000000      -0.00000000
Si      30.08690287      21.88138391      35.55724885      -0.00000000       0.00000000       0.00000000
Si      31.45448937      23.24897040      36.92483534       0.00000000      -0.00000000      -0.00000000
Si      32.82207586      24.61655689      35.55724885      -0.00000000      -0.00000000       0.00000000
Si      34.18966235      25.98414339      36.92483534      -0.00000000      -0.00000000      -0.00000000
Si      35.55724885      27.35172988      35.55724885       0.00000000       0.00000000       0.00000000
Si      36.92483534      28.71931638      36.92483534       0.00000000       0.00000000      -0.00000000
Si      38.29242184      30.08690287      35.55724885      -0.00000000      -0.00000000       0.00000000
Si      39.66000833      31.45448937      36.92483534       0.00000000       0.00000000      -0.00000000
Si      41.02759482      32.82207586      35.55724885       0.00000000      -0.00000000       0.00000000
Si      42.39518132      34.18966235      36.92483534      -0.00000000      -0.00000000      -0.00000000
Si      43.76276781      35.55724885      35.55724885       0.00000000       0.00000000       0.00000000
Si      45.13035431      36.92483534      36.92483534       0.00000000      -0.00000000      -0.00000000
Si      46.49794080      38.29242184      35.55724885       0.00000000       0.00000000       0.00000000
Si      47.86552730      39.66000833      36.92483534      -0.00000000      -0.00000000      -0.00000000
Si      24.61655689      13.67586494      38.29242184       0.00000000       0.00000000       0.00000000
Si      25.98414339      15.04345144      39.66000833      -0.00000000       0.00000000      -0.00000000
Si      27.35172988      16.41103793      38.29242184       0.00000000      -0.00000000       0.00000000
Si      28.71931638      17.77862442      39.66000833      -0.00000000       0.00000000      -0.00000000
Si      30.08690287      19.14621092      38.29242184      -0.00000000       0.00000000       0.00000000
Si      31.45448937      20.51379741      39.66000833      -0.00000000       0.00000000      -0.00000000
Si      32.82207586      21.88138391      38.29242184      -0.00000000       0.00000000       0.00000000
Si      34.18966235      23.24897040      39.66000833      -0.00000000      -0.00000000      -0.00000000
Si      35.55724885      24.61655689      38.29242184       0.00000000       0.00000000       0.00000000
Si      36.92483534      25.98414339      39.66000833      -0.00000000      -0.00000000      -0.00000000
Si      38.29242184      27.35172988      38.29242184      -0.00000000       0.00000000       0.00000000
Si      39.66000833      28.71931638      39.66000833      -0.00000000       0.00000000      -0.00000000
Si      41.02759482      30.08690287      38.29242184       0.00000000      -0.00000000       0.00000000
Si      42.39518132      31.45448937      39.66000833      -0.00000000       0.00000000      -0.00000000
Si      43.76276781      32.82207586      38.29242184       0.00000000      -0.00000000       0.00000000
Si      45.13035431      34.18966235      39.66000833      -0.00000000       0.00000000      -0.00000000
Si      46.49794080      35.55724885      38.29242184      -0.00000000       0.00000000       0.00000000
Si      47.86552730      36.92483534      39.66000833      -0.00000000       0.00000000      -0.00000000
Si      49.23311379      38.29242184      38.29242184       0.00000000       0.00000000       0.00000000
Si      50.60070028      39.66000833      39.66000833      -0.00000000       0.00000000      -0.00000000
Si       0.00000000      16.41103793      16.41103793       0.00000000       0.00000000      -0.00000000
Si       1.36758649      17.77862442      17.77862442       0.00000000      -0.00000000      -0.00000000
Si       2.73517299      19.14621092      16.41103793       0.00000000      -0.00000000       0.00000000
Si       4.10275948      20.51379741      17.77862442       0.00000000      -0.00000000      -0.00000000
Si       5.47034598      21.88138391      16.41103793       0.00000000      -0.00000000       0.00000000
Si       6.83793247      23.24897040      17.77862442       0.00000000      -0.00000000       0.00000000
Si       8.20551896      24.61655689      16.41103793       0.00000000      -0.00000000       0.00000000
Si       9.57310546      25.98414339      17.77862442       0.00000000      -0.00000000      -0.00000000
Si      10.94069195      27.35172988      16.41103793       0.00000000       0.00000000       0.00000000
Si      12.30827845      28.71931638      17.77862442      -0.00000000      -0.00000000       0.00000000
Si      13.67586494      30.08690287      16.41103793       0.00000000      -0.00000000       0.00000000
Si      15.04345144      31.45448937      17.77862442       0.00000000      -0.00000000      -0.00000000
Si      16.41103793      32.82207586      16.41103793      -0.00000000      -0.00000000       0.00000000
Si      17.77862442      34.18966235      17.77862442      -0.00000000       0.00000000      -0.00000000
Si      19.14621092      35.55724885      16.41103793       0.00000000      -0.00000000       0.00000000
Si      20.51379741      36.92483534      17.77862442       0.00000000      -0.00000000       0.00000000
Si      21.88138391      38.29242184      16.41103793       0.00000000       0.00000000       0.00000000
Si      23.24897040      39.66000833      17.77862442      -0.00000000      -0.00000000      -0.00000000
Si      24.61655689      41.02759482      16.41103793       0.00000000       0.00000000      -0.00000000
Si      25.98414339      42.39518132      17.77862442      -0.00000000      -0.00000000       0.00000000
Si       2.73517299      16.41103793      19.14621092       0.00000000       0.00000000      -0.00000000
Si       4.10275948      17.77862442      20.51379741       0.00000000      -0.00000000      -0.00000000
Si       5.47034598      19.14621092      19.14621092      -0.00000000      -0.00000000       0.00000000
Si       6.83793247      20.51379741      20.51379741       0.00000000      -0.00000000      -0.00000000
Si       8.20551896      21.88138391      19.14621092      -0.00000000       0.00000000       0.00000000
Si       9.57310546      23.24897040      20.51379741       0.00000000      -0.00000000      -0.00000000
Si      10.94069195      24.61655689      19.14621092      -0.00000000       0.00000000       0.00000000
Si      12.30827845      25.98414339      20.51379741       0.00000000      -0.00000000      -0.00000000
Si      13.67586494      27.35172988      19.14621092       0.00000000       0.00000000       0.00000000
Si      15.04345144      28.71931638      20.51379741      -0.00000000      -0.00000000      -0.00000000
Si      16.41103793      30.08690287      19.14621092       0.00000000       0.00000000      -0.00000000
Si      17.77862442      31.45448937      20.51379741      -0.00000000       0.00000000      -0.00000000
Si      19.14621092      32.82207586      19.14621092       0.00000000      -0.00000000       0.00000000
Si      20.51379741      34.18966235      20.51379741      -0.00000000      -0.00000000       0.00000000
Si      21.88138391      35.55724885      19.14621092       0.00000000       0.00000000      -0.00000000
Si      23.24897040      36.92483534      20.51379741       0.00000000      -0.00000000      -0.00000000
Si      24.61655689      38.29242184      19.14621092      -0.00000000      -0.00000000      -0.00000000
Si      25.98414339      39.66000833      20.51379741       0.00000000      -0.00000000      -0.00000000
Si      27.35172988      41.02759482      19.14621092       0.00000000       0.00000000       0.00000000
Si      28.71931638      42.39518132      20.51379741      -0.00000000      -0.00000000       0.00000000
Si       5.47034598      16.41103793      21.88138391       0.00000000       0.00000000      -0.00000000
Si       6.83793247      17.77862442      23.24897040      -0.00000000      -0.00000000       0.00000000
Si       8.20551896      19.14621092      21.88138391      -0.00000000       0.00000000      -0.00000000
Si       9.57310546      20.51379741      23.24897040       0.00000000      -0.00000000      -0.00000000
Si      10.94069195      21.88138391      21.88138391       0.00000000       0.00000000       0.00000000
Si      12.30827845      23.24897040      23.24897040       0.00000000       0.00000000       0.00000000
Si      13.67586494      24.61655689      21.88138391      -0.00000000      -0.00000000       0.00000000
Si      15.04345144      25.98414339      23.24897040       0.00000000      -0.00000000      -0.00000000
Si      16.41103793      27.35172988      21.88138391       0.00000000      -0.00000000      -0.00000000
Si      17.77862442      28.71931638      23.24897040      -0.00000000       0.00000000       0.00000000
Si      19.14621092      30.08690287      21.88138391       0.00000000       0.00000000      -0.00000000
Si      20.51379741      31.45448937      23.24897040      -0.00000000       0.00000000      -0.00000000
Si      21.88138391      32.82207586      21.88138391      -0.00000000      -0.00000000       0.00000000
Si      23.24897040      34.18966235      23.24897040       0.00000000      -0.00000000       0.00000000
Si      24.61655689      35.55724885      21.88138391       0.00000000       0.00000000       0.00000000
Si      25.98414339      36.92483534      23.24897040      -0.00000000      -0.00000000      -0.00000000
Si      27.35172988      38.29242184      21.88138391       0.00000000      -0.00000000       0.00000000
Si      28.71931638      39.66000833      23.24897040       0.00000000      -0.00000000      -0.00000000
Si      30.08690287      41.02759482      21.88138391       0.00000000       0.00000000       0.00000000
Si      31.45448937      42.39518132      23.24897040      -0.00000000      -0.00000000       0.00000000
Si       8.20551896      16.41103793      24.61655689       0.00000000       0.00000000      -0.00000000
Si       9.57310546      17.77862442      25.98414339      -0.00000000      -0.00000000      -0.00000000
Si      10.94069195      19.14621092      24.61655689      -0.00000000       0.00000000       0.00000000
Si      12.30827845      20.51379741      25.98414339       0.00000000      -0.00000000      -0.00000000
Si      13.67586494      21.88138391      24.61655689      -0.00000000       0.00000000       0.00000000
Si      15.04345144      23.24897040      25.98414339       0.00000000      -0.00000000      -0.00000000
Si      16.41103793      24.61655689      24.61655689      -0.00000000      -0.00000000       0.00000000
Si      17.77862442      25.98414339      25.98414339      -0.00000000      -0.00000000      -0.00000000
Si      19.14621092      27.35172988      24.61655689       0.00000000       0.00000000      -0.00000000
Si      20.51379741      28.71931638      25.98414339      -0.00000000      -0.00000000      -0.00000000
Si      21.88138391      30.08690287      24.61655689       0.00000000       0.00000000       0.00000000
Si      23.24897040      31.45448937      25.98414339      -0.00000000      -0.00000000      -0.00000000
Si      24.61655689      32.82207586      24.61655689       0.00000000       0.00000000       0.00000000
Si      25.98414339      34.18966235      25.98414339      -0.00000000      -0.00000000      -0.00000000
Si      27.35172988      35.55724885      24.61655689       0.00000000      -0.00000000       0.00000000
Si      28.71931638      36.92483534      25.98414339       0.00000000      -0.00000000      -0.00000000
Si      30.08690287      38.29242184      24.61655689      -0.00000000      -0.00000000      -0.00000000
Si      31.45448937      39.66000833      25.98414339       0.00000000       0.00000000      -0.00000000
Si      32.82207586      41.02759482      24.61655689      -0.00000000      -0.00000000       0.00000000
Si      34.18966235      42.39518132      25.98414339      -0.00000000      -0.00000000      -0.00000000
Si      10.94069195      16.41103793      27.35172988       0.00000000       0.00000000      -0.00000000
Si      12.30827845      17.77862442      28.71931638       0.00000000      -0.00000000      -0.00000000
Si      13.67586494      19.14621092      27.35172988       0.00000000       0.00000000       0.00000000
Si      15.04345144      20.51379741      28.71931638       0.00000000       0.00000000       0.00000000
Si      16.41103793      21.88138391      27.35172988       0.00000000      -0.00000000       0.00000000
Si      17.77862442      23.24897040      28.71931638      -0.00000000       0.00000000      -0.00000000
Si      19.14621092      24.61655689      27.35172988       0.00000000      -0.00000000      -0.00000000
Si      20.51379741      25.98414339      28.71931638      -0.00000000       0.00000000       0.00000000
Si      21.88138391      27.35172988      27.35172988       0.00000000      -0.00000000      -0.00000000
Si      23.24897040      28.71931638      28.71931638       0.00000000       0.00000000       0.00000000
Si      24.61655689      30.08690287      27.35172988       0.00000000      -0.00000000       0.00000000
Si      25.98414339      31.45448937      28.71931638      -0.00000000       0.00000000      -0.00000000
Si      27.35172988      32.82207586      27.35172988       0.00000000      -0.00000000       0.00000000
Si      28.71931638      34.18966235      28.71931638      -0.00000000      -0.00000000       0.00000000
Si      30.08690287      35.55724885      27.35172988       0.00000000       0.00000000       0.00000000
Si      31.45448937      36.92483534      28.71931638      -0.00000000      -0.00000000      -0.00000000
Si      32.82207586      38.29242184      27.35172988       0.00000000      -0.00000000       0.00000000
Si      34.18966235      39.66000833      28.71931638      -0.00000000      -0.00000000      -0.00000000
Si      35.55724885      41.02759482      27.35172988       0.00000000      -0.00000000      -0.00000000
Si      36.92483534      42.39518132      28.71931638       0.00000000      -0.00000000       0.00000000
Si      13.67586494      16.41103793      30.08690287       0.00000000       0.00000000      -0.00000000
Si      15.04345144      17.77862442      31.45448937       0.00000000      -0.00000000      -0.00000000
Si      16.41103793      19.14621092      30.08690287      -0.00000000       0.00000000       0.00000000
Si      17.77862442      20.51379741      31.45448937      -0.00000000      -0.00000000       0.00000000
Si      19.14621092      21.88138391      30.08690287       0.00000000       0.00000000       0.00000000
Si      20.51379741      23.24897040      31.45448937       0.00000000       0.00000000       0.00000000
Si      21.88138391      24.61655689      30.08690287       0.00000000      -0.00000000       0.00000000
Si      23.24897040      25.98414339      31.45448937      -0.00000000      -0.00000000       0.00000000
Si      24.61655689      27.35172988      30.08690287       0.00000000       0.00000000      -0.00000000
Si      25.98414339      28.71931638      31.45448937      -0.00000000      -0.00000000       0.00000000
Si      27.35172988      30.08690287      30.08690287       0.00000000      -0.00000000      -0.00000000
Si      28.71931638      31.45448937      31.45448937      -0.00000000      -0.00000000      -0.00000000
Si      30.08690287      32.82207586      30.08690287      -0.00000000       0.00000000       0.00000000
Si      31.45448937      34.18966235      31.45448937      -0.00000000      -0.00000000       0.00000000
Si      32.82207586      35.55724885      30.08690287       0.00000000       0.00000000      -0.00000000
Si      34.18966235      36.92483534      31.45448937      -0.00000000      -0.00000000      -0.00000000
Si      35.55724885      38.29242184      30.08690287       0.00000000       0.00000000      -0.00000000
Si      36.92483534      39.66000833      31.45448937      -0.00000000      -0.00000000       0.00000000
Si      38.29242184      41.02759482      30.08690287       0.00000000       0.00000000      -0.00000000
Si      39.66000833      42.39518132      31.45448937      -0.00000000      -0.00000000       0.00000000
Si      16.41103793      16.41103793      32.82207586       0.00000000       0.00000000      -0.00000000
Si      17.77862442      17.77862442      34.18966235      -0.00000000      -0.00000000       0.00000000
Si      19.14621092      19.14621092      32.82207586       0.00000000       0.00000000      -0.00000000
Si      20.51379741      20.51379741      34.18966235      -0.00000000      -0.00000000       0.00000000
Si      21.88138391      21.88138391      32.82207586       0.00000000       0.00000000      -0.00000000
Si      23.24897040      23.24897040      34.18966235       0.00000000       0.00000000      -0.00000000
Si      24.61655689      24.61655689      32.82207586      -0.00000000      -0.00000000       0.00000000
Si      25.98414339      25.98414339      34.18966235      -0.00000000      -0.00000000       0.00000000
Si      27.35172988      27.35172988      32.82207586       0.00000000       0.00000000      -0.00000000
Si      28.71931638      28.71931638      34.18966235       0.00000000       0.00000000      -0.00000000
Si      30.08690287      30.08690287      32.82207586      -0.00000000      -0.00000000      -0.00000000
Si      31.45448937      31.45448937      34.18966235      -0.00000000      -0.00000000       0.00000000
Si      32.82207586      32.82207586      32.82207586      -0.00000000      -0.00000000       0.00000000
Si      34.18966235      34.18966235      34.18966235      -0.00000000      -0.00000000       0.00000000
Si      35.55724885      35.55724885      32.82207586       0.00000000       0.00000000       0.00000000
Si      36.92483534      36.92483534      34.18966235      -0.00000000      -0.00000000      -0.00000000
Si      38.29242184      38.29242184      32.82207586       0.00000000       0.00000000      -0.00000000
Si      39.66000833      39.66000833      34.18966235      -0.00000000      -0.00000000      -0.00000000
Si      41.02759482      41.02759482      32.82207586       0.00000000       0.00000000      -0.00000000
Si      42.39518132      42.39518132      34.18966235      -0.00000000      -0.00000000       0.00000000
Si      19.14621092      16.41103793      35.55724885       0.00000000       0.00000000       0.00000000
Si      20.51379741      17.77862442      36.92483534       0.00000000      -0.00000000      -0.00000000
Si      21.88138391      19.14621092      35.55724885      -0.00000000       0.00000000       0.00000000
Si      23.24897040      20.51379741      36.92483534       0.00000000      -0.00000000      -0.00000000
Si      24.61655689      21.88138391      35.55724885      -0.00000000       0.00000000       0.00000000
Si      25.98414339      23.24897040      36.92483534      -0.00000000       0.00000000      -0.00000000
Si      27.35172988      24.61655689      35.55724885      -0.00000000       0.00000000       0.00000000
Si      28.71931638      25.98414339      36.92483534       0.00000000      -0.00000000      -0.00000000
Si      30.08690287      27.35172988      35.55724885      -0.00000000       0.00000000       0.00000000
Si      31.45448937      28.71931638      36.92483534       0.00000000       0.00000000      -0.00000000
Si      32.82207586      30.08690287      35.55724885      -0.00000000       0.00000000       0.00000000
Si      34.18966235      31.45448937      36.92483534      -0.00000000       0.00000000      -0.00000000
Si      35.55724885      32.82207586      35.55724885      -0.00000000       0.00000000       0.00000000
Si      36.92483534      34.18966235      36.92483534      -0.00000000      -0.00000000      -0.00000000
Si      38.29242184      35.55724885      35.55724885       0.00000000      -0.00000000       0.00000000
Si      39.66000833      36.92483534      36.92483534       0.00000000      -0.00000000      -0.00000000
Si      41.02759482      38.29242184      35.55724885       0.00000000       0.00000000       0.00000000
Si      42.39518132      39.66000833      36.92483534       0.00000000      -0.00000000      -0.00000000
Si      43.76276781      41.02759482      35.55724885       0.00000000       0.00000000       0.00000000
Si      45.13035431      42.39518132      36.92483534      -0.00000000      -0.00000000      -0.00000000
Si      21.88138391      16.41103793      38.29242184       0.00000000       0.00000000       0.00000000
Si      23.24897040      17.77862442      39.66000833       0.00000000      -0.00000000      -0.00000000
Si      24.61655689      19.14621092      38.29242184       0.00000000       0.00000000       0.00000000
Si      25.98414339      20.51379741      39.66000833      -0.00000000      -0.00000000      -0.00000000
Si      27.35172988      21.88138391      38.29242184       0.00000000      -0.00000000       0.00000000
Si      28.71931638      23.24897040      39.66000833       0.00000000      -0.00000000      -0.00000000
Si      30.08690287      24.61655689      38.29242184      -0.00000000       0.00000000       0.00000000
Si      31.45448937      25.98414339      39.66000833       0.00000000      -0.00000000      -0.00000000
Si      32.82207586      27.35172988      38.29242184      -0.00000000       0.00000000       0.00000000
Si      34.18966235      28.71931638      39.66000833      -0.00000000      -0.00000000      -0.00000000
Si      35.55724885      30.08690287      38.29242184       0.00000000       0.00000000       0.00000000
Si      36.92483534      31.45448937      39.66000833      -0.00000000      -0.00000000      -0.00000000
Si      38.29242184      32.82207586      38.29242184       0.00000000       0.00000000       0.00000000
Si      39.66000833      34.18966235      39.66000833      -0.00000000      -0.00000000      -0.00000000
Si      41.02759482      35.55724885      38.29242184       0.00000000       0.00000000       0.00000000
Si      42.39518132      36.92483534      39.66000833       0.00000000      -0.00000000      -0.00000000
Si      43.76276781      38.29242184      38.29242184      -0.00000000       0.00000000       0.00000000
Si      45.13035431      39.66000833      39.66000833       0.00000000       0.00000000      -0.00000000
Si      46.49794080      41.02759482      38.29242184      -0.00000000      -0.00000000       0.00000000
Si      47.86552730      42.39518132      39.66000833      -0.00000000      -0.00000000      -0.00000000
Si      24.61655689      16.41103793      41.02759482       0.00000000      -0.00000000       0.00000000
Si      25.98414339      17.77862442      42.39518132      -0.00000000      -0.00000000      -0.00000000
Si      27.35172988      19.14621092      41.02759482       0.00000000       0.00000000       0.00000000
Si      28.71931638      20.51379741      42.39518132      -0.00000000       0.00000000       0.00000000
Si      30.08690287      21.88138391      41.02759482      -0.00000000       0.00000000      -0.00000000
Si      31.45448937      23.24897040      42.39518132      -0.00000000       0.00000000       0.00000000
Si      32.82207586      24.61655689      41.02759482      -0.00000000       0.00000000      -0.00000000
Si      34.18966235      25.98414339      42.39518132      -0.00000000       0.00000000       0.00000000
Si      35.55724885      27.35172988      41.02759482       0.00000000      -0.00000000      -0.00000000
Si      36.92483534      28.71931638      42.39518132       0.00000000       0.00000000       0.00000000
Si      38.29242184      30.08690287      41.02759482       0.00000000      -0.00000000       0.00000000
Si      39.66000833      31.45448937      42.39518132      -0.00000000       0.00000000      -0.00000000
Si      41.02759482      32.82207586      41.02759482       0.00000000      -0.00000000       0.00000000
Si      42.39518132      34.18966235      42.39518132      -0.00000000       0.00000000      -0.00000000
Si      43.76276781      35.55724885      41.02759482      -0.00000000       0.00000000       0.00000000
Si      45.13035431      36.92483534      42.39518132      -0.00000000      -0.00000000      -0.00000000
Si      46.49794080      38.29242184      41.02759482       0.00000000      -0.00000000       0.00000000
Si      47.86552730      39.66000833      42.39518132      -0.00000000      -0.00000000       0.00000000
Si      49.23311379      41.02759482      41.02759482       0.00000000      -0.00000000      -0.00000000
Si      50.60070028      42.39518132      42.39518132       0.00000000       0.00000000       0.00000000
Si       0.00000000      19.14621092      19.14621092       0.00000000       0.00000000      -0.00000000
Si       1.36758649      20.51379741      20.51379741       0.00000000      -0.00000000       0.00000000
Si       2.73517299      21.88138391      19.14621092      -0.00000000       0.00000000      -0.00000000
Si       4.10275948      23.24897040      20.51379741       0.00000000      -0.00000000       0.00000000
Si       5.47034598      24.61655689      19.14621092      -0.00000000      -0.00000000      -0.00000000
Si       6.83793247      25.98414339      20.51379741       0.00000000      -0.00000000       0.00000000
Si       8.20551896      27.35172988      19.14621092       0.00000000       0.00000000      -0.00000000
Si       9.57310546      28.71931638      20.51379741       0.00000000       0.00000000       0.00000000
Si      10.94069195      30.08690287      19.14621092      -0.00000000      -0.00000000      -0.00000000
Si      12.30827845      31.45448937      20.51379741       0.00000000       0.00000000       0.00000000
Si      13.67586494      32.82207586      19.14621092       0.00000000      -0.00000000       0.00000000
Si      15.04345144      34.18966235      20.51379741       0.00000000      -0.00000000       0.00000000
Si      16.41103793      35.55724885      19.14621092       0.00000000      -0.00000000      -0.00000000
Si      17.77862442      36.92483534      20.51379741      -0.00000000      -0.00000000       0.00000000
Si      19.14621092      38.29242184      19.14621092      -0.00000000       0.00000000      -0.00000000
Si      20.51379741      39.66000833      20.51379741       0.00000000      -0.00000000       0.00000000
Si      21.88138391      41.02759482      19.14621092       0.00000000       0.00000000       0.00000000
Si      23.24897040      42.39518132      20.51379741       0.00000000      -0.00000000      -0.00000000
Si      24.61655689      43.76276781      19.14621092       0.00000000      -0.00000000      -0.00000000
Si      25.98414339      45.13035431      20.51379741      -0.00000000      -0.00000000       0.00000000
Si       2.73517299      19.14621092      21.88138391       0.00000000       0.00000000      -0.00000000
Si       4.10275948      20.51379741      23.24897040       0.00000000       0.00000000      -0.00000000
Si       5.47034598      21.88138391      21.88138391      -0.00000000       0.00000000       0.00000000
Si       6.83793247      23.24897040      23.24897040       0.00000000      -0.00000000      -0.00000000
Si       8.20551896      24.61655689      21.88138391      -0.00000000      -0.00000000       0.00000000
Si       9.57310546      25.98414339      23.24897040       0.00000000       0.00000000      -0.00000000
Si      10.94069195      27.35172988      21.88138391      -0.00000000       0.00000000       0.00000000
Si      12.30827845      28.71931638      23.24897040      -0.00000000      -0.00000000      -0.00000000
Si      13.67586494      30.08690287      21.88138391      -0.00000000       0.00000000      -0.00000000
Si      15.04345144      31.45448937      23.24897040      -0.00000000       0.00000000       0.00000000
Si      16.41103793      32.82207586      21.88138391      -0.00000000       0.00000000      -0.00000000
Si      17.77862442      34.18966235      23.24897040       0.00000000      -0.00000000       0.00000000
Si      19.14621092      35.55724885      21.88138391      -0.00000000      -0.00000000      -0.00000000
Si      20.51379741      36.92483534      23.24897040      -0.00000000      -0.00000000       0.00000000
Si      21.88138391      38.29242184      21.88138391      -0.00000000       0.00000000      -0.00000000
Si      23.24897040      39.66000833      23.24897040      -0.00000000      -0.00000000       0.00000000
Si      24.61655689      41.02759482      21.88138391       0.00000000       0.00000000       0.00000000
Si      25.98414339      42.39518132      23.24897040      -0.00000000      -0.00000000      -0.00000000
Si      27.35172988      43.76276781      21.88138391       0.00000000      -0.00000000      -0.00000000
Si      28.71931638      45.13035431      23.24897040      -0.00000000      -0.00000000       0.00000000
Si       5.47034598      19.14621092      24.61655689       0.00000000       0.00000000      -0.00000000
Si       6.83793247      20.51379741      25.98414339      -0.00000000      -0.00000000      -0.00000000
Si       8.20551896      21.88138391      24.61655689      -0.00000000       0.00000000       0.00000000
Si       9.57310546      23.24897040      25.98414339      -0.00000000       0.00000000      -0.00000000
Si      10.94069195      24.61655689      24.61655689       0.00000000      -0.00000000      -0.00000000
Si      12.30827845      25.98414339      25.98414339       0.00000000      -0.00000000      -0.00000000
Si      13.67586494      27.35172988      24.61655689      -0.00000000       0.00000000       0.00000000
Si      15.04345144      28.71931638      25.98414339       0.00000000      -0.00000000      -0.00000000
Si      16.41103793      30.08690287      24.61655689       0.00000000      -0.00000000      -0.00000000
Si      17.77862442      31.45448937      25.98414339      -0.00000000      -0.00000000      -0.00000000
Si      19.14621092      32.82207586      24.61655689       0.00000000      -0.00000000      -0.00000000
Si      20.51379741      34.18966235      25.98414339      -0.00000000      -0.00000000       0.00000000
Si      21.88138391      35.55724885      24.61655689       0.00000000      -0.00000000      -0.00000000
Si      23.24897040      36.92483534      25.98414339      -0.00000000      -0.00000000       0.00000000
Si      24.61655689      38.29242184      24.61655689       0.00000000       0.00000000      -0.00000000
Si      25.98414339      39.66000833      25.98414339      -0.00000000      -0.00000000      -0.00000000
Si      27.35172988      41.02759482      24.61655689      -0.00000000       0.00000000       0.00000000
Si      28.71931638      42.39518132      25.98414339       0.00000000       0.00000000      -0.00000000
Si      30.08690287      43.76276781      24.61655689      -0.00000000      -0.00000000       0.00000000
Si      31.45448937      45.13035431      25.98414339      -0.00000000      -0.00000000       0.00000000
Si       8.20551896      19.14621092      27.35172988       0.00000000       0.00000000       0.00000000
Si       9.57310546      20.51379741      28.71931638       0.00000000      -0.00000000       0.00000000
Si      10.94069195      21.88138391      27.35172988       0.00000000       0.00000000       0.00000000
Si      12.30827845      23.24897040      28.71931638       0.00000000      -0.00000000      -0.00000000
Si      13.67586494      24.61655689      27.35172988      -0.00000000      -0.00000000       0.00000000
Si      15.04345144      25.98414339      28.71931638       0.00000000      -0.00000000      -0.00000000
Si      16.41103793      27.35172988      27.35172988       0.00000000       0.00000000       0.00000000
Si      17.77862442      28.71931638      28.71931638      -0.00000000      -0.00000000      -0.00000000
Si      19.14621092      30.08690287      27.35172988       0.00000000      -0.00000000       0.00000000
Si      20.51379741      31.45448937      28.71931638      -0.00000000      -0.00000000       0.00000000
Si      21.88138391      32.82207586      27.35172988       0.00000000      -0.00000000      -0.00000000
Si      23.24897040      34.18966235      28.71931638       0.00000000       0.00000000       0.00000000
Si      24.61655689      35.55724885      27.35172988      -0.00000000      -0.00000000       0.00000000
Si      25.98414339      36.92483534      28.71931638       0.00000000      -0.00000000       0.00000000
Si      27.35172988      38.29242184      27.35172988       0.00000000       0.00000000       0.00000000
Si      28.71931638      39.66000833      28.71931638      -0.00000000      -0.00000000       0.00000000
Si      30.08690287      41.02759482      27.35172988      -0.00000000       0.00000000       0.00000000
Si      31.45448937      42.39518132      28.71931638       0.00000000       0.00000000       0.00000000
Si      32.82207586      43.76276781      27.35172988      -0.00000000      -0.00000000       0.00000000
Si      34.18966235      45.13035431      28.71931638      -0.00000000      -0.00000000       0.00000000
Si      10.94069195      19.14621092      30.08690287       0.00000000       0.00000000      -0.00000000
Si      12.30827845      20.51379741      31.45448937       0.00000000       0.00000000       0.00000000
Si      13.67586494      21.88138391      30.08690287      -0.00000000      -0.00000000      -0.00000000
Si      15.04345144      23.24897040      31.45448937       0.00000000       0.00000000       0.00000000
Si      16.41103793      24.61655689      30.08690287      -0.00000000      -0.00000000       0.00000000
Si      17.77862442      25.98414339      31.45448937      -0.00000000      -0.00000000      -0.00000000
Si      19.14621092      27.35172988      30.08690287       0.00000000       0.00000000      -0.00000000
Si      20.51379741      28.71931638      31.45448937      -0.00000000      -0.00000000       0.00000000
Si      21.88138391      30.08690287      30.08690287       0.00000000      -0.00000000      -0.00000000
Si      23.24897040      31.45448937      31.45448937       0.00000000       0.00000000       0.00000000
Si      24.61655689      32.82207586      30.08690287       0.00000000      -0.00000000       0.00000000
Si      25.98414339      34.18966235      31.45448937      -0.00000000      -0.00000000      -0.00000000
Si      27.35172988      35.55724885      30.08690287       0.00000000      -0.00000000       0.00000000
Si      28.71931638      36.92483534      31.45448937      -0.00000000      -0.00000000      -0.00000000
Si      30.08690287      38.29242184      30.08690287      -0.00000000       0.00000000       0.00000000
Si      31.45448937      39.66000833      31.45448937       0.00000000       0.00000000      -0.00000000
Si      32.82207586      41.02759482      30.08690287      -0.00000000       0.00000000       0.00000000
Si      34.18966235      42.39518132      31.45448937      -0.00000000       0.00000000       0.00000000
Si      35.55724885      43.76276781      30.08690287       0.00000000       0.00000000       0.00000000
Si      36.92483534      45.13035431      31.45448937      -0.00000000      -0.00000000       0.00000000
Si      13.67586494      19.14621092      32.82207586       0.00000000       0.00000000       0.00000000
Si      15.04345144      20.51379741      34.18966235       0.00000000       0.00000000      -0.00000000
Si      16.41103793      21.88138391      32.82207586       0.00000000      -0.00000000       0.00000000
Si      17.77862442      23.24897040      34.18966235      -0.00000000       0.00000000      -0.00000000
Si      19.14621092      24.61655689      32.82207586       0.00000000      -0.00000000       0.00000000
Si      20.51379741      25.98414339      34.18966235       0.00000000      -0.00000000      -0.00000000
Si      21.88138391      27.35172988      32.82207586       0.00000000       0.00000000       0.00000000
Si      23.24897040      28.71931638      34.18966235      -0.00000000       0.00000000      -0.00000000
Si      24.61655689      30.08690287      32.82207586       0.00000000      -0.00000000       0.00000000
Si      25.98414339      31.45448937      34.18966235      -0.00000000      -0.00000000      -0.00000000
Si      27.35172988      32.82207586      32.82207586       0.00000000       0.00000000       0.00000000
Si      28.71931638      34.18966235      34.18966235      -0.00000000      -0.00000000      -0.00000000
Si      30.08690287      35.55724885      32.82207586      -0.00000000      -0.00000000       0.00000000
Si      31.45448937      36.92483534      34.18966235      -0.00000000      -0.00000000      -0.00000000
Si      32.82207586      38.29242184      32.82207586       0.00000000       0.00000000       0.00000000
Si      34.18966235      39.66000833      34.18966235      -0.00000000      -0.00000000      -0.00000000
Si      35.55724885      41.02759482      32.82207586       0.00000000      -0.00000000       0.00000000
Si      36.92483534      42.39518132      34.18966235       0.00000000      -0.00000000      -0.00000000
Si      38.29242184      43.76276781      32.82207586       0.00000000      -0.00000000       0.00000000
Si      39.66000833      45.13035431      34.18966235      -0.00000000      -0.00000000      -0.00000000
Si      16.41103793      19.14621092      35.55724885       0.00000000       0.00000000       0.00000000
Si      17.77862442      20.51379741      36.92483534      -0.00000000       0.00000000      -0.00000000
Si      19.14621092      21.88138391      35.55724885       0.00000000      -0.00000000       0.00000000
Si      20.51379741      23.24897040      36.92483534      -0.00000000       0.00000000      -0.00000000
Si      21.88138391      24.61655689      35.55724885       0.00000000      -0.00000000       0.00000000
Si      23.24897040      25.98414339      36.92483534       0.00000000      -0.00000000      -0.00000000
Si      24.61655689      27.35172988      35.55724885       0.00000000      -0.00000000       0.00000000
Si      25.98414339      28.71931638      36.92483534      -0.00000000       0.00000000      -0.00000000
Si      27.35172988      30.08690287      35.55724885       0.00000000      -0.00000000       0.00000000
Si      28.71931638      31.45448937      36.92483534       0.00000000       0.00000000      -0.00000000
Si      30.08690287      32.82207586      35.55724885       0.00000000      -0.00000000       0.00000000
Si      31.45448937      34.18966235      36.92483534       0.00000000      -0.00000000      -0.00000000
Si      32.82207586      35.55724885      35.55724885       0.00000000      -0.00000000       0.00000000
Si      34.18966235      36.92483534      36.92483534      -0.00000000      -0.00000000      -0.00000000
Si      35.55724885      38.29242184      35.55724885      -0.00000000       0.00000000       0.00000000
Si      36.92483534      39.66000833      36.92483534      -0.00000000       0.00000000      -0.00000000
Si      38.29242184      41.02759482      35.55724885       0.00000000       0.00000000       0.00000000
Si      39.66000833      42.39518132      36.92483534      -0.00000000       0.00000000      -0.00000000
Si      41.02759482      43.76276781      35.55724885       0.00000000       0.00000000       0.00000000
Si      42.39518132      45.13035431      36.92483534      -0.00000000      -0.00000000      -0.00000000
Si      19.14621092      19.14621092      38.29242184       0.00000000       0.00000000      -0.00000000
Si      20.51379741      20.51379741      39.66000833      -0.00000000      -0.00000000       0.00000000
Si      21.88138391      21.88138391      38.29242184       0.00000000       0.00000000       0.00000000
Si      23.24897040      23.24897040      39.66000833      -0.00000000      -0.00000000       0.00000000
Si      24.61655689      24.61655689      38.29242184      -0.00000000      -0.00000000      -0.00000000
Si      25.98414339      25.98414339      39.66000833       0.00000000       0.00000000       0.00000000
Si      27.35172988      27.35172988      38.29242184       0.00000000       0.00000000       0.00000000
Si      28.71931638      28.71931638      39.66000833       0.00000000       0.00000000       0.00000000
Si      30.08690287      30.08690287      38.29242184      -0.00000000      -0.00000000      -0.00000000
Si      31.45448937      31.45448937      39.66000833       0.00000000      -0.00000000       0.00000000
Si      32.82207586      32.82207586      38.29242184      -0.00000000      -0.00000000      -0.00000000
Si      34.18966235      34.18966235      39.66000833      -0.00000000      -0.00000000       0.00000000
Si      35.55724885      35.55724885      38.29242184       0.00000000       0.00000000      -0.00000000
Si      36.92483534      36.92483534      39.66000833      -0.00000000      -0.00000000       0.00000000
Si      38.29242184      38.29242184      38.29242184      -0.00000000      -0.00000000      -0.00000000
Si      39.66000833      39.66000833      39.66000833       0.00000000       0.00000000       0.00000000
Si      41.02759482      41.02759482      38.29242184       0.00000000       0.00000000       0.00000000
Si      42.39518132      42.39518132      39.66000833       0.00000000       0.00000000       0.00000000
Si      43.76276781      43.76276781      38.29242184      -0.00000000      -0.00000000      -0.00000000
Si      45.13035431      45.13035431      39.66000833      -0.00000000      -0.00000000       0.00000000
Si      21.88138391      19.14621092      41.02759482      -0.00000000       0.00000000       0.00000000
Si      23.24897040      20.51379741      42.39518132      -0.00000000      -0.00000000       0.00000000
Si      24.61655689      21.88138391      41.02759482      -0.00000000       0.00000000       0.00000000
Si      25.98414339      23.24897040      42.39518132       0.00000000      -0.00000000       0.00000000
Si      27.35172988      24.61655689      41.02759482       0.00000000      -0.00000000       0.00000000
Si      28.71931638      25.98414339      42.39518132       0.00000000      -0.00000000       0.00000000
Si      30.08690287      27.35172988      41.02759482      -0.00000000       0.00000000       0.00000000
Si      31.45448937      28.71931638      42.39518132      -0.00000000       0.00000000       0.00000000
Si      32.82207586      30.08690287      41.02759482      -0.00000000       0.00000000       0.00000000
Si      34.18966235      31.45448937      42.39518132      -0.00000000      -0.00000000       0.00000000
Si      35.55724885      32.82207586      41.02759482      -0.00000000      -0.00000000       0.00000000
Si      36.92483534      34.18966235      42.39518132       0.00000000       0.00000000      -0.00000000
Si      38.29242184      35.55724885      41.02759482      -0.00000000      -0.00000000       0.00000000
Si      39.66000833      36.92483534      42.39518132       0.00000000      -0.00000000       0.00000000
Si      41.02759482      38.29242184      41.02759482       0.00000000       0.00000000       0.00000000
Si      42.39518132      39.66000833      42.39518132      -0.00000000      -0.00000000       0.00000000
Si      43.76276781      41.02759482      41.02759482      -0.00000000       0.00000000       0.00000000
Si      45.13035431      42.39518132      42.39518132      -0.00000000       0.00000000       0.00000000
Si      46.49794080      43.76276781      41.02759482      -0.00000000       0.00000000       0.00000000
Si      47.86552730      45.13035431      42.39518132      -0.00000000      -0.00000000       0.00000000
Si      24.61655689      19.14621092      43.76276781       0.00000000       0.00000000      -0.00000000
Si      25.98414339      20.51379741      45.13035431      -0.00000000      -0.00000000       0.00000000
Si      27.35172988      21.88138391      43.76276781       0.00000000      -0.00000000      -0.00000000
Si      28.71931638      23.24897040      45.13035431      -0.00000000       0.00000000       0.00000000
Si      30.08690287      24.61655689      43.76276781      -0.00000000       0.00000000      -0.00000000
Si      31.45448937      25.98414339      45.13035431       0.00000000      -0.00000000      -0.00000000
Si      32.82207586      27.35172988      43.76276781      -0.00000000       0.00000000       0.00000000
Si      34.18966235      28.71931638      45.13035431      -0.00000000      -0.00000000       0.00000000
Si      35.55724885      30.08690287      43.76276781       0.00000000       0.00000000      -0.00000000
Si      36.92483534      31.45448937      45.13035431      -0.00000000      -0.00000000       0.00000000
Si      38.29242184      32.82207586      43.76276781       0.00000000       0.00000000      -0.00000000
Si      39.66000833      34.18966235      45.13035431      -0.00000000       0.00000000       0.00000000
Si      41.02759482      35.55724885      43.76276781      -0.00000000       0.00000000      -0.00000000
Si      42.39518132      36.92483534      45.13035431      -0.00000000      -0.00000000       0.00000000
Si      43.76276781      38.29242184      43.76276781      -0.00000000       0.00000000      -0.00000000
Si      45.13035431      39.66000833      45.13035431       0.00000000       0.00000000       0.00000000
Si      46.49794080      41.02759482      43.76276781      -0.00000000       0.00000000       0.00000000
Si      47.86552730      42.39518132      45.13035431      -0.00000000      -0.00000000       0.00000000
Si      49.23311379      43.76276781      43.76276781       0.00000000       0.00000000      -0.00000000
Si      50.60070028      45.13035431      45.13035431      -0.00000000      -0.00000000       0.00000000
Si       0.00000000      21.88138391      21.88138391       0.00000000       0.00000000       0.00000000
Si       1.36758649      23.24897040      23.24897040       0.00000000      -0.00000000      -0.00000000
Si       2.73517299      24.61655689      21.88138391       0.00000000       0.00000000       0.00000000
Si       4.10275948      25.98414339      23.24897040       0.00000000      -0.00000000      -0.00000000
Si       5.47034598      27.35172988      21.88138391       0.00000000       0.00000000       0.00000000
Si       6.83793247      28.71931638      23.24897040       0.00000000      -0.00000000      -0.00000000
Si       8.20551896      30.08690287      21.88138391       0.00000000      -0.00000000       0.00000000
Si       9.57310546      31.45448937      23.24897040       0.00000000      -0.00000000      -0.00000000
Si      10.94069195      32.82207586      21.88138391      -0.00000000      -0.00000000       0.00000000
Si      12.30827845      34.18966235      23.24897040       0.00000000      -0.00000000       0.00000000
Si      13.67586494      35.55724885      21.88138391       0.00000000       0.00000000       0.00000000
Si      15.04345144      36.92483534      23.24897040       0.00000000       0.00000000      -0.00000000
Si      16.41103793      38.29242184      21.88138391      -0.00000000       0.00000000       0.00000000
Si      17.77862442      39.66000833      23.24897040      -0.00000000      -0.00000000      -0.00000000
Si      19.14621092      41.02759482      21.88138391       0.00000000       0.00000000       0.00000000
Si      20.51379741      42.39518132      23.24897040      -0.00000000      -0.00000000      -0.00000000
Si      21.88138391      43.76276781      21.88138391      -0.00000000       0.00000000       0.00000000
Si      23.24897040      45.13035431      23.24897040       0.00000000      -0.00000000      -0.00000000
Si      24.61655689      46.49794080      21.88138391      -0.00000000      -0.00000000       0.00000000
Si      25.98414339      47.86552730      23.24897040      -0.00000000      -0.00000000       0.00000000
Si       2.73517299      21.88138391      24.61655689       0.00000000       0.00000000      -0.00000000
Si       4.10275948      23.24897040      25.98414339      -0.00000000      -0.00000000      -0.00000000
Si       5.47034598      24.61655689      24.61655689       0.00000000       0.00000000       0.00000000
Si       6.83793247      25.98414339      25.98414339      -0.00000000      -0.00000000      -0.00000000
Si       8.20551896      27.35172988      24.61655689       0.00000000       0.00000000       0.00000000
Si       9.57310546      28.71931638      25.98414339      -0.00000000      -0.00000000      -0.00000000
Si      10.94069195      30.08690287      24.61655689      -0.00000000       0.00000000       0.00000000
Si      12.30827845      31.45448937      25.98414339      -0.00000000      -0.00000000      -0.00000000
Si      13.67586494      32.82207586      24.61655689      -0.00000000      -0.00000000      -0.00000000
Si      15.04345144      34.18966235      25.98414339      -0.00000000      -0.00000000       0.00000000
Si      16.41103793      35.55724885      24.61655689       0.00000000       0.00000000      -0.00000000
Si      17.77862442      36.92483534      25.98414339      -0.00000000       0.00000000      -0.00000000
Si      19.14621092      38.29242184      24.61655689      -0.00000000       0.00000000       0.00000000
Si      20.51379741      39.66000833      25.98414339      -0.00000000      -0.00000000      -0.00000000
Si      21.88138391      41.02759482      24.61655689       0.00000000       0.00000000       0.00000000
Si      23.24897040      42.39518132      25.98414339      -0.00000000      -0.00000000      -0.00000000
Si      24.61655689      43.76276781      24.61655689      -0.00000000       0.00000000       0.00000000
Si      25.98414339      45.13035431      25.98414339      -0.00000000      -0.00000000      -0.00000000
Si      27.35172988      46.49794080      24.61655689       0.00000000       0.00000000      -0.00000000
Si      28.71931638      47.86552730      25.98414339      -0.00000000      -0.00000000      -0.00000000
Si       5.47034598      21.88138391      27.35172988       0.00000000       0.00000000      -0.00000000
Si       6.83793247      23.24897040      28.71931638      -0.00000000      -0.00000000       0.00000000
Si       8.20551896      24.61655689      27.35172988       0.00000000       0.00000000       0.00000000
Si       9.57310546      25.98414339      28.71931638       0.00000000      -0.00000000       0.00000000
Si      10.94069195      27.35172988      27.35172988       0.00000000       0.00000000       0.00000000
Si      12.30827845      28.71931638      28.71931638       0.00000000      -0.00000000      -0.00000000
Si      13.67586494      30.08690287      27.35172988      -0.00000000      -0.00000000       0.00000000
Si      15.04345144      31.45448937      28.71931638       0.00000000       0.00000000      -0.00000000
Si      16.41103793      32.82207586      27.35172988      -0.00000000      -0.00000000       0.00000000
Si      17.77862442      34.18966235      28.71931638      -0.00000000      -0.00000000       0.00000000
Si      19.14621092      35.55724885      27.35172988       0.00000000       0.00000000       0.00000000
Si      20.51379741      36.92483534      28.71931638       0.00000000      -0.00000000      -0.00000000
Si      21.88138391      38.29242184      27.35172988       0.00000000       0.00000000       0.00000000
Si      23.24897040      39.66000833      28.71931638      -0.00000000      -0.00000000       0.00000000
Si      24.61655689      41.02759482      27.35172988       0.00000000       0.00000000       0.00000000
Si      25.98414339      42.39518132      28.71931638      -0.00000000       0.00000000       0.00000000
Si      27.35172988      43.76276781      27.35172988       0.00000000       0.00000000       0.00000000
Si      28.71931638      45.13035431      28.71931638       0.00000000      -0.00000000       0.00000000
Si      30.08690287      46.49794080      27.35172988      -0.00000000      -0.00000000       0.00000000
Si      31.45448937      47.86552730      28.71931638      -0.00000000      -0.00000000       0.00000000
Si       8.20551896      21.88138391      30.08690287       0.00000000       0.00000000      -0.00000000
Si       9.57310546      23.24897040      31.45448937       0.00000000      -0.00000000      -0.00000000
Si      10.94069195      24.61655689      30.08690287      -0.00000000       0.00000000       0.00000000
Si      12.30827845      25.98414339      31.45448937      -0.00000000      -0.00000000      -0.00000000
Si      13.67586494      27.35172988      30.08690287       0.00000000       0.00000000       0.00000000
Si      15.04345144      28.71931638      31.45448937      -0.00000000      -0.00000000      -0.00000000
Si      16.41103793      30.08690287      30.08690287      -0.00000000       0.00000000       0.00000000
Si      17.77862442      31.45448937      31.45448937      -0.00000000      -0.00000000      -0.00000000
Si      19.14621092      32.82207586      30.08690287       0.00000000      -0.00000000       0.00000000
Si      20.51379741      34.18966235      31.45448937      -0.00000000      -0.00000000      -0.00000000
Si      21.88138391      35.55724885      30.08690287       0.00000000       0.00000000      -0.00000000
Si      23.24897040      36.92483534      31.45448937       0.00000000       0.00000000      -0.00000000
Si      24.61655689      38.29242184      30.08690287      -0.00000000       0.00000000       0.00000000
Si      25.98414339      39.66000833      31.45448937      -0.00000000      -0.00000000      -0.00000000
Si      27.35172988      41.02759482      30.08690287       0.00000000       0.00000000      -0.00000000
Si      28.71931638      42.39518132      31.45448937       0.00000000      -0.00000000      -0.00000000
Si      30.08690287      43.76276781      30.08690287       0.00000000       0.00000000       0.00000000
Si      31.45448937      45.13035431      31.45448937      -0.00000000      -0.00000000      -0.00000000
Si      32.82207586      46.49794080      30.08690287      -0.00000000      -0.00000000       0.00000000
Si      34.18966235      47.86552730      31.45448937      -0.00000000      -0.00000000      -0.00000000
Si      10.94069195      21.88138391      32.82207586       0.00000000       0.00000000      -0.00000000
Si      12.30827845      23.24897040      34.18966235      -0.00000000      -0.00000000      -0.00000000
Si      13.67586494      24.61655689      32.82207586       0.00000000       0.00000000       0.00000000
Si      15.04345144      25.98414339      34.18966235       0.00000000      -0.00000000       0.00000000
Si      16.41103793      27.35172988      32.82207586       0.00000000       0.00000000       0.00000000
Si      17.77862442      28.71931638      34.18966235      -0.00000000      -0.00000000      -0.00000000
Si      19.14621092      30.08690287      32.82207586       0.00000000      -0.00000000       0.00000000
Si      20.51379741      31.45448937      34.18966235      -0.00000000      -0.00000000      -0.00000000
Si      21.88138391      32.82207586      32.82207586       0.00000000      -0.00000000      -0.00000000
Si      23.24897040      34.18966235      34.18966235       0.00000000      -0.00000000       0.00000000
Si      24.61655689      35.55724885      32.82207586       0.00000000       0.00000000       0.00000000
Si      25.98414339      36.92483534      34.18966235      -0.00000000      -0.00000000      -0.00000000
Si      27.35172988      38.29242184      32.82207586       0.00000000       0.00000000       0.00000000
Si      28.71931638      39.66000833      34.18966235      -0.00000000      -0.00000000       0.00000000
Si      30.08690287      41.02759482      32.82207586       0.00000000       0.00000000      -0.00000000
Si      31.45448937      42.39518132      34.18966235       0.00000000       0.00000000      -0.00000000
Si      32.82207586      43.76276781      32.82207586      -0.00000000       0.00000000      -0.00000000
Si      34.18966235      45.13035431      34.18966235      -0.00000000      -0.00000000      -0.00000000
Si      35.55724885      46.49794080      32.82207586       0.00000000      -0.00000000      -0.00000000
Si      36.92483534      47.86552730      34.18966235       0.00000000      -0.00000000       0.00000000
Si      13.67586494      21.88138391      35.55724885       0.00000000       0.00000000       0.00000000
Si      15.04345144      23.24897040      36.92483534       0.00000000      -0.00000000      -0.00000000
Si      16.41103793      24.61655689      35.55724885       0.00000000       0.00000000       0.00000000
Si      17.77862442      25.98414339      36.92483534      -0.00000000      -0.00000000      -0.00000000
Si      19.14621092      27.35172988      35.55724885      -0.00000000       0.00000000       0.00000000
Si      20.51379741      28.71931638      36.92483534       0.00000000      -0.00000000      -0.00000000
Si      21.88138391      30.08690287      35.55724885       0.00000000      -0.00000000       0.00000000
Si      23.24897040      31.45448937      36.92483534      -0.00000000       0.00000000      -0.00000000
Si      24.61655689      32.82207586      35.55724885      -0.00000000       0.00000000       0.00000000
Si      25.98414339      34.18966235      36.92483534      -0.00000000      -0.00000000      -0.00000000
Si      27.35172988      35.55724885      35.55724885       0.00000000       0.00000000       0.00000000
Si      28.71931638      36.92483534      36.92483534       0.00000000       0.00000000      -0.00000000
Si      30.08690287      38.29242184      35.55724885      -0.00000000      -0.00000000       0.00000000
Si      31.45448937      39.66000833      36.92483534       0.00000000       0.00000000      -0.00000000
Si      32.82207586      41.02759482      35.55724885      -0.00000000       0.00000000       0.00000000
Si      34.18966235      42.39518132      36.92483534      -0.00000000      -0.00000000      -0.00000000
Si      35.55724885      43.76276781      35.55724885       0.00000000       0.00000000       0.00000000
Si      36.92483534      45.13035431      36.92483534      -0.00000000      -0.00000000      -0.00000000
Si      38.29242184      46.49794080      35.55724885       0.00000000       0.00000000       0.00000000
Si      39.66000833      47.86552730      36.92483534      -0.00000000      -0.00000000      -0.00000000
Si      16.41103793      21.88138391      38.29242184       0.00000000       0.00000000       0.00000000
Si      17.77862442      23.24897040      39.66000833      -0.00000000       0.00000000      -0.00000000
Si      19.14621092      24.61655689      38.29242184       0.00000000       0.00000000       0.00000000
Si      20.51379741      25.98414339      39.66000833      -0.00000000      -0.00000000      -0.00000000
Si      21.88138391      27.35172988      38.29242184      -0.00000000       0.00000000       0.00000000
Si      23.24897040      28.71931638      39.66000833      -0.00000000       0.00000000      -0.00000000
Si      24.61655689      30.08690287      38.29242184       0.00000000      -0.00000000       0.00000000
Si      25.98414339      31.45448937      39.66000833      -0.00000000       0.00000000      -0.00000000
Si      27.35172988      32.82207586      38.29242184       0.00000000      -0.00000000       0.00000000
Si      28.71931638      34.18966235      39.66000833      -0.00000000      -0.00000000      -0.00000000
Si      30.08690287      35.55724885      38.29242184       0.00000000       0.00000000       0.00000000
Si      31.45448937      36.92483534      39.66000833      -0.00000000      -0.00000000      -0.00000000
Si      32.82207586      38.29242184      38.29242184       0.00000000       0.00000000       0.00000000
Si      34.18966235      39.66000833      39.66000833      -0.00000000      -0.00000000      -0.00000000
Si      35.55724885      41.02759482      38.29242184       0.00000000       0.00000000       0.00000000
Si      36.92483534      42.39518132      39.66000833      -0.00000000       0.00000000      -0.00000000
Si      38.29242184      43.76276781      38.29242184       0.00000000      -0.00000000       0.00000000
Si      39.66000833      45.13035431      39.66000833       0.00000000       0.00000000      -0.00000000
Si      41.02759482      46.49794080      38.29242184      -0.00000000      -0.00000000       0.00000000
Si      42.39518132      47.86552730      39.66000833      -0.00000000      -0.00000000      -0.00000000
Si      19.14621092      21.88138391      41.02759482       0.00000000      -0.00000000       0.00000000
Si      20.51379741      23.24897040      42.39518132      -0.00000000      -0.00000000       0.00000000
Si      21.88138391      24.61655689      41.02759482       0.00000000      -0.00000000       0.00000000
Si      23.24897040      25.98414339      42.39518132      -0.00000000       0.00000000       0.00000000
Si      24.61655689      27.35172988      41.02759482      -0.00000000       0.00000000       0.00000000
Si      25.98414339      28.71931638      42.39518132      -0.00000000       0.00000000       0.00000000
Si      27.35172988      30.08690287      41.02759482       0.00000000      -0.00000000       0.00000000
Si      28.71931638      31.45448937      42.39518132       0.00000000      -0.00000000       0.00000000
Si      30.08690287      32.82207586      41.02759482       0.00000000      -0.00000000       0.00000000
Si      31.45448937      34.18966235      42.39518132      -0.00000000      -0.00000000       0.00000000
Si      32.82207586      35.55724885      41.02759482      -0.00000000      -0.00000000       0.00000000
Si      34.18966235      36.92483534      42.39518132       0.00000000       0.00000000      -0.00000000
Si      35.55724885      38.29242184      41.02759482      -0.00000000      -0.00000000       0.00000000
Si      36.92483534      39.66000833      42.39518132      -0.00000000       0.00000000       0.00000000
Si      38.29242184      41.02759482      41.02759482       0.00000000       0.00000000       0.00000000
Si      39.66000833      42.39518132      42.39518132      -0.00000000      -0.00000000       0.00000000
Si      41.02759482      43.76276781      41.02759482       0.00000000      -0.00000000       0.00000000
Si      42.39518132      45.13035431      42.39518132       0.00000000      -0.00000000       0.00000000
Si      43.76276781      46.49794080      41.02759482       0.00000000      -0.00000000       0.00000000
Si      45.13035431      47.86552730      42.39518132      -0.00000000      -0.00000000       0.00000000
Si      21.88138391      21.88138391      43.76276781       0.00000000       0.00000000      -0.00000000
Si      23.24897040      23.24897040      45.13035431      -0.00000000      -0.00000000       0.00000000
Si      24.61655689      24.61655689      43.76276781       0.00000000       0.00000000       0.00000000
Si      25.98414339      25.98414339      45.13035431      -0.00000000      -0.00000000       0.00000000
Si      27.35172988      27.35172988      43.76276781       0.00000000       0.00000000       0.00000000
Si      28.71931638      28.71931638      45.13035431      -0.00000000      -0.00000000       0.00000000
Si      30.08690287      30.08690287      43.76276781      -0.00000000      -0.00000000       0.00000000
Si      31.45448937      31.45448937      45.13035431      -0.00000000      -0.00000000      -0.00000000
Si      32.82207586      32.82207586      43.76276781      -0.00000000      -0.00000000       0.00000000
Si      34.18966235      34.18966235      45.13035431      -0.00000000      -0.00000000       0.00000000
Si      35.55724885      35.55724885      43.76276781       0.00000000       0.00000000      -0.00000000
Si      36.92483534      36.92483534      45.13035431      -0.00000000      -0.00000000      -0.00000000
Si      38.29242184      38.29242184      43.76276781       0.00000000      -0.00000000       0.00000000
Si      39.66000833      39.66000833      45.13035431      -0.00000000      -0.00000000       0.00000000
Si      41.02759482      41.02759482      43.76276781       0.00000000       0.00000000       0.00000000
Si      42.39518132      42.39518132      45.13035431       0.00000000       0.00000000      -0.00000000
Si      43.76276781      43.76276781      43.76276781      -0.00000000      -0.00000000      -0.00000000
Si      45.13035431      45.13035431      45.13035431      -0.00000000      -0.00000000      -0.00000000
Si      46.49794080      46.49794080      43.76276781      -0.00000000      -0.00000000       0.00000000
Si      47.86552730      47.86552730      45.13035431      -0.00000000      -0.00000000       0.00000000
Si      24.61655689      21.88138391      46.49794080       0.00000000       0.00000000      -0.00000000
Si      25.98414339      23.24897040      47.86552730      -0.00000000      -0.00000000      -0.00000000
Si      27.35172988      24.61655689      46.49794080       0.00000000       0.00000000      -0.00000000
Si      28.71931638      25.98414339      47.86552730      -0.00000000       0.00000000      -0.00000000
Si      30.08690287      27.35172988      46.49794080      -0.00000000       0.00000000       0.00000000
Si      31.45448937      28.71931638      47.86552730      -0.00000000       0.00000000      -0.00000000
Si      32.82207586      30.08690287      46.49794080      -0.00000000       0.00000000      -0.00000000
Si      34.18966235      31.45448937      47.86552730      -0.00000000       0.00000000      -0.00000000
Si      35.55724885      32.82207586      46.49794080       0.00000000      -0.00000000      -0.00000000
Si      36.92483534      34.18966235      47.86552730       0.00000000      -0.00000000       0.00000000
Si      38.29242184      35.55724885      46.49794080       0.00000000       0.00000000      -0.00000000
Si      39.66000833      36.92483534      47.86552730      -0.00000000      -0.00000000      -0.00000000
Si      41.02759482      38.29242184      46.49794080       0.00000000       0.00000000      -0.00000000
Si      42.39518132      39.66000833      47.86552730      -0.00000000      -0.00000000      -0.00000000
Si      43.76276781      41.02759482      46.49794080       0.00000000       0.00000000      -0.00000000
Si      45.13035431      42.39518132      47.86552730      -0.00000000       0.00000000      -0.00000000
Si      46.49794080      43.76276781      46.49794080      -0.00000000       0.00000000      -0.00000000
Si      47.86552730      45.13035431      47.86552730      -0.00000000      -0.00000000      -0.00000000
Si      49.23311379      46.49794080      46.49794080       0.00000000      -0.00000000      -0.00000000
Si      50.60070028      47.86552730      47.86552730       0.00000000      -0.00000000       0.00000000
Si       0.00000000      24.61655689      24.61655689       0.00000000       0.00000000      -0.00000000
Si       1.36758649      25.98414339      25.98414339       0.00000000      -0.00000000      -0.00000000
Si       2.73517299      27.35172988      24.61655689       0.00000000       0.00000000       0.00000000
Si       4.10275948      28.71931638      25.98414339       0.00000000      -0.00000000      -0.00000000
Si       5.47034598      30.08690287      24.61655689      -0.00000000       0.00000000       0.00000000
Si       6.83793247      31.45448937      25.98414339       0.00000000      -0.00000000      -0.00000000
Si       8.20551896      32.82207586      24.61655689      -0.00000000       0.00000000       0.00000000
Si       9.57310546      34.18966235      25.98414339       0.00000000      -0.00000000      -0.00000000
Si      10.94069195      35.55724885      24.61655689       0.00000000       0.00000000       0.00000000
Si      12.30827845      36.92483534      25.98414339       0.00000000      -0.00000000      -0.00000000
Si      13.67586494      38.29242184      24.61655689       0.00000000      -0.00000000       0.00000000
Si      15.04345144      39.66000833      25.98414339       0.00000000       0.00000000      -0.00000000
Si      16.41103793      41.02759482      24.61655689      -0.00000000      -0.00000000       0.00000000
Si      17.77862442      42.39518132      25.98414339       0.00000000       0.00000000      -0.00000000
Si      19.14621092      43.76276781      24.61655689       0.00000000      -0.00000000       0.00000000
Si      20.51379741      45.13035431      25.98414339       0.00000000      -0.00000000      -0.00000000
Si      21.88138391      46.49794080      24.61655689      -0.00000000       0.00000000       0.00000000
Si      23.24897040      47.86552730      25.98414339       0.00000000      -0.00000000      -0.00000000
Si      24.61655689      49.23311379      24.61655689       0.00000000       0.00000000       0.00000000
Si      25.98414339      50.60070028      25.98414339      -0.00000000      -0.00000000      -0.00000000
Si       2.73517299      24.61655689      27.35172988       0.00000000       0.00000000       0.00000000
Si       4.10275948      25.98414339      28.71931638       0.00000000      -0.00000000      -0.00000000
Si       5.47034598      27.35172988      27.35172988      -0.00000000       0.00000000      -0.00000000
Si       6.83793247      28.71931638      28.71931638       0.00000000      -0.00000000      -0.00000000
Si       8.20551896      30.08690287      27.35172988       0.00000000      -0.00000000       0.00000000
Si       9.57310546      31.45448937      28.71931638       0.00000000      -0.00000000      -0.00000000
Si      10.94069195      32.82207586      27.35172988       0.00000000      -0.00000000       0.00000000
Si      12.30827845      34.18966235      28.71931638       0.00000000      -0.00000000      -0.00000000
Si      13.67586494      35.55724885      27.35172988       0.00000000       0.00000000       0.00000000
Si      15.04345144      36.92483534      28.71931638       0.00000000      -0.00000000      -0.00000000
Si      16.41103793      38.29242184      27.35172988      -0.00000000      -0.00000000       0.00000000
Si      17.77862442      39.66000833      28.71931638       0.00000000       0.00000000      -0.00000000
Si      19.14621092      41.02759482      27.35172988      -0.00000000      -0.00000000       0.00000000
Si      20.51379741      42.39518132      28.71931638      -0.00000000       0.00000000      -0.00000000
Si      21.88138391      43.76276781      27.35172988       0.00000000       0.00000000       0.00000000
Si      23.24897040      45.13035431      28.71931638      -0.00000000      -0.00000000      -0.00000000
Si      24.61655689      46.49794080      27.35172988      -0.00000000       0.00000000       0.00000000
Si      25.98414339      47.86552730      28.71931638      -0.00000000      -0.00000000      -0.00000000
Si      27.35172988      49.23311379      27.35172988       0.00000000       0.00000000      -0.00000000
Si      28.71931638      50.60070028      28.71931638      -0.00000000      -0.00000000       0.00000000
Si       5.47034598      24.61655689      30.08690287       0.00000000       0.00000000      -0.00000000
Si       6.83793247      25.98414339      31.45448937      -0.00000000      -0.00000000       0.00000000
Si       8.20551896      27.35172988      30.08690287       0.00000000       0.00000000      -0.00000000
Si       9.57310546      28.71931638      31.45448937       0.00000000      -0.00000000      -0.00000000
Si      10.94069195      30.08690287      30.08690287       0.00000000      -0.00000000       0.00000000
Si      12.30827845      31.45448937      31.45448937       0.00000000      -0.00000000      -0.00000000
Si      13.67586494      32.82207586      30.08690287      -0.00000000      -0.00000000       0.00000000
Si      15.04345144      34.18966235      31.45448937       0.00000000      -0.00000000      -0.00000000
Si      16.41103793      35.55724885      30.08690287      -0.00000000       0.00000000       0.00000000
Si      17.77862442      36.92483534      31.45448937      -0.00000000       0.00000000       0.00000000
Si      19.14621092      38.29242184      30.08690287      -0.00000000       0.00000000      -0.00000000
Si      20.51379741      39.66000833      31.45448937       0.00000000       0.00000000      -0.00000000
Si      21.88138391      41.02759482      30.08690287      -0.00000000      -0.00000000       0.00000000
Si      23.24897040      42.39518132      31.45448937       0.00000000       0.00000000      -0.00000000
Si      24.61655689      43.76276781      30.08690287       0.00000000      -0.00000000       0.00000000
Si      25.98414339      45.13035431      31.45448937       0.00000000      -0.00000000       0.00000000
Si      27.35172988      46.49794080      30.08690287       0.00000000      -0.00000000       0.00000000
Si      28.71931638      47.86552730      31.45448937      -0.00000000      -0.00000000       0.00000000
Si      30.08690287      49.23311379      30.08690287       0.00000000       0.00000000       0.00000000
Si      31.45448937      50.60070028      31.45448937      -0.00000000      -0.00000000       0.00000000
Si       8.20551896      24.61655689      32.82207586      -0.00000000       0.00000000       0.00000000
Si       9.57310546      25.98414339      34.18966235       0.00000000      -0.00000000      -0.00000000
Si      10.94069195      27.35172988      32.82207586      -0.00000000       0.00000000       0.00000000
Si      12.30827845      28.71931638      34.18966235       0.00000000      -0.00000000      -0.00000000
Si      13.67586494      30.08690287      32.82207586      -0.00000000       0.00000000       0.00000000
Si      15.04345144      31.45448937      34.18966235       0.00000000      -0.00000000      -0.00000000
Si      16.41103793      32.82207586      32.82207586      -0.00000000       0.00000000       0.00000000
Si      17.77862442      34.18966235      34.18966235      -0.00000000      -0.00000000      -0.00000000
Si      19.14621092      35.55724885      32.82207586      -0.00000000       0.00000000       0.00000000
Si      20.51379741      36.92483534      34.18966235      -0.00000000       0.00000000       0.00000000
Si      21.88138391      38.29242184      32.82207586       0.00000000       0.00000000       0.00000000
Si      23.24897040      39.66000833      34.18966235       0.00000000      -0.00000000      -0.00000000
Si      24.61655689      41.02759482      32.82207586      -0.00000000       0.00000000       0.00000000
Si      25.98414339      42.39518132      34.18966235       0.00000000      -0.00000000      -0.00000000
Si      27.35172988      43.76276781      32.82207586      -0.00000000       0.00000000       0.00000000
Si      28.71931638      45.13035431      34.18966235      -0.00000000      -0.00000000      -0.00000000
Si      30.08690287      46.49794080      32.82207586       0.00000000      -0.00000000       0.00000000
Si      31.45448937      47.86552730      34.18966235       0.00000000      -0.00000000      -0.00000000
Si      32.82207586      49.23311379      32.82207586      -0.00000000       0.00000000       0.00000000
Si      34.18966235      50.60070028      34.18966235      -0.00000000       0.00000000      -0.00000000
Si      10.94069195      24.61655689      35.55724885       0.00000000       0.00000000      -0.00000000
Si      12.30827845      25.98414339      36.92483534      -0.00000000      -0.00000000      -0.00000000
Si      13.67586494      27.35172988      35.55724885       0.00000000       0.00000000      -0.00000000
Si      15.04345144      28.71931638      36.92483534       0.00000000      -0.00000000      -0.00000000
Si      16.41103793      30.08690287      35.55724885      -0.00000000       0.00000000       0.00000000
Si      17.77862442      31.45448937      36.92483534      -0.00000000      -0.00000000      -0.00000000
Si      19.14621092      32.82207586      35.55724885      -0.00000000       0.00000000       0.00000000
Si      20.51379741      34.18966235      36.92483534      -0.00000000      -0.00000000      -0.00000000
Si      21.88138391      35.55724885      35.55724885       0.00000000       0.00000000       0.00000000
Si      23.24897040      36.92483534      36.92483534       0.00000000      -0.00000000      -0.00000000
Si      24.61655689      38.29242184      35.55724885       0.00000000       0.00000000       0.00000000
Si      25.98414339      39.66000833      36.92483534       0.00000000       0.00000000      -0.00000000
Si      27.35172988      41.02759482      35.55724885      -0.00000000      -0.00000000      -0.00000000
Si      28.71931638      42.39518132      36.92483534       0.00000000       0.00000000      -0.00000000
Si      30.08690287      43.76276781      35.55724885       0.00000000      -0.00000000       0.00000000
Si      31.45448937      45.13035431      36.92483534       0.00000000      -0.00000000      -0.00000000
Si      32.82207586      46.49794080      35.55724885      -0.00000000      -0.00000000       0.00000000
Si      34.18966235      47.86552730      36.92483534      -0.00000000      -0.00000000      -0.00000000
Si      35.55724885      49.23311379      35.55724885       0.00000000       0.00000000       0.00000000
Si      36.92483534      50.60070028      36.92483534      -0.00000000      -0.00000000       0.00000000
Si      13.67586494      24.61655689      38.29242184       0.00000000       0.00000000       0.00000000
Si      15.04345144      25.98414339      39.66000833      -0.00000000      -0.00000000      -0.00000000
Si      16.41103793      27.35172988      38.29242184       0.00000000       0.00000000       0.00000000
Si      17.77862442      28.71931638      39.66000833      -0.00000000      -0.00000000      -0.00000000
Si      19.14621092      30.08690287      38.29242184       0.00000000      -0.00000000       0.00000000
Si      20.51379741      31.45448937      39.66000833      -0.00000000      -0.00000000      -0.00000000
Si      21.88138391      32.82207586      38.29242184       0.00000000      -0.00000000       0.00000000
Si      23.24897040      34.18966235      39.66000833      -0.00000000      -0.00000000      -0.00000000
Si      24.61655689      35.55724885      38.29242184      -0.00000000       0.00000000       0.00000000
Si      25.98414339      36.92483534      39.66000833       0.00000000      -0.00000000      -0.00000000
Si      27.35172988      38.29242184      38.29242184       0.00000000      -0.00000000       0.00000000
Si      28.71931638      39.66000833      39.66000833       0.00000000      -0.00000000      -0.00000000
Si      30.08690287      41.02759482      38.29242184       0.00000000       0.00000000       0.00000000
Si      31.45448937      42.39518132      39.66000833       0.00000000      -0.00000000      -0.00000000
Si      32.82207586      43.76276781      38.29242184      -0.00000000       0.00000000       0.00000000
Si      34.18966235      45.13035431      39.66000833       0.00000000      -0.00000000      -0.00000000
Si      35.55724885      46.49794080      38.29242184      -0.00000000      -0.00000000       0.00000000
Si      36.92483534      47.86552730      39.66000833       0.00000000      -0.00000000      -0.00000000
Si      38.29242184      49.23311379      38.29242184      -0.00000000       0.00000000       0.00000000
Si      39.66000833      50.60070028      39.66000833      -0.00000000      -0.00000000      -0.00000000
Si      16.41103793      24.61655689      41.02759482      -0.00000000       0.00000000       0.00000000
Si      17.77862442      25.98414339      42.39518132      -0.00000000      -0.00000000      -0.00000000
Si      19.14621092      27.35172988      41.02759482       0.00000000       0.00000000       0.00000000
Si      20.51379741      28.71931638      42.39518132       0.00000000      -0.00000000       0.00000000
Si      21.88138391      30.08690287      41.02759482       0.00000000      -0.00000000      -0.00000000
Si      23.24897040      31.45448937      42.39518132       0.00000000      -0.00000000       0.00000000
Si      24.61655689      32.82207586      41.02759482       0.00000000      -0.00000000      -0.00000000
Si      25.98414339      34.18966235      42.39518132       0.00000000      -0.00000000       0.00000000
Si      27.35172988      35.55724885      41.02759482      -0.00000000       0.00000000      -0.00000000
Si      28.71931638      36.92483534      42.39518132       0.00000000       0.00000000       0.00000000
Si      30.08690287      38.29242184      41.02759482      -0.00000000       0.00000000       0.00000000
Si      31.45448937      39.66000833      42.39518132       0.00000000      -0.00000000      -0.00000000
Si      32.82207586      41.02759482      41.02759482      -0.00000000       0.00000000       0.00000000
Si      34.18966235      42.39518132      42.39518132       0.00000000      -0.00000000      -0.00000000
Si      35.55724885      43.76276781      41.02759482      -0.00000000      -0.00000000       0.00000000
Si      36.92483534      45.13035431      42.39518132      -0.00000000      -0.00000000      -0.00000000
Si      38.29242184      46.49794080      41.02759482      -0.00000000       0.00000000       0.00000000
Si      39.66000833      47.86552730      42.39518132      -0.00000000      -0.00000000       0.00000000
Si      41.02759482      49.23311379      41.02759482      -0.00000000       0.00000000      -0.00000000
Si      42.39518132      50.60070028      42.39518132       0.00000000       0.00000000       0.00000000
Si      19.14621092      24.61655689      43.76276781       0.00000000       0.00000000      -0.00000000
Si      20.51379741      25.98414339      45.13035431      -0.00000000      -0.00000000       0.00000000
Si      21.88138391      27.35172988      43.76276781      -0.00000000       0.00000000      -0.00000000
Si      23.24897040      28.71931638      45.13035431       0.00000000      -0.00000000       0.00000000
Si      24.61655689      30.08690287      43.76276781       0.00000000      -0.00000000      -0.00000000
Si      25.98414339      31.45448937      45.13035431      -0.00000000       0.00000000      -0.00000000
Si      27.35172988      32.82207586      43.76276781       0.00000000      -0.00000000       0.00000000
Si      28.71931638      34.18966235      45.13035431      -0.00000000      -0.00000000       0.00000000
Si      30.08690287      35.55724885      43.76276781       0.00000000       0.00000000      -0.00000000
Si      31.45448937      36.92483534      45.13035431      -0.00000000      -0.00000000       0.00000000
Si      32.82207586      38.29242184      43.76276781       0.00000000       0.00000000      -0.00000000
Si      34.18966235      39.66000833      45.13035431       0.00000000      -0.00000000       0.00000000
Si      35.55724885      41.02759482      43.76276781       0.00000000      -0.00000000      -0.00000000
Si      36.92483534      42.39518132      45.13035431      -0.00000000      -0.00000000       0.00000000
Si      38.29242184      43.76276781      43.76276781       0.00000000      -0.00000000      -0.00000000
Si      39.66000833      45.13035431      45.13035431       0.00000000       0.00000000       0.00000000
Si      41.02759482      46.49794080      43.76276781       0.00000000      -0.00000000       0.00000000
Si      42.39518132      47.86552730      45.13035431      -0.00000000      -0.00000000       0.00000000
Si      43.76276781      49.23311379      43.76276781       0.00000000       0.00000000      -0.00000000
Si      45.13035431      50.60070028      45.13035431      -0.00000000      -0.00000000       0.00000000
Si      21.88138391      24.61655689      46.49794080       0.00000000       0.00000000      -0.00000000
Si      23.24897040      25.98414339      47.86552730      -0.00000000      -0.00000000      -0.00000000
Si      24.61655689      27.35172988      46.49794080       0.00000000       0.00000000      -0.00000000
Si      25.98414339      28.71931638      47.86552730       0.00000000      -0.00000000      -0.00000000
Si      27.35172988      30.08690287      46.49794080       0.00000000      -0.00000000       0.00000000
Si      28.71931638      31.45448937      47.86552730       0.00000000      -0.00000000      -0.00000000
Si      30.08690287      32.82207586      46.49794080       0.00000000      -0.00000000      -0.00000000
Si      31.45448937      34.18966235      47.86552730       0.00000000      -0.00000000      -0.00000000
Si      32.82207586      35.55724885      46.49794080      -0.00000000       0.00000000      -0.00000000
Si      34.18966235      36.92483534      47.86552730      -0.00000000       0.00000000       0.00000000
Si      35.55724885      38.29242184      46.49794080       0.00000000       0.00000000      -0.00000000
Si      36.92483534      39.66000833      47.86552730      -0.00000000      -0.00000000      -0.00000000
Si      38.29242184      41.02759482      46.49794080       0.00000000       0.00000000      -0.00000000
Si      39.66000833      42.39518132      47.86552730      -0.00000000      -0.00000000      -0.00000000
Si      41.02759482      43.76276781      46.49794080       0.00000000       0.00000000      -0.00000000
Si      42.39518132      45.13035431      47.86552730       0.00000000      -0.00000000      -0.00000000
Si      43.76276781      46.49794080      46.49794080       0.00000000      -0.00000000      -0.00000000
Si      45.13035431      47.86552730      47.86552730      -0.00000000      -0.00000000      -0.00000000
Si      46.49794080      49.23311379      46.49794080      -0.00000000       0.00000000      -0.00000000
Si      47.86552730      50.60070028      47.86552730      -0.00000000       0.00000000       0.00000000
Si      24.61655689      24.61655689      49.23311379       0.00000000       0.00000000      -0.00000000
Si      25.98414339      25.98414339      50.60070028      -0.00000000      -0.00000000      -0.00000000
Si      27.35172988      27.35172988      49.23311379       0.00000000       0.00000000      -0.00000000
Si      28.71931638      28.71931638      50.60070028      -0.00000000      -0.00000000      -0.00000000
Si      30.08690287      30.08690287      49.23311379      -0.00000000      -0.00000000      -0.00000000
Si      31.45448937      31.45448937      50.60070028      -0.00000000      -0.00000000      -0.00000000
Si      32.82207586      32.82207586      49.23311379      -0.00000000      -0.00000000      -0.00000000
Si      34.18966235      34.18966235      50.60070028      -0.00000000      -0.00000000      -0.00000000
Si      35.55724885      35.55724885      49.23311379       0.00000000       0.00000000       0.00000000
Si      36.92483534      36.92483534      50.60070028      -0.00000000      -0.00000000      -0.00000000
Si      38.29242184      38.29242184      49.23311379       0.00000000       0.00000000       0.00000000
Si      39.66000833      39.66000833      50.60070028      -0.00000000      -0.00000000      -0.00000000
Si      41.02759482      41.02759482      49.23311379       0.00000000       0.00000000       0.00000000
Si      42.39518132      42.39518132      50.60070028       0.00000000       0.00000000      -0.00000000
Si      43.76276781      43.76276781      49.23311379      -0.00000000      -0.00000000      -0.00000000
Si      45.13035431      45.13035431      50.60070028      -0.00000000      -0.00000000      -0.00000000
Si      46.49794080      46.49794080      49.23311379      -0.00000000      -0.00000000       0.00000000
Si      47.86552730      47.86552730      50.60070028      -0.00000000      -0.00000000      -0.00000000
Si      49.23311379      49.23311379      49.23311379       0.00000000       0.00000000       0.00000000
Si      50.60070028      50.60070028      50.60070028      -0.00000000      -0.00000000      -0.00000000
