8100
Lattice="46.65911807111558 -8.509502649329435e-16 5.256813432662756e-16 -23.32955903555779 40.40798156776369 -5.711949497257291e-16 5.058633245744479e-16 -3.426336214013682e-16 44.99122748880994" Properties=species:S:1:pos:R:3:forces:R:3:energies:R:1 energy=-49379.12067071332 stress="3.1453321077604507e-07 -1.642564492519256e-16 1.226180937747268e-17 -1.642564492519256e-16 3.1453321156234284e-07 -2.8969831425582396e-18 1.226180937747268e-17 -2.8969831425582396e-18 3.969005341794206e-07" free_energy=-49379.12067071332 pbc="T T T"
Al       0.00000000       0.00000000       0.00000000       0.00000000      -0.00000000       0.10206629      -5.64590157
N       -0.00000000       1.79591029       0.60194979       0.00000000       0.00000000      -0.10206629      -6.54647390
Al      -0.00000000       1.79591029       2.49951264       0.00000000      -0.00000000       0.10206629      -5.64590157
N        0.00000000      -0.00000000       3.10146243      -0.00000000      -0.00000000      -0.10206629      -6.54647390
Al       0.00000000      -0.00000000       4.99902528       0.00000000      -0.00000000       0.10206629      -5.64590157
N       -0.00000000       1.79591029       5.60097507       0.00000000      -0.00000000      -0.10206629      -6.54647390
Al      -0.00000000       1.79591029       7.49853791       0.00000000      -0.00000000       0.10206629      -5.64590157
N        0.00000000      -0.00000000       8.10048771      -0.00000000      -0.00000000      -0.10206629      -6.54647390
Al       0.00000000      -0.00000000       9.99805055       0.00000000      -0.00000000       0.10206629      -5.64590157
N       -0.00000000       1.79591029      10.60000035       0.00000000       0.00000000      -0.10206629      -6.54647390
Al      -0.00000000       1.79591029      12.49756319       0.00000000      -0.00000000       0.10206629      -5.64590157
N        0.00000000      -0.00000000      13.09951298      -0.00000000       0.00000000      -0.10206629      -6.54647390
Al       0.00000000      -0.00000000      14.99707583       0.00000000      -0.00000000       0.10206629      -5.64590157
N        0.00000000       1.79591029      15.59902562       0.00000000      -0.00000000      -0.10206629      -6.54647390
Al       0.00000000       1.79591029      17.49658847       0.00000000      -0.00000000       0.10206629      -5.64590157
N        0.00000000      -0.00000000      18.09853826       0.00000000       0.00000000      -0.10206629      -6.54647390
Al       0.00000000      -0.00000000      19.99610111       0.00000000      -0.00000000       0.10206629      -5.64590157
N        0.00000000       1.79591029      20.59805090       0.00000000       0.00000000      -0.10206629      -6.54647390
Al       0.00000000       1.79591029      22.49561374       0.00000000      -0.00000000       0.10206629      -5.64590157
N        0.00000000      -0.00000000      23.09756354       0.00000000      -0.00000000      -0.10206629      -6.54647390
Al       0.00000000      -0.00000000      24.99512638       0.00000000       0.00000000       0.10206629      -5.64590157
N        0.00000000       1.79591029      25.59707618       0.00000000       0.00000000      -0.10206629      -6.54647390
Al       0.00000000       1.79591029      27.49463902       0.00000000      -0.00000000       0.10206629      -5.64590157
N        0.00000000      -0.00000000      28.09658881       0.00000000       0.00000000      -0.10206629      -6.54647390
Al       0.00000000      -0.00000000      29.99415166       0.00000000      -0.00000000       0.10206629      -5.64590157
N        0.00000000       1.79591029      30.59610145       0.00000000      -0.00000000      -0.10206629      -6.54647390
Al       0.00000000       1.79591029      32.49366430       0.00000000      -0.00000000       0.10206629      -5.64590157
N        0.00000000      -0.00000000      33.09561409       0.00000000      -0.00000000      -0.10206629      -6.54647390
Al       0.00000000      -0.00000000      34.99317694       0.00000000      -0.00000000       0.10206629      -5.64590157
N        0.00000000       1.79591029      35.59512673       0.00000000      -0.00000000      -0.10206629      -6.54647390
Al       0.00000000       1.79591029      37.49268957       0.00000000      -0.00000000       0.10206629      -5.64590157
N        0.00000000      -0.00000000      38.09463937       0.00000000      -0.00000000      -0.10206629      -6.54647390
Al       0.00000000      -0.00000000      39.99220221       0.00000000      -0.00000000       0.10206629      -5.64590157
N        0.00000000       1.79591029      40.59415201       0.00000000      -0.00000000      -0.10206629      -6.54647390
Al       0.00000000       1.79591029      42.49171485       0.00000000      -0.00000000       0.10206629      -5.64590157
N        0.00000000      -0.00000000      43.09366464       0.00000000      -0.00000000      -0.10206629      -6.54647390
Al      -1.55530394       2.69386544      -0.00000000       0.00000000       0.00000000       0.10206629      -5.64590157
N       -1.55530394       4.48977573       0.60194979       0.00000000      -0.00000000      -0.10206629      -6.54647390
Al      -1.55530394       4.48977573       2.49951264       0.00000000      -0.00000000       0.10206629      -5.64590157
N       -1.55530394       2.69386544       3.10146243       0.00000000       0.00000000      -0.10206629      -6.54647390
Al      -1.55530394       2.69386544       4.99902528       0.00000000       0.00000000       0.10206629      -5.64590157
N       -1.55530394       4.48977573       5.60097507       0.00000000      -0.00000000      -0.10206629      -6.54647390
Al      -1.55530394       4.48977573       7.49853791       0.00000000      -0.00000000       0.10206629      -5.64590157
N       -1.55530394       2.69386544       8.10048771       0.00000000       0.00000000      -0.10206629      -6.54647390
Al      -1.55530394       2.69386544       9.99805055       0.00000000       0.00000000       0.10206629      -5.64590157
N       -1.55530394       4.48977573      10.60000035       0.00000000      -0.00000000      -0.10206629      -6.54647390
Al      -1.55530394       4.48977573      12.49756319       0.00000000      -0.00000000       0.10206629      -5.64590157
N       -1.55530394       2.69386544      13.09951298       0.00000000       0.00000000      -0.10206629      -6.54647390
Al      -1.55530394       2.69386544      14.99707583       0.00000000       0.00000000       0.10206629      -5.64590157
N       -1.55530394       4.48977573      15.59902562       0.00000000      -0.00000000      -0.10206629      -6.54647390
Al      -1.55530394       4.48977573      17.49658847       0.00000000       0.00000000       0.10206629      -5.64590157
N       -1.55530394       2.69386544      18.09853826       0.00000000       0.00000000      -0.10206629      -6.54647390
Al      -1.55530394       2.69386544      19.99610111       0.00000000       0.00000000       0.10206629      -5.64590157
N       -1.55530394       4.48977573      20.59805090       0.00000000      -0.00000000      -0.10206629      -6.54647390
Al      -1.55530394       4.48977573      22.49561374       0.00000000      -0.00000000       0.10206629      -5.64590157
N       -1.55530394       2.69386544      23.09756354       0.00000000       0.00000000      -0.10206629      -6.54647390
Al      -1.55530394       2.69386544      24.99512638       0.00000000       0.00000000       0.10206629      -5.64590157
N       -1.55530394       4.48977573      25.59707618       0.00000000       0.00000000      -0.10206629      -6.54647390
Al      -1.55530394       4.48977573      27.49463902       0.00000000      -0.00000000       0.10206629      -5.64590157
N       -1.55530394       2.69386544      28.09658881       0.00000000       0.00000000      -0.10206629      -6.54647390
Al      -1.55530394       2.69386544      29.99415166       0.00000000       0.00000000       0.10206629      -5.64590157
N       -1.55530394       4.48977573      30.59610145       0.00000000       0.00000000      -0.10206629      -6.54647390
Al      -1.55530394       4.48977573      32.49366430       0.00000000       0.00000000       0.10206629      -5.64590157
N       -1.55530394       2.69386544      33.09561409       0.00000000       0.00000000      -0.10206629      -6.54647390
Al      -1.55530394       2.69386544      34.99317694       0.00000000       0.00000000       0.10206629      -5.64590157
N       -1.55530394       4.48977573      35.59512673       0.00000000       0.00000000      -0.10206629      -6.54647390
Al      -1.55530394       4.48977573      37.49268957       0.00000000       0.00000000       0.10206629      -5.64590157
N       -1.55530394       2.69386544      38.09463937       0.00000000       0.00000000      -0.10206629      -6.54647390
Al      -1.55530394       2.69386544      39.99220221       0.00000000       0.00000000       0.10206629      -5.64590157
N       -1.55530394       4.48977573      40.59415201       0.00000000      -0.00000000      -0.10206629      -6.54647390
Al      -1.55530394       4.48977573      42.49171485       0.00000000       0.00000000       0.10206629      -5.64590157
N       -1.55530394       2.69386544      43.09366464       0.00000000       0.00000000      -0.10206629      -6.54647390
Al      -3.11060787       5.38773088      -0.00000000       0.00000000       0.00000000       0.10206629      -5.64590157
N       -3.11060787       7.18364117       0.60194979       0.00000000       0.00000000      -0.10206629      -6.54647390
Al      -3.11060787       7.18364117       2.49951264       0.00000000       0.00000000       0.10206629      -5.64590157
N       -3.11060787       5.38773088       3.10146243       0.00000000       0.00000000      -0.10206629      -6.54647390
Al      -3.11060787       5.38773088       4.99902528       0.00000000       0.00000000       0.10206629      -5.64590157
N       -3.11060787       7.18364117       5.60097507       0.00000000      -0.00000000      -0.10206629      -6.54647390
Al      -3.11060787       7.18364117       7.49853791       0.00000000       0.00000000       0.10206629      -5.64590157
N       -3.11060787       5.38773088       8.10048771       0.00000000       0.00000000      -0.10206629      -6.54647390
Al      -3.11060787       5.38773088       9.99805055       0.00000000       0.00000000       0.10206629      -5.64590157
N       -3.11060787       7.18364117      10.60000035       0.00000000      -0.00000000      -0.10206629      -6.54647390
Al      -3.11060787       7.18364117      12.49756319       0.00000000       0.00000000       0.10206629      -5.64590157
N       -3.11060787       5.38773088      13.09951298       0.00000000       0.00000000      -0.10206629      -6.54647390
Al      -3.11060787       5.38773088      14.99707583       0.00000000       0.00000000       0.10206629      -5.64590157
N       -3.11060787       7.18364117      15.59902562       0.00000000       0.00000000      -0.10206629      -6.54647390
Al      -3.11060787       7.18364117      17.49658847       0.00000000       0.00000000       0.10206629      -5.64590157
N       -3.11060787       5.38773088      18.09853826       0.00000000       0.00000000      -0.10206629      -6.54647390
Al      -3.11060787       5.38773088      19.99610111       0.00000000       0.00000000       0.10206629      -5.64590157
N       -3.11060787       7.18364117      20.59805090       0.00000000       0.00000000      -0.10206629      -6.54647390
Al      -3.11060787       7.18364117      22.49561374      -0.00000000      -0.00000000       0.10206629      -5.64590157
N       -3.11060787       5.38773088      23.09756354       0.00000000       0.00000000      -0.10206629      -6.54647390
Al      -3.11060787       5.38773088      24.99512638       0.00000000      -0.00000000       0.10206629      -5.64590157
N       -3.11060787       7.18364117      25.59707618      -0.00000000      -0.00000000      -0.10206629      -6.54647390
Al      -3.11060787       7.18364117      27.49463902      -0.00000000       0.00000000       0.10206629      -5.64590157
N       -3.11060787       5.38773088      28.09658881       0.00000000       0.00000000      -0.10206629      -6.54647390
Al      -3.11060787       5.38773088      29.99415166       0.00000000       0.00000000       0.10206629      -5.64590157
N       -3.11060787       7.18364117      30.59610145       0.00000000       0.00000000      -0.10206629      -6.54647390
Al      -3.11060787       7.18364117      32.49366430       0.00000000       0.00000000       0.10206629      -5.64590157
N       -3.11060787       5.38773088      33.09561409       0.00000000       0.00000000      -0.10206629      -6.54647390
Al      -3.11060787       5.38773088      34.99317694       0.00000000       0.00000000       0.10206629      -5.64590157
N       -3.11060787       7.18364117      35.59512673      -0.00000000       0.00000000      -0.10206629      -6.54647390
Al      -3.11060787       7.18364117      37.49268957       0.00000000       0.00000000       0.10206629      -5.64590157
N       -3.11060787       5.38773088      38.09463937       0.00000000       0.00000000      -0.10206629      -6.54647390
Al      -3.11060787       5.38773088      39.99220221       0.00000000       0.00000000       0.10206629      -5.64590157
N       -3.11060787       7.18364117      40.59415201       0.00000000       0.00000000      -0.10206629      -6.54647390
Al      -3.11060787       7.18364117      42.49171485       0.00000000       0.00000000       0.10206629      -5.64590157
N       -3.11060787       5.38773088      43.09366464       0.00000000       0.00000000      -0.10206629      -6.54647390
Al      -4.66591181       8.08159631      -0.00000000       0.00000000       0.00000000       0.10206629      -5.64590157
N       -4.66591181       9.87750661       0.60194979       0.00000000       0.00000000      -0.10206629      -6.54647390
Al      -4.66591181       9.87750661       2.49951264       0.00000000       0.00000000       0.10206629      -5.64590157
N       -4.66591181       8.08159631       3.10146243       0.00000000       0.00000000      -0.10206629      -6.54647390
Al      -4.66591181       8.08159631       4.99902528       0.00000000       0.00000000       0.10206629      -5.64590157
N       -4.66591181       9.87750661       5.60097507       0.00000000       0.00000000      -0.10206629      -6.54647390
Al      -4.66591181       9.87750661       7.49853791       0.00000000       0.00000000       0.10206629      -5.64590157
N       -4.66591181       8.08159631       8.10048771       0.00000000       0.00000000      -0.10206629      -6.54647390
Al      -4.66591181       8.08159631       9.99805055       0.00000000       0.00000000       0.10206629      -5.64590157
N       -4.66591181       9.87750661      10.60000035       0.00000000       0.00000000      -0.10206629      -6.54647390
Al      -4.66591181       9.87750661      12.49756319       0.00000000       0.00000000       0.10206629      -5.64590157
N       -4.66591181       8.08159631      13.09951298       0.00000000       0.00000000      -0.10206629      -6.54647390
Al      -4.66591181       8.08159631      14.99707583       0.00000000       0.00000000       0.10206629      -5.64590157
N       -4.66591181       9.87750661      15.59902562       0.00000000       0.00000000      -0.10206629      -6.54647390
Al      -4.66591181       9.87750661      17.49658847       0.00000000       0.00000000       0.10206629      -5.64590157
N       -4.66591181       8.08159631      18.09853826       0.00000000       0.00000000      -0.10206629      -6.54647390
Al      -4.66591181       8.08159631      19.99610111       0.00000000       0.00000000       0.10206629      -5.64590157
N       -4.66591181       9.87750661      20.59805090       0.00000000       0.00000000      -0.10206629      -6.54647390
Al      -4.66591181       9.87750661      22.49561374       0.00000000       0.00000000       0.10206629      -5.64590157
N       -4.66591181       8.08159631      23.09756354       0.00000000       0.00000000      -0.10206629      -6.54647390
Al      -4.66591181       8.08159631      24.99512638       0.00000000       0.00000000       0.10206629      -5.64590157
N       -4.66591181       9.87750661      25.59707618       0.00000000       0.00000000      -0.10206629      -6.54647390
Al      -4.66591181       9.87750661      27.49463902       0.00000000       0.00000000       0.10206629      -5.64590157
N       -4.66591181       8.08159631      28.09658881       0.00000000       0.00000000      -0.10206629      -6.54647390
Al      -4.66591181       8.08159631      29.99415166       0.00000000       0.00000000       0.10206629      -5.64590157
N       -4.66591181       9.87750661      30.59610145       0.00000000       0.00000000      -0.10206629      -6.54647390
Al      -4.66591181       9.87750661      32.49366430       0.00000000       0.00000000       0.10206629      -5.64590157
N       -4.66591181       8.08159631      33.09561409       0.00000000       0.00000000      -0.10206629      -6.54647390
Al      -4.66591181       8.08159631      34.99317694       0.00000000       0.00000000       0.10206629      -5.64590157
N       -4.66591181       9.87750661      35.59512673       0.00000000      -0.00000000      -0.10206629      -6.54647390
Al      -4.66591181       9.87750661      37.49268957       0.00000000       0.00000000       0.10206629      -5.64590157
N       -4.66591181       8.08159631      38.09463937       0.00000000       0.00000000      -0.10206629      -6.54647390
Al      -4.66591181       8.08159631      39.99220221       0.00000000       0.00000000       0.10206629      -5.64590157
N       -4.66591181       9.87750661      40.59415201       0.00000000       0.00000000      -0.10206629      -6.54647390
Al      -4.66591181       9.87750661      42.49171485       0.00000000       0.00000000       0.10206629      -5.64590157
N       -4.66591181       8.08159631      43.09366464       0.00000000       0.00000000      -0.10206629      -6.54647390
Al      -6.22121574      10.77546175      -0.00000000       0.00000000       0.00000000       0.10206629      -5.64590157
N       -6.22121574      12.57137204       0.60194979       0.00000000      -0.00000000      -0.10206629      -6.54647390
Al      -6.22121574      12.57137204       2.49951264      -0.00000000      -0.00000000       0.10206629      -5.64590157
N       -6.22121574      10.77546175       3.10146243       0.00000000       0.00000000      -0.10206629      -6.54647390
Al      -6.22121574      10.77546175       4.99902528       0.00000000       0.00000000       0.10206629      -5.64590157
N       -6.22121574      12.57137204       5.60097507       0.00000000      -0.00000000      -0.10206629      -6.54647390
Al      -6.22121574      12.57137204       7.49853791       0.00000000      -0.00000000       0.10206629      -5.64590157
N       -6.22121574      10.77546175       8.10048771       0.00000000       0.00000000      -0.10206629      -6.54647390
Al      -6.22121574      10.77546175       9.99805055       0.00000000       0.00000000       0.10206629      -5.64590157
N       -6.22121574      12.57137204      10.60000035       0.00000000      -0.00000000      -0.10206629      -6.54647390
Al      -6.22121574      12.57137204      12.49756319       0.00000000      -0.00000000       0.10206629      -5.64590157
N       -6.22121574      10.77546175      13.09951298       0.00000000       0.00000000      -0.10206629      -6.54647390
Al      -6.22121574      10.77546175      14.99707583       0.00000000       0.00000000       0.10206629      -5.64590157
N       -6.22121574      12.57137204      15.59902562       0.00000000      -0.00000000      -0.10206629      -6.54647390
Al      -6.22121574      12.57137204      17.49658847       0.00000000       0.00000000       0.10206629      -5.64590157
N       -6.22121574      10.77546175      18.09853826       0.00000000       0.00000000      -0.10206629      -6.54647390
Al      -6.22121574      10.77546175      19.99610111       0.00000000       0.00000000       0.10206629      -5.64590157
N       -6.22121574      12.57137204      20.59805090       0.00000000      -0.00000000      -0.10206629      -6.54647390
Al      -6.22121574      12.57137204      22.49561374       0.00000000      -0.00000000       0.10206629      -5.64590157
N       -6.22121574      10.77546175      23.09756354       0.00000000       0.00000000      -0.10206629      -6.54647390
Al      -6.22121574      10.77546175      24.99512638       0.00000000       0.00000000       0.10206629      -5.64590157
N       -6.22121574      12.57137204      25.59707618       0.00000000      -0.00000000      -0.10206629      -6.54647390
Al      -6.22121574      12.57137204      27.49463902       0.00000000      -0.00000000       0.10206629      -5.64590157
N       -6.22121574      10.77546175      28.09658881       0.00000000       0.00000000      -0.10206629      -6.54647390
Al      -6.22121574      10.77546175      29.99415166       0.00000000       0.00000000       0.10206629      -5.64590157
N       -6.22121574      12.57137204      30.59610145       0.00000000      -0.00000000      -0.10206629      -6.54647390
Al      -6.22121574      12.57137204      32.49366430       0.00000000      -0.00000000       0.10206629      -5.64590157
N       -6.22121574      10.77546175      33.09561409       0.00000000       0.00000000      -0.10206629      -6.54647390
Al      -6.22121574      10.77546175      34.99317694       0.00000000       0.00000000       0.10206629      -5.64590157
N       -6.22121574      12.57137204      35.59512673       0.00000000      -0.00000000      -0.10206629      -6.54647390
Al      -6.22121574      12.57137204      37.49268957       0.00000000       0.00000000       0.10206629      -5.64590157
N       -6.22121574      10.77546175      38.09463937       0.00000000       0.00000000      -0.10206629      -6.54647390
Al      -6.22121574      10.77546175      39.99220221       0.00000000       0.00000000       0.10206629      -5.64590157
N       -6.22121574      12.57137204      40.59415201       0.00000000      -0.00000000      -0.10206629      -6.54647390
Al      -6.22121574      12.57137204      42.49171485       0.00000000       0.00000000       0.10206629      -5.64590157
N       -6.22121574      10.77546175      43.09366464       0.00000000       0.00000000      -0.10206629      -6.54647390
Al      -7.77651968      13.46932719      -0.00000000       0.00000000       0.00000000       0.10206629      -5.64590157
N       -7.77651968      15.26523748       0.60194979       0.00000000       0.00000000      -0.10206629      -6.54647390
Al      -7.77651968      15.26523748       2.49951264       0.00000000      -0.00000000       0.10206629      -5.64590157
N       -7.77651968      13.46932719       3.10146243       0.00000000       0.00000000      -0.10206629      -6.54647390
Al      -7.77651968      13.46932719       4.99902528       0.00000000       0.00000000       0.10206629      -5.64590157
N       -7.77651968      15.26523748       5.60097507       0.00000000       0.00000000      -0.10206629      -6.54647390
Al      -7.77651968      15.26523748       7.49853791       0.00000000       0.00000000       0.10206629      -5.64590157
N       -7.77651968      13.46932719       8.10048771       0.00000000       0.00000000      -0.10206629      -6.54647390
Al      -7.77651968      13.46932719       9.99805055       0.00000000       0.00000000       0.10206629      -5.64590157
N       -7.77651968      15.26523748      10.60000035       0.00000000       0.00000000      -0.10206629      -6.54647390
Al      -7.77651968      15.26523748      12.49756319      -0.00000000       0.00000000       0.10206629      -5.64590157
N       -7.77651968      13.46932719      13.09951298       0.00000000      -0.00000000      -0.10206629      -6.54647390
Al      -7.77651968      13.46932719      14.99707583       0.00000000       0.00000000       0.10206629      -5.64590157
N       -7.77651968      15.26523748      15.59902562      -0.00000000      -0.00000000      -0.10206629      -6.54647390
Al      -7.77651968      15.26523748      17.49658847       0.00000000       0.00000000       0.10206629      -5.64590157
N       -7.77651968      13.46932719      18.09853826       0.00000000      -0.00000000      -0.10206629      -6.54647390
Al      -7.77651968      13.46932719      19.99610111       0.00000000       0.00000000       0.10206629      -5.64590157
N       -7.77651968      15.26523748      20.59805090      -0.00000000       0.00000000      -0.10206629      -6.54647390
Al      -7.77651968      15.26523748      22.49561374       0.00000000       0.00000000       0.10206629      -5.64590157
N       -7.77651968      13.46932719      23.09756354       0.00000000       0.00000000      -0.10206629      -6.54647390
Al      -7.77651968      13.46932719      24.99512638       0.00000000      -0.00000000       0.10206629      -5.64590157
N       -7.77651968      15.26523748      25.59707618       0.00000000       0.00000000      -0.10206629      -6.54647390
Al      -7.77651968      15.26523748      27.49463902      -0.00000000       0.00000000       0.10206629      -5.64590157
N       -7.77651968      13.46932719      28.09658881       0.00000000       0.00000000      -0.10206629      -6.54647390
Al      -7.77651968      13.46932719      29.99415166       0.00000000       0.00000000       0.10206629      -5.64590157
N       -7.77651968      15.26523748      30.59610145      -0.00000000       0.00000000      -0.10206629      -6.54647390
Al      -7.77651968      15.26523748      32.49366430      -0.00000000       0.00000000       0.10206629      -5.64590157
N       -7.77651968      13.46932719      33.09561409       0.00000000       0.00000000      -0.10206629      -6.54647390
Al      -7.77651968      13.46932719      34.99317694       0.00000000       0.00000000       0.10206629      -5.64590157
N       -7.77651968      15.26523748      35.59512673      -0.00000000       0.00000000      -0.10206629      -6.54647390
Al      -7.77651968      15.26523748      37.49268957       0.00000000       0.00000000       0.10206629      -5.64590157
N       -7.77651968      13.46932719      38.09463937       0.00000000      -0.00000000      -0.10206629      -6.54647390
Al      -7.77651968      13.46932719      39.99220221       0.00000000       0.00000000       0.10206629      -5.64590157
N       -7.77651968      15.26523748      40.59415201       0.00000000       0.00000000      -0.10206629      -6.54647390
Al      -7.77651968      15.26523748      42.49171485       0.00000000       0.00000000       0.10206629      -5.64590157
N       -7.77651968      13.46932719      43.09366464       0.00000000      -0.00000000      -0.10206629      -6.54647390
Al      -9.33182361      16.16319263      -0.00000000       0.00000000       0.00000000       0.10206629      -5.64590157
N       -9.33182361      17.95910292       0.60194979       0.00000000      -0.00000000      -0.10206629      -6.54647390
Al      -9.33182361      17.95910292       2.49951264      -0.00000000      -0.00000000       0.10206629      -5.64590157
N       -9.33182361      16.16319263       3.10146243       0.00000000       0.00000000      -0.10206629      -6.54647390
Al      -9.33182361      16.16319263       4.99902528       0.00000000       0.00000000       0.10206629      -5.64590157
N       -9.33182361      17.95910292       5.60097507       0.00000000      -0.00000000      -0.10206629      -6.54647390
Al      -9.33182361      17.95910292       7.49853791       0.00000000      -0.00000000       0.10206629      -5.64590157
N       -9.33182361      16.16319263       8.10048771       0.00000000       0.00000000      -0.10206629      -6.54647390
Al      -9.33182361      16.16319263       9.99805055       0.00000000       0.00000000       0.10206629      -5.64590157
N       -9.33182361      17.95910292      10.60000035       0.00000000      -0.00000000      -0.10206629      -6.54647390
Al      -9.33182361      17.95910292      12.49756319       0.00000000      -0.00000000       0.10206629      -5.64590157
N       -9.33182361      16.16319263      13.09951298       0.00000000       0.00000000      -0.10206629      -6.54647390
Al      -9.33182361      16.16319263      14.99707583       0.00000000       0.00000000       0.10206629      -5.64590157
N       -9.33182361      17.95910292      15.59902562      -0.00000000      -0.00000000      -0.10206629      -6.54647390
Al      -9.33182361      17.95910292      17.49658847       0.00000000      -0.00000000       0.10206629      -5.64590157
N       -9.33182361      16.16319263      18.09853826       0.00000000       0.00000000      -0.10206629      -6.54647390
Al      -9.33182361      16.16319263      19.99610111       0.00000000       0.00000000       0.10206629      -5.64590157
N       -9.33182361      17.95910292      20.59805090      -0.00000000      -0.00000000      -0.10206629      -6.54647390
Al      -9.33182361      17.95910292      22.49561374      -0.00000000       0.00000000       0.10206629      -5.64590157
N       -9.33182361      16.16319263      23.09756354       0.00000000       0.00000000      -0.10206629      -6.54647390
Al      -9.33182361      16.16319263      24.99512638       0.00000000       0.00000000       0.10206629      -5.64590157
N       -9.33182361      17.95910292      25.59707618       0.00000000      -0.00000000      -0.10206629      -6.54647390
Al      -9.33182361      17.95910292      27.49463902       0.00000000      -0.00000000       0.10206629      -5.64590157
N       -9.33182361      16.16319263      28.09658881       0.00000000       0.00000000      -0.10206629      -6.54647390
Al      -9.33182361      16.16319263      29.99415166       0.00000000       0.00000000       0.10206629      -5.64590157
N       -9.33182361      17.95910292      30.59610145       0.00000000      -0.00000000      -0.10206629      -6.54647390
Al      -9.33182361      17.95910292      32.49366430       0.00000000      -0.00000000       0.10206629      -5.64590157
N       -9.33182361      16.16319263      33.09561409       0.00000000       0.00000000      -0.10206629      -6.54647390
Al      -9.33182361      16.16319263      34.99317694       0.00000000       0.00000000       0.10206629      -5.64590157
N       -9.33182361      17.95910292      35.59512673      -0.00000000      -0.00000000      -0.10206629      -6.54647390
Al      -9.33182361      17.95910292      37.49268957       0.00000000      -0.00000000       0.10206629      -5.64590157
N       -9.33182361      16.16319263      38.09463937       0.00000000       0.00000000      -0.10206629      -6.54647390
Al      -9.33182361      16.16319263      39.99220221       0.00000000       0.00000000       0.10206629      -5.64590157
N       -9.33182361      17.95910292      40.59415201       0.00000000      -0.00000000      -0.10206629      -6.54647390
Al      -9.33182361      17.95910292      42.49171485       0.00000000       0.00000000       0.10206629      -5.64590157
N       -9.33182361      16.16319263      43.09366464       0.00000000       0.00000000      -0.10206629      -6.54647390
Al     -10.88712755      18.85705806      -0.00000000       0.00000000      -0.00000000       0.10206629      -5.64590157
N      -10.88712755      20.65296836       0.60194979       0.00000000       0.00000000      -0.10206629      -6.54647390
Al     -10.88712755      20.65296836       2.49951264       0.00000000       0.00000000       0.10206629      -5.64590157
N      -10.88712755      18.85705806       3.10146243       0.00000000      -0.00000000      -0.10206629      -6.54647390
Al     -10.88712755      18.85705806       4.99902528       0.00000000      -0.00000000       0.10206629      -5.64590157
N      -10.88712755      20.65296836       5.60097507       0.00000000       0.00000000      -0.10206629      -6.54647390
Al     -10.88712755      20.65296836       7.49853791       0.00000000       0.00000000       0.10206629      -5.64590157
N      -10.88712755      18.85705806       8.10048771       0.00000000      -0.00000000      -0.10206629      -6.54647390
Al     -10.88712755      18.85705806       9.99805055       0.00000000      -0.00000000       0.10206629      -5.64590157
N      -10.88712755      20.65296836      10.60000035      -0.00000000       0.00000000      -0.10206629      -6.54647390
Al     -10.88712755      20.65296836      12.49756319       0.00000000       0.00000000       0.10206629      -5.64590157
N      -10.88712755      18.85705806      13.09951298       0.00000000      -0.00000000      -0.10206629      -6.54647390
Al     -10.88712755      18.85705806      14.99707583       0.00000000      -0.00000000       0.10206629      -5.64590157
N      -10.88712755      20.65296836      15.59902562       0.00000000       0.00000000      -0.10206629      -6.54647390
Al     -10.88712755      20.65296836      17.49658847       0.00000000       0.00000000       0.10206629      -5.64590157
N      -10.88712755      18.85705806      18.09853826       0.00000000      -0.00000000      -0.10206629      -6.54647390
Al     -10.88712755      18.85705806      19.99610111       0.00000000      -0.00000000       0.10206629      -5.64590157
N      -10.88712755      20.65296836      20.59805090       0.00000000       0.00000000      -0.10206629      -6.54647390
Al     -10.88712755      20.65296836      22.49561374       0.00000000       0.00000000       0.10206629      -5.64590157
N      -10.88712755      18.85705806      23.09756354       0.00000000      -0.00000000      -0.10206629      -6.54647390
Al     -10.88712755      18.85705806      24.99512638       0.00000000      -0.00000000       0.10206629      -5.64590157
N      -10.88712755      20.65296836      25.59707618       0.00000000       0.00000000      -0.10206629      -6.54647390
Al     -10.88712755      20.65296836      27.49463902       0.00000000       0.00000000       0.10206629      -5.64590157
N      -10.88712755      18.85705806      28.09658881       0.00000000      -0.00000000      -0.10206629      -6.54647390
Al     -10.88712755      18.85705806      29.99415166       0.00000000      -0.00000000       0.10206629      -5.64590157
N      -10.88712755      20.65296836      30.59610145       0.00000000       0.00000000      -0.10206629      -6.54647390
Al     -10.88712755      20.65296836      32.49366430       0.00000000       0.00000000       0.10206629      -5.64590157
N      -10.88712755      18.85705806      33.09561409       0.00000000      -0.00000000      -0.10206629      -6.54647390
Al     -10.88712755      18.85705806      34.99317694       0.00000000      -0.00000000       0.10206629      -5.64590157
N      -10.88712755      20.65296836      35.59512673       0.00000000       0.00000000      -0.10206629      -6.54647390
Al     -10.88712755      20.65296836      37.49268957       0.00000000       0.00000000       0.10206629      -5.64590157
N      -10.88712755      18.85705806      38.09463937       0.00000000      -0.00000000      -0.10206629      -6.54647390
Al     -10.88712755      18.85705806      39.99220221       0.00000000      -0.00000000       0.10206629      -5.64590157
N      -10.88712755      20.65296836      40.59415201       0.00000000       0.00000000      -0.10206629      -6.54647390
Al     -10.88712755      20.65296836      42.49171485       0.00000000       0.00000000       0.10206629      -5.64590157
N      -10.88712755      18.85705806      43.09366464       0.00000000      -0.00000000      -0.10206629      -6.54647390
Al     -12.44243149      21.55092350      -0.00000000       0.00000000       0.00000000       0.10206629      -5.64590157
N      -12.44243149      23.34683379       0.60194979       0.00000000       0.00000000      -0.10206629      -6.54647390
Al     -12.44243149      23.34683379       2.49951264       0.00000000       0.00000000       0.10206629      -5.64590157
N      -12.44243149      21.55092350       3.10146243       0.00000000       0.00000000      -0.10206629      -6.54647390
Al     -12.44243149      21.55092350       4.99902528       0.00000000       0.00000000       0.10206629      -5.64590157
N      -12.44243149      23.34683379       5.60097507       0.00000000       0.00000000      -0.10206629      -6.54647390
Al     -12.44243149      23.34683379       7.49853791       0.00000000       0.00000000       0.10206629      -5.64590157
N      -12.44243149      21.55092350       8.10048771       0.00000000       0.00000000      -0.10206629      -6.54647390
Al     -12.44243149      21.55092350       9.99805055       0.00000000       0.00000000       0.10206629      -5.64590157
N      -12.44243149      23.34683379      10.60000035       0.00000000       0.00000000      -0.10206629      -6.54647390
Al     -12.44243149      23.34683379      12.49756319       0.00000000       0.00000000       0.10206629      -5.64590157
N      -12.44243149      21.55092350      13.09951298       0.00000000       0.00000000      -0.10206629      -6.54647390
Al     -12.44243149      21.55092350      14.99707583       0.00000000       0.00000000       0.10206629      -5.64590157
N      -12.44243149      23.34683379      15.59902562       0.00000000       0.00000000      -0.10206629      -6.54647390
Al     -12.44243149      23.34683379      17.49658847       0.00000000       0.00000000       0.10206629      -5.64590157
N      -12.44243149      21.55092350      18.09853826       0.00000000       0.00000000      -0.10206629      -6.54647390
Al     -12.44243149      21.55092350      19.99610111       0.00000000       0.00000000       0.10206629      -5.64590157
N      -12.44243149      23.34683379      20.59805090       0.00000000       0.00000000      -0.10206629      -6.54647390
Al     -12.44243149      23.34683379      22.49561374      -0.00000000       0.00000000       0.10206629      -5.64590157
N      -12.44243149      21.55092350      23.09756354       0.00000000       0.00000000      -0.10206629      -6.54647390
Al     -12.44243149      21.55092350      24.99512638       0.00000000       0.00000000       0.10206629      -5.64590157
N      -12.44243149      23.34683379      25.59707618       0.00000000       0.00000000      -0.10206629      -6.54647390
Al     -12.44243149      23.34683379      27.49463902       0.00000000       0.00000000       0.10206629      -5.64590157
N      -12.44243149      21.55092350      28.09658881       0.00000000       0.00000000      -0.10206629      -6.54647390
Al     -12.44243149      21.55092350      29.99415166       0.00000000       0.00000000       0.10206629      -5.64590157
N      -12.44243149      23.34683379      30.59610145      -0.00000000       0.00000000      -0.10206629      -6.54647390
Al     -12.44243149      23.34683379      32.49366430       0.00000000       0.00000000       0.10206629      -5.64590157
N      -12.44243149      21.55092350      33.09561409       0.00000000       0.00000000      -0.10206629      -6.54647390
Al     -12.44243149      21.55092350      34.99317694       0.00000000       0.00000000       0.10206629      -5.64590157
N      -12.44243149      23.34683379      35.59512673      -0.00000000       0.00000000      -0.10206629      -6.54647390
Al     -12.44243149      23.34683379      37.49268957      -0.00000000       0.00000000       0.10206629      -5.64590157
N      -12.44243149      21.55092350      38.09463937       0.00000000       0.00000000      -0.10206629      -6.54647390
Al     -12.44243149      21.55092350      39.99220221       0.00000000       0.00000000       0.10206629      -5.64590157
N      -12.44243149      23.34683379      40.59415201       0.00000000       0.00000000      -0.10206629      -6.54647390
Al     -12.44243149      23.34683379      42.49171485      -0.00000000       0.00000000       0.10206629      -5.64590157
N      -12.44243149      21.55092350      43.09366464       0.00000000       0.00000000      -0.10206629      -6.54647390
Al     -13.99773542      24.24478894      -0.00000000       0.00000000      -0.00000000       0.10206629      -5.64590157
N      -13.99773542      26.04069923       0.60194979       0.00000000       0.00000000      -0.10206629      -6.54647390
Al     -13.99773542      26.04069923       2.49951264      -0.00000000      -0.00000000       0.10206629      -5.64590157
N      -13.99773542      24.24478894       3.10146243       0.00000000       0.00000000      -0.10206629      -6.54647390
Al     -13.99773542      24.24478894       4.99902528       0.00000000      -0.00000000       0.10206629      -5.64590157
N      -13.99773542      26.04069923       5.60097507       0.00000000       0.00000000      -0.10206629      -6.54647390
Al     -13.99773542      26.04069923       7.49853791      -0.00000000      -0.00000000       0.10206629      -5.64590157
N      -13.99773542      24.24478894       8.10048771       0.00000000       0.00000000      -0.10206629      -6.54647390
Al     -13.99773542      24.24478894       9.99805055       0.00000000      -0.00000000       0.10206629      -5.64590157
N      -13.99773542      26.04069923      10.60000035       0.00000000       0.00000000      -0.10206629      -6.54647390
Al     -13.99773542      26.04069923      12.49756319      -0.00000000      -0.00000000       0.10206629      -5.64590157
N      -13.99773542      24.24478894      13.09951298       0.00000000       0.00000000      -0.10206629      -6.54647390
Al     -13.99773542      24.24478894      14.99707583       0.00000000      -0.00000000       0.10206629      -5.64590157
N      -13.99773542      26.04069923      15.59902562       0.00000000       0.00000000      -0.10206629      -6.54647390
Al     -13.99773542      26.04069923      17.49658847      -0.00000000      -0.00000000       0.10206629      -5.64590157
N      -13.99773542      24.24478894      18.09853826       0.00000000       0.00000000      -0.10206629      -6.54647390
Al     -13.99773542      24.24478894      19.99610111       0.00000000      -0.00000000       0.10206629      -5.64590157
N      -13.99773542      26.04069923      20.59805090       0.00000000       0.00000000      -0.10206629      -6.54647390
Al     -13.99773542      26.04069923      22.49561374      -0.00000000      -0.00000000       0.10206629      -5.64590157
N      -13.99773542      24.24478894      23.09756354       0.00000000       0.00000000      -0.10206629      -6.54647390
Al     -13.99773542      24.24478894      24.99512638       0.00000000      -0.00000000       0.10206629      -5.64590157
N      -13.99773542      26.04069923      25.59707618       0.00000000      -0.00000000      -0.10206629      -6.54647390
Al     -13.99773542      26.04069923      27.49463902      -0.00000000      -0.00000000       0.10206629      -5.64590157
N      -13.99773542      24.24478894      28.09658881       0.00000000       0.00000000      -0.10206629      -6.54647390
Al     -13.99773542      24.24478894      29.99415166       0.00000000      -0.00000000       0.10206629      -5.64590157
N      -13.99773542      26.04069923      30.59610145      -0.00000000      -0.00000000      -0.10206629      -6.54647390
Al     -13.99773542      26.04069923      32.49366430       0.00000000      -0.00000000       0.10206629      -5.64590157
N      -13.99773542      24.24478894      33.09561409       0.00000000      -0.00000000      -0.10206629      -6.54647390
Al     -13.99773542      24.24478894      34.99317694       0.00000000      -0.00000000       0.10206629      -5.64590157
N      -13.99773542      26.04069923      35.59512673       0.00000000      -0.00000000      -0.10206629      -6.54647390
Al     -13.99773542      26.04069923      37.49268957       0.00000000      -0.00000000       0.10206629      -5.64590157
N      -13.99773542      24.24478894      38.09463937       0.00000000       0.00000000      -0.10206629      -6.54647390
Al     -13.99773542      24.24478894      39.99220221       0.00000000      -0.00000000       0.10206629      -5.64590157
N      -13.99773542      26.04069923      40.59415201       0.00000000       0.00000000      -0.10206629      -6.54647390
Al     -13.99773542      26.04069923      42.49171485      -0.00000000      -0.00000000       0.10206629      -5.64590157
N      -13.99773542      24.24478894      43.09366464       0.00000000       0.00000000      -0.10206629      -6.54647390
Al     -15.55303936      26.93865438      -0.00000000       0.00000000       0.00000000       0.10206629      -5.64590157
N      -15.55303936      28.73456467       0.60194979       0.00000000      -0.00000000      -0.10206629      -6.54647390
Al     -15.55303936      28.73456467       2.49951264      -0.00000000      -0.00000000       0.10206629      -5.64590157
N      -15.55303936      26.93865438       3.10146243       0.00000000       0.00000000      -0.10206629      -6.54647390
Al     -15.55303936      26.93865438       4.99902528       0.00000000       0.00000000       0.10206629      -5.64590157
N      -15.55303936      28.73456467       5.60097507      -0.00000000      -0.00000000      -0.10206629      -6.54647390
Al     -15.55303936      28.73456467       7.49853791      -0.00000000      -0.00000000       0.10206629      -5.64590157
N      -15.55303936      26.93865438       8.10048771       0.00000000       0.00000000      -0.10206629      -6.54647390
Al     -15.55303936      26.93865438       9.99805055       0.00000000       0.00000000       0.10206629      -5.64590157
N      -15.55303936      28.73456467      10.60000035      -0.00000000      -0.00000000      -0.10206629      -6.54647390
Al     -15.55303936      28.73456467      12.49756319      -0.00000000      -0.00000000       0.10206629      -5.64590157
N      -15.55303936      26.93865438      13.09951298       0.00000000       0.00000000      -0.10206629      -6.54647390
Al     -15.55303936      26.93865438      14.99707583       0.00000000       0.00000000       0.10206629      -5.64590157
N      -15.55303936      28.73456467      15.59902562       0.00000000      -0.00000000      -0.10206629      -6.54647390
Al     -15.55303936      28.73456467      17.49658847      -0.00000000      -0.00000000       0.10206629      -5.64590157
N      -15.55303936      26.93865438      18.09853826       0.00000000       0.00000000      -0.10206629      -6.54647390
Al     -15.55303936      26.93865438      19.99610111       0.00000000       0.00000000       0.10206629      -5.64590157
N      -15.55303936      28.73456467      20.59805090       0.00000000      -0.00000000      -0.10206629      -6.54647390
Al     -15.55303936      28.73456467      22.49561374      -0.00000000      -0.00000000       0.10206629      -5.64590157
N      -15.55303936      26.93865438      23.09756354       0.00000000       0.00000000      -0.10206629      -6.54647390
Al     -15.55303936      26.93865438      24.99512638       0.00000000       0.00000000       0.10206629      -5.64590157
N      -15.55303936      28.73456467      25.59707618       0.00000000      -0.00000000      -0.10206629      -6.54647390
Al     -15.55303936      28.73456467      27.49463902      -0.00000000      -0.00000000       0.10206629      -5.64590157
N      -15.55303936      26.93865438      28.09658881       0.00000000       0.00000000      -0.10206629      -6.54647390
Al     -15.55303936      26.93865438      29.99415166       0.00000000       0.00000000       0.10206629      -5.64590157
N      -15.55303936      28.73456467      30.59610145      -0.00000000      -0.00000000      -0.10206629      -6.54647390
Al     -15.55303936      28.73456467      32.49366430      -0.00000000      -0.00000000       0.10206629      -5.64590157
N      -15.55303936      26.93865438      33.09561409       0.00000000       0.00000000      -0.10206629      -6.54647390
Al     -15.55303936      26.93865438      34.99317694       0.00000000       0.00000000       0.10206629      -5.64590157
N      -15.55303936      28.73456467      35.59512673      -0.00000000      -0.00000000      -0.10206629      -6.54647390
Al     -15.55303936      28.73456467      37.49268957      -0.00000000      -0.00000000       0.10206629      -5.64590157
N      -15.55303936      26.93865438      38.09463937       0.00000000       0.00000000      -0.10206629      -6.54647390
Al     -15.55303936      26.93865438      39.99220221       0.00000000       0.00000000       0.10206629      -5.64590157
N      -15.55303936      28.73456467      40.59415201      -0.00000000      -0.00000000      -0.10206629      -6.54647390
Al     -15.55303936      28.73456467      42.49171485      -0.00000000      -0.00000000       0.10206629      -5.64590157
N      -15.55303936      26.93865438      43.09366464       0.00000000       0.00000000      -0.10206629      -6.54647390
Al     -17.10834329      29.63251982      -0.00000000       0.00000000       0.00000000       0.10206629      -5.64590157
N      -17.10834329      31.42843011       0.60194979      -0.00000000      -0.00000000      -0.10206629      -6.54647390
Al     -17.10834329      31.42843011       2.49951264      -0.00000000      -0.00000000       0.10206629      -5.64590157
N      -17.10834329      29.63251982       3.10146243       0.00000000       0.00000000      -0.10206629      -6.54647390
Al     -17.10834329      29.63251982       4.99902528       0.00000000       0.00000000       0.10206629      -5.64590157
N      -17.10834329      31.42843011       5.60097507      -0.00000000      -0.00000000      -0.10206629      -6.54647390
Al     -17.10834329      31.42843011       7.49853791      -0.00000000      -0.00000000       0.10206629      -5.64590157
N      -17.10834329      29.63251982       8.10048771       0.00000000       0.00000000      -0.10206629      -6.54647390
Al     -17.10834329      29.63251982       9.99805055       0.00000000       0.00000000       0.10206629      -5.64590157
N      -17.10834329      31.42843011      10.60000035      -0.00000000      -0.00000000      -0.10206629      -6.54647390
Al     -17.10834329      31.42843011      12.49756319      -0.00000000      -0.00000000       0.10206629      -5.64590157
N      -17.10834329      29.63251982      13.09951298       0.00000000       0.00000000      -0.10206629      -6.54647390
Al     -17.10834329      29.63251982      14.99707583       0.00000000       0.00000000       0.10206629      -5.64590157
N      -17.10834329      31.42843011      15.59902562      -0.00000000      -0.00000000      -0.10206629      -6.54647390
Al     -17.10834329      31.42843011      17.49658847      -0.00000000      -0.00000000       0.10206629      -5.64590157
N      -17.10834329      29.63251982      18.09853826       0.00000000       0.00000000      -0.10206629      -6.54647390
Al     -17.10834329      29.63251982      19.99610111       0.00000000       0.00000000       0.10206629      -5.64590157
N      -17.10834329      31.42843011      20.59805090      -0.00000000      -0.00000000      -0.10206629      -6.54647390
Al     -17.10834329      31.42843011      22.49561374      -0.00000000      -0.00000000       0.10206629      -5.64590157
N      -17.10834329      29.63251982      23.09756354       0.00000000       0.00000000      -0.10206629      -6.54647390
Al     -17.10834329      29.63251982      24.99512638       0.00000000       0.00000000       0.10206629      -5.64590157
N      -17.10834329      31.42843011      25.59707618      -0.00000000      -0.00000000      -0.10206629      -6.54647390
Al     -17.10834329      31.42843011      27.49463902      -0.00000000      -0.00000000       0.10206629      -5.64590157
N      -17.10834329      29.63251982      28.09658881       0.00000000       0.00000000      -0.10206629      -6.54647390
Al     -17.10834329      29.63251982      29.99415166       0.00000000       0.00000000       0.10206629      -5.64590157
N      -17.10834329      31.42843011      30.59610145      -0.00000000      -0.00000000      -0.10206629      -6.54647390
Al     -17.10834329      31.42843011      32.49366430      -0.00000000      -0.00000000       0.10206629      -5.64590157
N      -17.10834329      29.63251982      33.09561409       0.00000000       0.00000000      -0.10206629      -6.54647390
Al     -17.10834329      29.63251982      34.99317694       0.00000000       0.00000000       0.10206629      -5.64590157
N      -17.10834329      31.42843011      35.59512673      -0.00000000      -0.00000000      -0.10206629      -6.54647390
Al     -17.10834329      31.42843011      37.49268957      -0.00000000      -0.00000000       0.10206629      -5.64590157
N      -17.10834329      29.63251982      38.09463937       0.00000000       0.00000000      -0.10206629      -6.54647390
Al     -17.10834329      29.63251982      39.99220221       0.00000000       0.00000000       0.10206629      -5.64590157
N      -17.10834329      31.42843011      40.59415201      -0.00000000      -0.00000000      -0.10206629      -6.54647390
Al     -17.10834329      31.42843011      42.49171485      -0.00000000      -0.00000000       0.10206629      -5.64590157
N      -17.10834329      29.63251982      43.09366464       0.00000000       0.00000000      -0.10206629      -6.54647390
Al     -18.66364723      32.32638525      -0.00000000       0.00000000       0.00000000       0.10206629      -5.64590157
N      -18.66364723      34.12229555       0.60194979       0.00000000       0.00000000      -0.10206629      -6.54647390
Al     -18.66364723      34.12229555       2.49951264       0.00000000       0.00000000       0.10206629      -5.64590157
N      -18.66364723      32.32638525       3.10146243       0.00000000       0.00000000      -0.10206629      -6.54647390
Al     -18.66364723      32.32638525       4.99902528       0.00000000       0.00000000       0.10206629      -5.64590157
N      -18.66364723      34.12229555       5.60097507       0.00000000      -0.00000000      -0.10206629      -6.54647390
Al     -18.66364723      34.12229555       7.49853791       0.00000000       0.00000000       0.10206629      -5.64590157
N      -18.66364723      32.32638525       8.10048771       0.00000000       0.00000000      -0.10206629      -6.54647390
Al     -18.66364723      32.32638525       9.99805055       0.00000000       0.00000000       0.10206629      -5.64590157
N      -18.66364723      34.12229555      10.60000035       0.00000000      -0.00000000      -0.10206629      -6.54647390
Al     -18.66364723      34.12229555      12.49756319       0.00000000       0.00000000       0.10206629      -5.64590157
N      -18.66364723      32.32638525      13.09951298       0.00000000       0.00000000      -0.10206629      -6.54647390
Al     -18.66364723      32.32638525      14.99707583       0.00000000       0.00000000       0.10206629      -5.64590157
N      -18.66364723      34.12229555      15.59902562       0.00000000      -0.00000000      -0.10206629      -6.54647390
Al     -18.66364723      34.12229555      17.49658847       0.00000000       0.00000000       0.10206629      -5.64590157
N      -18.66364723      32.32638525      18.09853826       0.00000000       0.00000000      -0.10206629      -6.54647390
Al     -18.66364723      32.32638525      19.99610111       0.00000000       0.00000000       0.10206629      -5.64590157
N      -18.66364723      34.12229555      20.59805090       0.00000000      -0.00000000      -0.10206629      -6.54647390
Al     -18.66364723      34.12229555      22.49561374       0.00000000       0.00000000       0.10206629      -5.64590157
N      -18.66364723      32.32638525      23.09756354       0.00000000       0.00000000      -0.10206629      -6.54647390
Al     -18.66364723      32.32638525      24.99512638       0.00000000       0.00000000       0.10206629      -5.64590157
N      -18.66364723      34.12229555      25.59707618       0.00000000       0.00000000      -0.10206629      -6.54647390
Al     -18.66364723      34.12229555      27.49463902       0.00000000       0.00000000       0.10206629      -5.64590157
N      -18.66364723      32.32638525      28.09658881       0.00000000       0.00000000      -0.10206629      -6.54647390
Al     -18.66364723      32.32638525      29.99415166       0.00000000       0.00000000       0.10206629      -5.64590157
N      -18.66364723      34.12229555      30.59610145       0.00000000      -0.00000000      -0.10206629      -6.54647390
Al     -18.66364723      34.12229555      32.49366430       0.00000000       0.00000000       0.10206629      -5.64590157
N      -18.66364723      32.32638525      33.09561409       0.00000000       0.00000000      -0.10206629      -6.54647390
Al     -18.66364723      32.32638525      34.99317694       0.00000000       0.00000000       0.10206629      -5.64590157
N      -18.66364723      34.12229555      35.59512673       0.00000000      -0.00000000      -0.10206629      -6.54647390
Al     -18.66364723      34.12229555      37.49268957       0.00000000       0.00000000       0.10206629      -5.64590157
N      -18.66364723      32.32638525      38.09463937       0.00000000       0.00000000      -0.10206629      -6.54647390
Al     -18.66364723      32.32638525      39.99220221       0.00000000       0.00000000       0.10206629      -5.64590157
N      -18.66364723      34.12229555      40.59415201       0.00000000       0.00000000      -0.10206629      -6.54647390
Al     -18.66364723      34.12229555      42.49171485       0.00000000       0.00000000       0.10206629      -5.64590157
N      -18.66364723      32.32638525      43.09366464       0.00000000       0.00000000      -0.10206629      -6.54647390
Al     -20.21895116      35.02025069      -0.00000000       0.00000000       0.00000000       0.10206629      -5.64590157
N      -20.21895116      36.81616098       0.60194979      -0.00000000      -0.00000000      -0.10206629      -6.54647390
Al     -20.21895116      36.81616098       2.49951264       0.00000000      -0.00000000       0.10206629      -5.64590157
N      -20.21895116      35.02025069       3.10146243       0.00000000       0.00000000      -0.10206629      -6.54647390
Al     -20.21895116      35.02025069       4.99902528       0.00000000       0.00000000       0.10206629      -5.64590157
N      -20.21895116      36.81616098       5.60097507      -0.00000000      -0.00000000      -0.10206629      -6.54647390
Al     -20.21895116      36.81616098       7.49853791      -0.00000000      -0.00000000       0.10206629      -5.64590157
N      -20.21895116      35.02025069       8.10048771       0.00000000       0.00000000      -0.10206629      -6.54647390
Al     -20.21895116      35.02025069       9.99805055       0.00000000       0.00000000       0.10206629      -5.64590157
N      -20.21895116      36.81616098      10.60000035      -0.00000000      -0.00000000      -0.10206629      -6.54647390
Al     -20.21895116      36.81616098      12.49756319      -0.00000000      -0.00000000       0.10206629      -5.64590157
N      -20.21895116      35.02025069      13.09951298       0.00000000       0.00000000      -0.10206629      -6.54647390
Al     -20.21895116      35.02025069      14.99707583       0.00000000       0.00000000       0.10206629      -5.64590157
N      -20.21895116      36.81616098      15.59902562      -0.00000000      -0.00000000      -0.10206629      -6.54647390
Al     -20.21895116      36.81616098      17.49658847      -0.00000000      -0.00000000       0.10206629      -5.64590157
N      -20.21895116      35.02025069      18.09853826       0.00000000       0.00000000      -0.10206629      -6.54647390
Al     -20.21895116      35.02025069      19.99610111       0.00000000       0.00000000       0.10206629      -5.64590157
N      -20.21895116      36.81616098      20.59805090      -0.00000000      -0.00000000      -0.10206629      -6.54647390
Al     -20.21895116      36.81616098      22.49561374      -0.00000000      -0.00000000       0.10206629      -5.64590157
N      -20.21895116      35.02025069      23.09756354       0.00000000       0.00000000      -0.10206629      -6.54647390
Al     -20.21895116      35.02025069      24.99512638       0.00000000       0.00000000       0.10206629      -5.64590157
N      -20.21895116      36.81616098      25.59707618      -0.00000000      -0.00000000      -0.10206629      -6.54647390
Al     -20.21895116      36.81616098      27.49463902      -0.00000000      -0.00000000       0.10206629      -5.64590157
N      -20.21895116      35.02025069      28.09658881       0.00000000       0.00000000      -0.10206629      -6.54647390
Al     -20.21895116      35.02025069      29.99415166       0.00000000       0.00000000       0.10206629      -5.64590157
N      -20.21895116      36.81616098      30.59610145      -0.00000000      -0.00000000      -0.10206629      -6.54647390
Al     -20.21895116      36.81616098      32.49366430      -0.00000000      -0.00000000       0.10206629      -5.64590157
N      -20.21895116      35.02025069      33.09561409       0.00000000       0.00000000      -0.10206629      -6.54647390
Al     -20.21895116      35.02025069      34.99317694       0.00000000       0.00000000       0.10206629      -5.64590157
N      -20.21895116      36.81616098      35.59512673      -0.00000000      -0.00000000      -0.10206629      -6.54647390
Al     -20.21895116      36.81616098      37.49268957      -0.00000000      -0.00000000       0.10206629      -5.64590157
N      -20.21895116      35.02025069      38.09463937       0.00000000       0.00000000      -0.10206629      -6.54647390
Al     -20.21895116      35.02025069      39.99220221       0.00000000       0.00000000       0.10206629      -5.64590157
N      -20.21895116      36.81616098      40.59415201      -0.00000000      -0.00000000      -0.10206629      -6.54647390
Al     -20.21895116      36.81616098      42.49171485      -0.00000000      -0.00000000       0.10206629      -5.64590157
N      -20.21895116      35.02025069      43.09366464       0.00000000       0.00000000      -0.10206629      -6.54647390
Al     -21.77425510      37.71411613      -0.00000000       0.00000000      -0.00000000       0.10206629      -5.64590157
N      -21.77425510      39.51002642       0.60194979       0.00000000       0.00000000      -0.10206629      -6.54647390
Al     -21.77425510      39.51002642       2.49951264       0.00000000       0.00000000       0.10206629      -5.64590157
N      -21.77425510      37.71411613       3.10146243       0.00000000      -0.00000000      -0.10206629      -6.54647390
Al     -21.77425510      37.71411613       4.99902528       0.00000000      -0.00000000       0.10206629      -5.64590157
N      -21.77425510      39.51002642       5.60097507       0.00000000       0.00000000      -0.10206629      -6.54647390
Al     -21.77425510      39.51002642       7.49853791       0.00000000       0.00000000       0.10206629      -5.64590157
N      -21.77425510      37.71411613       8.10048771       0.00000000      -0.00000000      -0.10206629      -6.54647390
Al     -21.77425510      37.71411613       9.99805055       0.00000000      -0.00000000       0.10206629      -5.64590157
N      -21.77425510      39.51002642      10.60000035       0.00000000       0.00000000      -0.10206629      -6.54647390
Al     -21.77425510      39.51002642      12.49756319       0.00000000       0.00000000       0.10206629      -5.64590157
N      -21.77425510      37.71411613      13.09951298       0.00000000      -0.00000000      -0.10206629      -6.54647390
Al     -21.77425510      37.71411613      14.99707583       0.00000000      -0.00000000       0.10206629      -5.64590157
N      -21.77425510      39.51002642      15.59902562       0.00000000       0.00000000      -0.10206629      -6.54647390
Al     -21.77425510      39.51002642      17.49658847       0.00000000       0.00000000       0.10206629      -5.64590157
N      -21.77425510      37.71411613      18.09853826       0.00000000      -0.00000000      -0.10206629      -6.54647390
Al     -21.77425510      37.71411613      19.99610111       0.00000000      -0.00000000       0.10206629      -5.64590157
N      -21.77425510      39.51002642      20.59805090       0.00000000       0.00000000      -0.10206629      -6.54647390
Al     -21.77425510      39.51002642      22.49561374       0.00000000       0.00000000       0.10206629      -5.64590157
N      -21.77425510      37.71411613      23.09756354       0.00000000      -0.00000000      -0.10206629      -6.54647390
Al     -21.77425510      37.71411613      24.99512638       0.00000000      -0.00000000       0.10206629      -5.64590157
N      -21.77425510      39.51002642      25.59707618       0.00000000       0.00000000      -0.10206629      -6.54647390
Al     -21.77425510      39.51002642      27.49463902       0.00000000       0.00000000       0.10206629      -5.64590157
N      -21.77425510      37.71411613      28.09658881       0.00000000      -0.00000000      -0.10206629      -6.54647390
Al     -21.77425510      37.71411613      29.99415166       0.00000000      -0.00000000       0.10206629      -5.64590157
N      -21.77425510      39.51002642      30.59610145       0.00000000       0.00000000      -0.10206629      -6.54647390
Al     -21.77425510      39.51002642      32.49366430       0.00000000       0.00000000       0.10206629      -5.64590157
N      -21.77425510      37.71411613      33.09561409       0.00000000      -0.00000000      -0.10206629      -6.54647390
Al     -21.77425510      37.71411613      34.99317694       0.00000000      -0.00000000       0.10206629      -5.64590157
N      -21.77425510      39.51002642      35.59512673       0.00000000       0.00000000      -0.10206629      -6.54647390
Al     -21.77425510      39.51002642      37.49268957       0.00000000       0.00000000       0.10206629      -5.64590157
N      -21.77425510      37.71411613      38.09463937       0.00000000      -0.00000000      -0.10206629      -6.54647390
Al     -21.77425510      37.71411613      39.99220221       0.00000000      -0.00000000       0.10206629      -5.64590157
N      -21.77425510      39.51002642      40.59415201       0.00000000       0.00000000      -0.10206629      -6.54647390
Al     -21.77425510      39.51002642      42.49171485       0.00000000       0.00000000       0.10206629      -5.64590157
N      -21.77425510      37.71411613      43.09366464       0.00000000      -0.00000000      -0.10206629      -6.54647390
Al       3.11060787      -0.00000000       0.00000000      -0.00000000      -0.00000000       0.10206629      -5.64590157
N        3.11060787       1.79591029       0.60194979       0.00000000       0.00000000      -0.10206629      -6.54647390
Al       3.11060787       1.79591029       2.49951264      -0.00000000      -0.00000000       0.10206629      -5.64590157
N        3.11060787      -0.00000000       3.10146243      -0.00000000      -0.00000000      -0.10206629      -6.54647390
Al       3.11060787      -0.00000000       4.99902528      -0.00000000      -0.00000000       0.10206629      -5.64590157
N        3.11060787       1.79591029       5.60097507      -0.00000000       0.00000000      -0.10206629      -6.54647390
Al       3.11060787       1.79591029       7.49853791       0.00000000      -0.00000000       0.10206629      -5.64590157
N        3.11060787      -0.00000000       8.10048771      -0.00000000      -0.00000000      -0.10206629      -6.54647390
Al       3.11060787      -0.00000000       9.99805055      -0.00000000      -0.00000000       0.10206629      -5.64590157
N        3.11060787       1.79591029      10.60000035      -0.00000000       0.00000000      -0.10206629      -6.54647390
Al       3.11060787       1.79591029      12.49756319       0.00000000      -0.00000000       0.10206629      -5.64590157
N        3.11060787      -0.00000000      13.09951298      -0.00000000      -0.00000000      -0.10206629      -6.54647390
Al       3.11060787      -0.00000000      14.99707583      -0.00000000      -0.00000000       0.10206629      -5.64590157
N        3.11060787       1.79591029      15.59902562      -0.00000000       0.00000000      -0.10206629      -6.54647390
Al       3.11060787       1.79591029      17.49658847       0.00000000      -0.00000000       0.10206629      -5.64590157
N        3.11060787      -0.00000000      18.09853826      -0.00000000      -0.00000000      -0.10206629      -6.54647390
Al       3.11060787      -0.00000000      19.99610111      -0.00000000      -0.00000000       0.10206629      -5.64590157
N        3.11060787       1.79591029      20.59805090      -0.00000000       0.00000000      -0.10206629      -6.54647390
Al       3.11060787       1.79591029      22.49561374       0.00000000      -0.00000000       0.10206629      -5.64590157
N        3.11060787      -0.00000000      23.09756354      -0.00000000      -0.00000000      -0.10206629      -6.54647390
Al       3.11060787      -0.00000000      24.99512638      -0.00000000      -0.00000000       0.10206629      -5.64590157
N        3.11060787       1.79591029      25.59707618      -0.00000000      -0.00000000      -0.10206629      -6.54647390
Al       3.11060787       1.79591029      27.49463902      -0.00000000      -0.00000000       0.10206629      -5.64590157
N        3.11060787      -0.00000000      28.09658881      -0.00000000      -0.00000000      -0.10206629      -6.54647390
Al       3.11060787      -0.00000000      29.99415166      -0.00000000      -0.00000000       0.10206629      -5.64590157
N        3.11060787       1.79591029      30.59610145      -0.00000000      -0.00000000      -0.10206629      -6.54647390
Al       3.11060787       1.79591029      32.49366430      -0.00000000      -0.00000000       0.10206629      -5.64590157
N        3.11060787      -0.00000000      33.09561409      -0.00000000      -0.00000000      -0.10206629      -6.54647390
Al       3.11060787      -0.00000000      34.99317694      -0.00000000      -0.00000000       0.10206629      -5.64590157
N        3.11060787       1.79591029      35.59512673      -0.00000000      -0.00000000      -0.10206629      -6.54647390
Al       3.11060787       1.79591029      37.49268957      -0.00000000      -0.00000000       0.10206629      -5.64590157
N        3.11060787      -0.00000000      38.09463937      -0.00000000      -0.00000000      -0.10206629      -6.54647390
Al       3.11060787      -0.00000000      39.99220221      -0.00000000      -0.00000000       0.10206629      -5.64590157
N        3.11060787       1.79591029      40.59415201      -0.00000000      -0.00000000      -0.10206629      -6.54647390
Al       3.11060787       1.79591029      42.49171485       0.00000000      -0.00000000       0.10206629      -5.64590157
N        3.11060787      -0.00000000      43.09366464      -0.00000000      -0.00000000      -0.10206629      -6.54647390
Al       1.55530394       2.69386544      -0.00000000      -0.00000000      -0.00000000       0.10206629      -5.64590157
N        1.55530394       4.48977573       0.60194979       0.00000000      -0.00000000      -0.10206629      -6.54647390
Al       1.55530394       4.48977573       2.49951264      -0.00000000      -0.00000000       0.10206629      -5.64590157
N        1.55530394       2.69386544       3.10146243      -0.00000000       0.00000000      -0.10206629      -6.54647390
Al       1.55530394       2.69386544       4.99902528      -0.00000000      -0.00000000       0.10206629      -5.64590157
N        1.55530394       4.48977573       5.60097507       0.00000000      -0.00000000      -0.10206629      -6.54647390
Al       1.55530394       4.48977573       7.49853791       0.00000000      -0.00000000       0.10206629      -5.64590157
N        1.55530394       2.69386544       8.10048771      -0.00000000       0.00000000      -0.10206629      -6.54647390
Al       1.55530394       2.69386544       9.99805055      -0.00000000      -0.00000000       0.10206629      -5.64590157
N        1.55530394       4.48977573      10.60000035      -0.00000000      -0.00000000      -0.10206629      -6.54647390
Al       1.55530394       4.48977573      12.49756319       0.00000000      -0.00000000       0.10206629      -5.64590157
N        1.55530394       2.69386544      13.09951298      -0.00000000       0.00000000      -0.10206629      -6.54647390
Al       1.55530394       2.69386544      14.99707583       0.00000000       0.00000000       0.10206629      -5.64590157
N        1.55530394       4.48977573      15.59902562      -0.00000000      -0.00000000      -0.10206629      -6.54647390
Al       1.55530394       4.48977573      17.49658847       0.00000000       0.00000000       0.10206629      -5.64590157
N        1.55530394       2.69386544      18.09853826      -0.00000000       0.00000000      -0.10206629      -6.54647390
Al       1.55530394       2.69386544      19.99610111       0.00000000      -0.00000000       0.10206629      -5.64590157
N        1.55530394       4.48977573      20.59805090      -0.00000000      -0.00000000      -0.10206629      -6.54647390
Al       1.55530394       4.48977573      22.49561374       0.00000000      -0.00000000       0.10206629      -5.64590157
N        1.55530394       2.69386544      23.09756354      -0.00000000       0.00000000      -0.10206629      -6.54647390
Al       1.55530394       2.69386544      24.99512638      -0.00000000      -0.00000000       0.10206629      -5.64590157
N        1.55530394       4.48977573      25.59707618      -0.00000000       0.00000000      -0.10206629      -6.54647390
Al       1.55530394       4.48977573      27.49463902       0.00000000      -0.00000000       0.10206629      -5.64590157
N        1.55530394       2.69386544      28.09658881      -0.00000000       0.00000000      -0.10206629      -6.54647390
Al       1.55530394       2.69386544      29.99415166       0.00000000      -0.00000000       0.10206629      -5.64590157
N        1.55530394       4.48977573      30.59610145      -0.00000000       0.00000000      -0.10206629      -6.54647390
Al       1.55530394       4.48977573      32.49366430       0.00000000       0.00000000       0.10206629      -5.64590157
N        1.55530394       2.69386544      33.09561409      -0.00000000      -0.00000000      -0.10206629      -6.54647390
Al       1.55530394       2.69386544      34.99317694      -0.00000000      -0.00000000       0.10206629      -5.64590157
N        1.55530394       4.48977573      35.59512673      -0.00000000       0.00000000      -0.10206629      -6.54647390
Al       1.55530394       4.48977573      37.49268957       0.00000000      -0.00000000       0.10206629      -5.64590157
N        1.55530394       2.69386544      38.09463937      -0.00000000      -0.00000000      -0.10206629      -6.54647390
Al       1.55530394       2.69386544      39.99220221       0.00000000      -0.00000000       0.10206629      -5.64590157
N        1.55530394       4.48977573      40.59415201       0.00000000      -0.00000000      -0.10206629      -6.54647390
Al       1.55530394       4.48977573      42.49171485       0.00000000       0.00000000       0.10206629      -5.64590157
N        1.55530394       2.69386544      43.09366464      -0.00000000       0.00000000      -0.10206629      -6.54647390
Al       0.00000000       5.38773088      -0.00000000      -0.00000000      -0.00000000       0.10206629      -5.64590157
N       -0.00000000       7.18364117       0.60194979       0.00000000       0.00000000      -0.10206629      -6.54647390
Al      -0.00000000       7.18364117       2.49951264      -0.00000000      -0.00000000       0.10206629      -5.64590157
N        0.00000000       5.38773088       3.10146243      -0.00000000      -0.00000000      -0.10206629      -6.54647390
Al       0.00000000       5.38773088       4.99902528      -0.00000000      -0.00000000       0.10206629      -5.64590157
N       -0.00000000       7.18364117       5.60097507      -0.00000000      -0.00000000      -0.10206629      -6.54647390
Al      -0.00000000       7.18364117       7.49853791       0.00000000       0.00000000       0.10206629      -5.64590157
N        0.00000000       5.38773088       8.10048771      -0.00000000      -0.00000000      -0.10206629      -6.54647390
Al       0.00000000       5.38773088       9.99805055       0.00000000       0.00000000       0.10206629      -5.64590157
N       -0.00000000       7.18364117      10.60000035      -0.00000000      -0.00000000      -0.10206629      -6.54647390
Al      -0.00000000       7.18364117      12.49756319       0.00000000       0.00000000       0.10206629      -5.64590157
N        0.00000000       5.38773088      13.09951298      -0.00000000      -0.00000000      -0.10206629      -6.54647390
Al       0.00000000       5.38773088      14.99707583       0.00000000       0.00000000       0.10206629      -5.64590157
N        0.00000000       7.18364117      15.59902562      -0.00000000      -0.00000000      -0.10206629      -6.54647390
Al       0.00000000       7.18364117      17.49658847       0.00000000       0.00000000       0.10206629      -5.64590157
N        0.00000000       5.38773088      18.09853826      -0.00000000      -0.00000000      -0.10206629      -6.54647390
Al       0.00000000       5.38773088      19.99610111       0.00000000       0.00000000       0.10206629      -5.64590157
N        0.00000000       7.18364117      20.59805090      -0.00000000      -0.00000000      -0.10206629      -6.54647390
Al       0.00000000       7.18364117      22.49561374       0.00000000       0.00000000       0.10206629      -5.64590157
N        0.00000000       5.38773088      23.09756354      -0.00000000       0.00000000      -0.10206629      -6.54647390
Al       0.00000000       5.38773088      24.99512638       0.00000000      -0.00000000       0.10206629      -5.64590157
N        0.00000000       7.18364117      25.59707618       0.00000000      -0.00000000      -0.10206629      -6.54647390
Al       0.00000000       7.18364117      27.49463902       0.00000000       0.00000000       0.10206629      -5.64590157
N        0.00000000       5.38773088      28.09658881       0.00000000      -0.00000000      -0.10206629      -6.54647390
Al       0.00000000       5.38773088      29.99415166      -0.00000000      -0.00000000       0.10206629      -5.64590157
N        0.00000000       7.18364117      30.59610145      -0.00000000      -0.00000000      -0.10206629      -6.54647390
Al       0.00000000       7.18364117      32.49366430      -0.00000000       0.00000000       0.10206629      -5.64590157
N        0.00000000       5.38773088      33.09561409      -0.00000000      -0.00000000      -0.10206629      -6.54647390
Al       0.00000000       5.38773088      34.99317694      -0.00000000      -0.00000000       0.10206629      -5.64590157
N        0.00000000       7.18364117      35.59512673      -0.00000000      -0.00000000      -0.10206629      -6.54647390
Al       0.00000000       7.18364117      37.49268957       0.00000000       0.00000000       0.10206629      -5.64590157
N        0.00000000       5.38773088      38.09463937      -0.00000000      -0.00000000      -0.10206629      -6.54647390
Al       0.00000000       5.38773088      39.99220221      -0.00000000      -0.00000000       0.10206629      -5.64590157
N        0.00000000       7.18364117      40.59415201       0.00000000       0.00000000      -0.10206629      -6.54647390
Al       0.00000000       7.18364117      42.49171485       0.00000000       0.00000000       0.10206629      -5.64590157
N        0.00000000       5.38773088      43.09366464      -0.00000000      -0.00000000      -0.10206629      -6.54647390
Al      -1.55530394       8.08159631      -0.00000000      -0.00000000       0.00000000       0.10206629      -5.64590157
N       -1.55530394       9.87750661       0.60194979       0.00000000       0.00000000      -0.10206629      -6.54647390
Al      -1.55530394       9.87750661       2.49951264       0.00000000       0.00000000       0.10206629      -5.64590157
N       -1.55530394       8.08159631       3.10146243       0.00000000      -0.00000000      -0.10206629      -6.54647390
Al      -1.55530394       8.08159631       4.99902528       0.00000000       0.00000000       0.10206629      -5.64590157
N       -1.55530394       9.87750661       5.60097507       0.00000000       0.00000000      -0.10206629      -6.54647390
Al      -1.55530394       9.87750661       7.49853791       0.00000000       0.00000000       0.10206629      -5.64590157
N       -1.55530394       8.08159631       8.10048771      -0.00000000      -0.00000000      -0.10206629      -6.54647390
Al      -1.55530394       8.08159631       9.99805055      -0.00000000       0.00000000       0.10206629      -5.64590157
N       -1.55530394       9.87750661      10.60000035       0.00000000      -0.00000000      -0.10206629      -6.54647390
Al      -1.55530394       9.87750661      12.49756319       0.00000000       0.00000000       0.10206629      -5.64590157
N       -1.55530394       8.08159631      13.09951298      -0.00000000      -0.00000000      -0.10206629      -6.54647390
Al      -1.55530394       8.08159631      14.99707583      -0.00000000       0.00000000       0.10206629      -5.64590157
N       -1.55530394       9.87750661      15.59902562      -0.00000000       0.00000000      -0.10206629      -6.54647390
Al      -1.55530394       9.87750661      17.49658847       0.00000000       0.00000000       0.10206629      -5.64590157
N       -1.55530394       8.08159631      18.09853826      -0.00000000      -0.00000000      -0.10206629      -6.54647390
Al      -1.55530394       8.08159631      19.99610111       0.00000000       0.00000000       0.10206629      -5.64590157
N       -1.55530394       9.87750661      20.59805090      -0.00000000      -0.00000000      -0.10206629      -6.54647390
Al      -1.55530394       9.87750661      22.49561374       0.00000000       0.00000000       0.10206629      -5.64590157
N       -1.55530394       8.08159631      23.09756354       0.00000000      -0.00000000      -0.10206629      -6.54647390
Al      -1.55530394       8.08159631      24.99512638      -0.00000000       0.00000000       0.10206629      -5.64590157
N       -1.55530394       9.87750661      25.59707618       0.00000000       0.00000000      -0.10206629      -6.54647390
Al      -1.55530394       9.87750661      27.49463902       0.00000000       0.00000000       0.10206629      -5.64590157
N       -1.55530394       8.08159631      28.09658881      -0.00000000      -0.00000000      -0.10206629      -6.54647390
Al      -1.55530394       8.08159631      29.99415166      -0.00000000       0.00000000       0.10206629      -5.64590157
N       -1.55530394       9.87750661      30.59610145      -0.00000000       0.00000000      -0.10206629      -6.54647390
Al      -1.55530394       9.87750661      32.49366430       0.00000000       0.00000000       0.10206629      -5.64590157
N       -1.55530394       8.08159631      33.09561409      -0.00000000       0.00000000      -0.10206629      -6.54647390
Al      -1.55530394       8.08159631      34.99317694       0.00000000       0.00000000       0.10206629      -5.64590157
N       -1.55530394       9.87750661      35.59512673      -0.00000000       0.00000000      -0.10206629      -6.54647390
Al      -1.55530394       9.87750661      37.49268957       0.00000000       0.00000000       0.10206629      -5.64590157
N       -1.55530394       8.08159631      38.09463937      -0.00000000      -0.00000000      -0.10206629      -6.54647390
Al      -1.55530394       8.08159631      39.99220221       0.00000000       0.00000000       0.10206629      -5.64590157
N       -1.55530394       9.87750661      40.59415201      -0.00000000      -0.00000000      -0.10206629      -6.54647390
Al      -1.55530394       9.87750661      42.49171485      -0.00000000       0.00000000       0.10206629      -5.64590157
N       -1.55530394       8.08159631      43.09366464       0.00000000      -0.00000000      -0.10206629      -6.54647390
Al      -3.11060787      10.77546175      -0.00000000      -0.00000000      -0.00000000       0.10206629      -5.64590157
N       -3.11060787      12.57137204       0.60194979       0.00000000      -0.00000000      -0.10206629      -6.54647390
Al      -3.11060787      12.57137204       2.49951264      -0.00000000      -0.00000000       0.10206629      -5.64590157
N       -3.11060787      10.77546175       3.10146243      -0.00000000       0.00000000      -0.10206629      -6.54647390
Al      -3.11060787      10.77546175       4.99902528      -0.00000000      -0.00000000       0.10206629      -5.64590157
N       -3.11060787      12.57137204       5.60097507      -0.00000000      -0.00000000      -0.10206629      -6.54647390
Al      -3.11060787      12.57137204       7.49853791      -0.00000000      -0.00000000       0.10206629      -5.64590157
N       -3.11060787      10.77546175       8.10048771      -0.00000000       0.00000000      -0.10206629      -6.54647390
Al      -3.11060787      10.77546175       9.99805055      -0.00000000      -0.00000000       0.10206629      -5.64590157
N       -3.11060787      12.57137204      10.60000035       0.00000000      -0.00000000      -0.10206629      -6.54647390
Al      -3.11060787      12.57137204      12.49756319       0.00000000      -0.00000000       0.10206629      -5.64590157
N       -3.11060787      10.77546175      13.09951298      -0.00000000      -0.00000000      -0.10206629      -6.54647390
Al      -3.11060787      10.77546175      14.99707583      -0.00000000       0.00000000       0.10206629      -5.64590157
N       -3.11060787      12.57137204      15.59902562      -0.00000000      -0.00000000      -0.10206629      -6.54647390
Al      -3.11060787      12.57137204      17.49658847       0.00000000       0.00000000       0.10206629      -5.64590157
N       -3.11060787      10.77546175      18.09853826      -0.00000000      -0.00000000      -0.10206629      -6.54647390
Al      -3.11060787      10.77546175      19.99610111      -0.00000000      -0.00000000       0.10206629      -5.64590157
N       -3.11060787      12.57137204      20.59805090      -0.00000000      -0.00000000      -0.10206629      -6.54647390
Al      -3.11060787      12.57137204      22.49561374      -0.00000000      -0.00000000       0.10206629      -5.64590157
N       -3.11060787      10.77546175      23.09756354      -0.00000000       0.00000000      -0.10206629      -6.54647390
Al      -3.11060787      10.77546175      24.99512638      -0.00000000      -0.00000000       0.10206629      -5.64590157
N       -3.11060787      12.57137204      25.59707618      -0.00000000      -0.00000000      -0.10206629      -6.54647390
Al      -3.11060787      12.57137204      27.49463902      -0.00000000      -0.00000000       0.10206629      -5.64590157
N       -3.11060787      10.77546175      28.09658881      -0.00000000      -0.00000000      -0.10206629      -6.54647390
Al      -3.11060787      10.77546175      29.99415166      -0.00000000      -0.00000000       0.10206629      -5.64590157
N       -3.11060787      12.57137204      30.59610145      -0.00000000      -0.00000000      -0.10206629      -6.54647390
Al      -3.11060787      12.57137204      32.49366430       0.00000000      -0.00000000       0.10206629      -5.64590157
N       -3.11060787      10.77546175      33.09561409      -0.00000000      -0.00000000      -0.10206629      -6.54647390
Al      -3.11060787      10.77546175      34.99317694      -0.00000000      -0.00000000       0.10206629      -5.64590157
N       -3.11060787      12.57137204      35.59512673      -0.00000000      -0.00000000      -0.10206629      -6.54647390
Al      -3.11060787      12.57137204      37.49268957      -0.00000000      -0.00000000       0.10206629      -5.64590157
N       -3.11060787      10.77546175      38.09463937      -0.00000000      -0.00000000      -0.10206629      -6.54647390
Al      -3.11060787      10.77546175      39.99220221       0.00000000       0.00000000       0.10206629      -5.64590157
N       -3.11060787      12.57137204      40.59415201      -0.00000000      -0.00000000      -0.10206629      -6.54647390
Al      -3.11060787      12.57137204      42.49171485       0.00000000      -0.00000000       0.10206629      -5.64590157
N       -3.11060787      10.77546175      43.09366464      -0.00000000      -0.00000000      -0.10206629      -6.54647390
Al      -4.66591181      13.46932719      -0.00000000      -0.00000000      -0.00000000       0.10206629      -5.64590157
N       -4.66591181      15.26523748       0.60194979       0.00000000      -0.00000000      -0.10206629      -6.54647390
Al      -4.66591181      15.26523748       2.49951264      -0.00000000      -0.00000000       0.10206629      -5.64590157
N       -4.66591181      13.46932719       3.10146243      -0.00000000      -0.00000000      -0.10206629      -6.54647390
Al      -4.66591181      13.46932719       4.99902528      -0.00000000      -0.00000000       0.10206629      -5.64590157
N       -4.66591181      15.26523748       5.60097507       0.00000000      -0.00000000      -0.10206629      -6.54647390
Al      -4.66591181      15.26523748       7.49853791       0.00000000       0.00000000       0.10206629      -5.64590157
N       -4.66591181      13.46932719       8.10048771      -0.00000000      -0.00000000      -0.10206629      -6.54647390
Al      -4.66591181      13.46932719       9.99805055      -0.00000000      -0.00000000       0.10206629      -5.64590157
N       -4.66591181      15.26523748      10.60000035       0.00000000      -0.00000000      -0.10206629      -6.54647390
Al      -4.66591181      15.26523748      12.49756319       0.00000000       0.00000000       0.10206629      -5.64590157
N       -4.66591181      13.46932719      13.09951298      -0.00000000      -0.00000000      -0.10206629      -6.54647390
Al      -4.66591181      13.46932719      14.99707583       0.00000000      -0.00000000       0.10206629      -5.64590157
N       -4.66591181      15.26523748      15.59902562       0.00000000      -0.00000000      -0.10206629      -6.54647390
Al      -4.66591181      15.26523748      17.49658847       0.00000000       0.00000000       0.10206629      -5.64590157
N       -4.66591181      13.46932719      18.09853826      -0.00000000      -0.00000000      -0.10206629      -6.54647390
Al      -4.66591181      13.46932719      19.99610111       0.00000000      -0.00000000       0.10206629      -5.64590157
N       -4.66591181      15.26523748      20.59805090       0.00000000      -0.00000000      -0.10206629      -6.54647390
Al      -4.66591181      15.26523748      22.49561374       0.00000000       0.00000000       0.10206629      -5.64590157
N       -4.66591181      13.46932719      23.09756354       0.00000000      -0.00000000      -0.10206629      -6.54647390
Al      -4.66591181      13.46932719      24.99512638       0.00000000      -0.00000000       0.10206629      -5.64590157
N       -4.66591181      15.26523748      25.59707618       0.00000000      -0.00000000      -0.10206629      -6.54647390
Al      -4.66591181      15.26523748      27.49463902       0.00000000      -0.00000000       0.10206629      -5.64590157
N       -4.66591181      13.46932719      28.09658881      -0.00000000      -0.00000000      -0.10206629      -6.54647390
Al      -4.66591181      13.46932719      29.99415166       0.00000000      -0.00000000       0.10206629      -5.64590157
N       -4.66591181      15.26523748      30.59610145       0.00000000      -0.00000000      -0.10206629      -6.54647390
Al      -4.66591181      15.26523748      32.49366430       0.00000000       0.00000000       0.10206629      -5.64590157
N       -4.66591181      13.46932719      33.09561409      -0.00000000      -0.00000000      -0.10206629      -6.54647390
Al      -4.66591181      13.46932719      34.99317694      -0.00000000      -0.00000000       0.10206629      -5.64590157
N       -4.66591181      15.26523748      35.59512673       0.00000000      -0.00000000      -0.10206629      -6.54647390
Al      -4.66591181      15.26523748      37.49268957       0.00000000       0.00000000       0.10206629      -5.64590157
N       -4.66591181      13.46932719      38.09463937      -0.00000000      -0.00000000      -0.10206629      -6.54647390
Al      -4.66591181      13.46932719      39.99220221       0.00000000       0.00000000       0.10206629      -5.64590157
N       -4.66591181      15.26523748      40.59415201      -0.00000000      -0.00000000      -0.10206629      -6.54647390
Al      -4.66591181      15.26523748      42.49171485       0.00000000      -0.00000000       0.10206629      -5.64590157
N       -4.66591181      13.46932719      43.09366464      -0.00000000      -0.00000000      -0.10206629      -6.54647390
Al      -6.22121574      16.16319263      -0.00000000      -0.00000000       0.00000000       0.10206629      -5.64590157
N       -6.22121574      17.95910292       0.60194979      -0.00000000      -0.00000000      -0.10206629      -6.54647390
Al      -6.22121574      17.95910292       2.49951264      -0.00000000      -0.00000000       0.10206629      -5.64590157
N       -6.22121574      16.16319263       3.10146243      -0.00000000       0.00000000      -0.10206629      -6.54647390
Al      -6.22121574      16.16319263       4.99902528      -0.00000000       0.00000000       0.10206629      -5.64590157
N       -6.22121574      17.95910292       5.60097507      -0.00000000      -0.00000000      -0.10206629      -6.54647390
Al      -6.22121574      17.95910292       7.49853791      -0.00000000      -0.00000000       0.10206629      -5.64590157
N       -6.22121574      16.16319263       8.10048771       0.00000000       0.00000000      -0.10206629      -6.54647390
Al      -6.22121574      16.16319263       9.99805055      -0.00000000       0.00000000       0.10206629      -5.64590157
N       -6.22121574      17.95910292      10.60000035      -0.00000000      -0.00000000      -0.10206629      -6.54647390
Al      -6.22121574      17.95910292      12.49756319      -0.00000000      -0.00000000       0.10206629      -5.64590157
N       -6.22121574      16.16319263      13.09951298      -0.00000000       0.00000000      -0.10206629      -6.54647390
Al      -6.22121574      16.16319263      14.99707583       0.00000000       0.00000000       0.10206629      -5.64590157
N       -6.22121574      17.95910292      15.59902562      -0.00000000      -0.00000000      -0.10206629      -6.54647390
Al      -6.22121574      17.95910292      17.49658847       0.00000000      -0.00000000       0.10206629      -5.64590157
N       -6.22121574      16.16319263      18.09853826      -0.00000000       0.00000000      -0.10206629      -6.54647390
Al      -6.22121574      16.16319263      19.99610111       0.00000000       0.00000000       0.10206629      -5.64590157
N       -6.22121574      17.95910292      20.59805090      -0.00000000      -0.00000000      -0.10206629      -6.54647390
Al      -6.22121574      17.95910292      22.49561374       0.00000000      -0.00000000       0.10206629      -5.64590157
N       -6.22121574      16.16319263      23.09756354       0.00000000       0.00000000      -0.10206629      -6.54647390
Al      -6.22121574      16.16319263      24.99512638       0.00000000       0.00000000       0.10206629      -5.64590157
N       -6.22121574      17.95910292      25.59707618      -0.00000000      -0.00000000      -0.10206629      -6.54647390
Al      -6.22121574      17.95910292      27.49463902       0.00000000      -0.00000000       0.10206629      -5.64590157
N       -6.22121574      16.16319263      28.09658881      -0.00000000       0.00000000      -0.10206629      -6.54647390
Al      -6.22121574      16.16319263      29.99415166      -0.00000000       0.00000000       0.10206629      -5.64590157
N       -6.22121574      17.95910292      30.59610145      -0.00000000      -0.00000000      -0.10206629      -6.54647390
Al      -6.22121574      17.95910292      32.49366430      -0.00000000      -0.00000000       0.10206629      -5.64590157
N       -6.22121574      16.16319263      33.09561409      -0.00000000       0.00000000      -0.10206629      -6.54647390
Al      -6.22121574      16.16319263      34.99317694       0.00000000       0.00000000       0.10206629      -5.64590157
N       -6.22121574      17.95910292      35.59512673       0.00000000      -0.00000000      -0.10206629      -6.54647390
Al      -6.22121574      17.95910292      37.49268957       0.00000000      -0.00000000       0.10206629      -5.64590157
N       -6.22121574      16.16319263      38.09463937       0.00000000       0.00000000      -0.10206629      -6.54647390
Al      -6.22121574      16.16319263      39.99220221      -0.00000000       0.00000000       0.10206629      -5.64590157
N       -6.22121574      17.95910292      40.59415201      -0.00000000      -0.00000000      -0.10206629      -6.54647390
Al      -6.22121574      17.95910292      42.49171485      -0.00000000      -0.00000000       0.10206629      -5.64590157
N       -6.22121574      16.16319263      43.09366464      -0.00000000       0.00000000      -0.10206629      -6.54647390
Al      -7.77651968      18.85705806      -0.00000000      -0.00000000      -0.00000000       0.10206629      -5.64590157
N       -7.77651968      20.65296836       0.60194979      -0.00000000       0.00000000      -0.10206629      -6.54647390
Al      -7.77651968      20.65296836       2.49951264       0.00000000       0.00000000       0.10206629      -5.64590157
N       -7.77651968      18.85705806       3.10146243      -0.00000000      -0.00000000      -0.10206629      -6.54647390
Al      -7.77651968      18.85705806       4.99902528      -0.00000000      -0.00000000       0.10206629      -5.64590157
N       -7.77651968      20.65296836       5.60097507      -0.00000000       0.00000000      -0.10206629      -6.54647390
Al      -7.77651968      20.65296836       7.49853791       0.00000000       0.00000000       0.10206629      -5.64590157
N       -7.77651968      18.85705806       8.10048771      -0.00000000      -0.00000000      -0.10206629      -6.54647390
Al      -7.77651968      18.85705806       9.99805055      -0.00000000      -0.00000000       0.10206629      -5.64590157
N       -7.77651968      20.65296836      10.60000035      -0.00000000       0.00000000      -0.10206629      -6.54647390
Al      -7.77651968      20.65296836      12.49756319      -0.00000000       0.00000000       0.10206629      -5.64590157
N       -7.77651968      18.85705806      13.09951298      -0.00000000      -0.00000000      -0.10206629      -6.54647390
Al      -7.77651968      18.85705806      14.99707583      -0.00000000      -0.00000000       0.10206629      -5.64590157
N       -7.77651968      20.65296836      15.59902562      -0.00000000       0.00000000      -0.10206629      -6.54647390
Al      -7.77651968      20.65296836      17.49658847       0.00000000       0.00000000       0.10206629      -5.64590157
N       -7.77651968      18.85705806      18.09853826      -0.00000000      -0.00000000      -0.10206629      -6.54647390
Al      -7.77651968      18.85705806      19.99610111      -0.00000000      -0.00000000       0.10206629      -5.64590157
N       -7.77651968      20.65296836      20.59805090      -0.00000000       0.00000000      -0.10206629      -6.54647390
Al      -7.77651968      20.65296836      22.49561374       0.00000000       0.00000000       0.10206629      -5.64590157
N       -7.77651968      18.85705806      23.09756354      -0.00000000      -0.00000000      -0.10206629      -6.54647390
Al      -7.77651968      18.85705806      24.99512638      -0.00000000      -0.00000000       0.10206629      -5.64590157
N       -7.77651968      20.65296836      25.59707618      -0.00000000       0.00000000      -0.10206629      -6.54647390
Al      -7.77651968      20.65296836      27.49463902       0.00000000       0.00000000       0.10206629      -5.64590157
N       -7.77651968      18.85705806      28.09658881      -0.00000000      -0.00000000      -0.10206629      -6.54647390
Al      -7.77651968      18.85705806      29.99415166      -0.00000000      -0.00000000       0.10206629      -5.64590157
N       -7.77651968      20.65296836      30.59610145       0.00000000       0.00000000      -0.10206629      -6.54647390
Al      -7.77651968      20.65296836      32.49366430      -0.00000000       0.00000000       0.10206629      -5.64590157
N       -7.77651968      18.85705806      33.09561409      -0.00000000      -0.00000000      -0.10206629      -6.54647390
Al      -7.77651968      18.85705806      34.99317694      -0.00000000      -0.00000000       0.10206629      -5.64590157
N       -7.77651968      20.65296836      35.59512673      -0.00000000       0.00000000      -0.10206629      -6.54647390
Al      -7.77651968      20.65296836      37.49268957       0.00000000       0.00000000       0.10206629      -5.64590157
N       -7.77651968      18.85705806      38.09463937      -0.00000000      -0.00000000      -0.10206629      -6.54647390
Al      -7.77651968      18.85705806      39.99220221      -0.00000000      -0.00000000       0.10206629      -5.64590157
N       -7.77651968      20.65296836      40.59415201      -0.00000000       0.00000000      -0.10206629      -6.54647390
Al      -7.77651968      20.65296836      42.49171485       0.00000000       0.00000000       0.10206629      -5.64590157
N       -7.77651968      18.85705806      43.09366464      -0.00000000      -0.00000000      -0.10206629      -6.54647390
Al      -9.33182361      21.55092350      -0.00000000      -0.00000000      -0.00000000       0.10206629      -5.64590157
N       -9.33182361      23.34683379       0.60194979       0.00000000       0.00000000      -0.10206629      -6.54647390
Al      -9.33182361      23.34683379       2.49951264       0.00000000       0.00000000       0.10206629      -5.64590157
N       -9.33182361      21.55092350       3.10146243      -0.00000000      -0.00000000      -0.10206629      -6.54647390
Al      -9.33182361      21.55092350       4.99902528      -0.00000000       0.00000000       0.10206629      -5.64590157
N       -9.33182361      23.34683379       5.60097507      -0.00000000       0.00000000      -0.10206629      -6.54647390
Al      -9.33182361      23.34683379       7.49853791       0.00000000       0.00000000       0.10206629      -5.64590157
N       -9.33182361      21.55092350       8.10048771      -0.00000000      -0.00000000      -0.10206629      -6.54647390
Al      -9.33182361      21.55092350       9.99805055      -0.00000000       0.00000000       0.10206629      -5.64590157
N       -9.33182361      23.34683379      10.60000035      -0.00000000       0.00000000      -0.10206629      -6.54647390
Al      -9.33182361      23.34683379      12.49756319       0.00000000       0.00000000       0.10206629      -5.64590157
N       -9.33182361      21.55092350      13.09951298      -0.00000000      -0.00000000      -0.10206629      -6.54647390
Al      -9.33182361      21.55092350      14.99707583      -0.00000000      -0.00000000       0.10206629      -5.64590157
N       -9.33182361      23.34683379      15.59902562      -0.00000000       0.00000000      -0.10206629      -6.54647390
Al      -9.33182361      23.34683379      17.49658847       0.00000000       0.00000000       0.10206629      -5.64590157
N       -9.33182361      21.55092350      18.09853826      -0.00000000      -0.00000000      -0.10206629      -6.54647390
Al      -9.33182361      21.55092350      19.99610111      -0.00000000      -0.00000000       0.10206629      -5.64590157
N       -9.33182361      23.34683379      20.59805090      -0.00000000       0.00000000      -0.10206629      -6.54647390
Al      -9.33182361      23.34683379      22.49561374       0.00000000       0.00000000       0.10206629      -5.64590157
N       -9.33182361      21.55092350      23.09756354      -0.00000000      -0.00000000      -0.10206629      -6.54647390
Al      -9.33182361      21.55092350      24.99512638      -0.00000000      -0.00000000       0.10206629      -5.64590157
N       -9.33182361      23.34683379      25.59707618       0.00000000       0.00000000      -0.10206629      -6.54647390
Al      -9.33182361      23.34683379      27.49463902       0.00000000       0.00000000       0.10206629      -5.64590157
N       -9.33182361      21.55092350      28.09658881      -0.00000000      -0.00000000      -0.10206629      -6.54647390
Al      -9.33182361      21.55092350      29.99415166      -0.00000000       0.00000000       0.10206629      -5.64590157
N       -9.33182361      23.34683379      30.59610145       0.00000000       0.00000000      -0.10206629      -6.54647390
Al      -9.33182361      23.34683379      32.49366430       0.00000000       0.00000000       0.10206629      -5.64590157
N       -9.33182361      21.55092350      33.09561409      -0.00000000      -0.00000000      -0.10206629      -6.54647390
Al      -9.33182361      21.55092350      34.99317694      -0.00000000      -0.00000000       0.10206629      -5.64590157
N       -9.33182361      23.34683379      35.59512673      -0.00000000       0.00000000      -0.10206629      -6.54647390
Al      -9.33182361      23.34683379      37.49268957       0.00000000       0.00000000       0.10206629      -5.64590157
N       -9.33182361      21.55092350      38.09463937      -0.00000000      -0.00000000      -0.10206629      -6.54647390
Al      -9.33182361      21.55092350      39.99220221      -0.00000000      -0.00000000       0.10206629      -5.64590157
N       -9.33182361      23.34683379      40.59415201       0.00000000       0.00000000      -0.10206629      -6.54647390
Al      -9.33182361      23.34683379      42.49171485       0.00000000       0.00000000       0.10206629      -5.64590157
N       -9.33182361      21.55092350      43.09366464      -0.00000000      -0.00000000      -0.10206629      -6.54647390
Al     -10.88712755      24.24478894      -0.00000000      -0.00000000      -0.00000000       0.10206629      -5.64590157
N      -10.88712755      26.04069923       0.60194979       0.00000000      -0.00000000      -0.10206629      -6.54647390
Al     -10.88712755      26.04069923       2.49951264       0.00000000      -0.00000000       0.10206629      -5.64590157
N      -10.88712755      24.24478894       3.10146243      -0.00000000      -0.00000000      -0.10206629      -6.54647390
Al     -10.88712755      24.24478894       4.99902528       0.00000000      -0.00000000       0.10206629      -5.64590157
N      -10.88712755      26.04069923       5.60097507       0.00000000      -0.00000000      -0.10206629      -6.54647390
Al     -10.88712755      26.04069923       7.49853791       0.00000000      -0.00000000       0.10206629      -5.64590157
N      -10.88712755      24.24478894       8.10048771      -0.00000000      -0.00000000      -0.10206629      -6.54647390
Al     -10.88712755      24.24478894       9.99805055       0.00000000      -0.00000000       0.10206629      -5.64590157
N      -10.88712755      26.04069923      10.60000035      -0.00000000      -0.00000000      -0.10206629      -6.54647390
Al     -10.88712755      26.04069923      12.49756319       0.00000000      -0.00000000       0.10206629      -5.64590157
N      -10.88712755      24.24478894      13.09951298      -0.00000000      -0.00000000      -0.10206629      -6.54647390
Al     -10.88712755      24.24478894      14.99707583       0.00000000      -0.00000000       0.10206629      -5.64590157
N      -10.88712755      26.04069923      15.59902562      -0.00000000      -0.00000000      -0.10206629      -6.54647390
Al     -10.88712755      26.04069923      17.49658847       0.00000000      -0.00000000       0.10206629      -5.64590157
N      -10.88712755      24.24478894      18.09853826      -0.00000000      -0.00000000      -0.10206629      -6.54647390
Al     -10.88712755      24.24478894      19.99610111       0.00000000      -0.00000000       0.10206629      -5.64590157
N      -10.88712755      26.04069923      20.59805090       0.00000000      -0.00000000      -0.10206629      -6.54647390
Al     -10.88712755      26.04069923      22.49561374       0.00000000      -0.00000000       0.10206629      -5.64590157
N      -10.88712755      24.24478894      23.09756354       0.00000000      -0.00000000      -0.10206629      -6.54647390
Al     -10.88712755      24.24478894      24.99512638       0.00000000      -0.00000000       0.10206629      -5.64590157
N      -10.88712755      26.04069923      25.59707618       0.00000000      -0.00000000      -0.10206629      -6.54647390
Al     -10.88712755      26.04069923      27.49463902       0.00000000      -0.00000000       0.10206629      -5.64590157
N      -10.88712755      24.24478894      28.09658881      -0.00000000      -0.00000000      -0.10206629      -6.54647390
Al     -10.88712755      24.24478894      29.99415166       0.00000000      -0.00000000       0.10206629      -5.64590157
N      -10.88712755      26.04069923      30.59610145       0.00000000      -0.00000000      -0.10206629      -6.54647390
Al     -10.88712755      26.04069923      32.49366430       0.00000000      -0.00000000       0.10206629      -5.64590157
N      -10.88712755      24.24478894      33.09561409      -0.00000000      -0.00000000      -0.10206629      -6.54647390
Al     -10.88712755      24.24478894      34.99317694       0.00000000      -0.00000000       0.10206629      -5.64590157
N      -10.88712755      26.04069923      35.59512673      -0.00000000      -0.00000000      -0.10206629      -6.54647390
Al     -10.88712755      26.04069923      37.49268957       0.00000000      -0.00000000       0.10206629      -5.64590157
N      -10.88712755      24.24478894      38.09463937      -0.00000000      -0.00000000      -0.10206629      -6.54647390
Al     -10.88712755      24.24478894      39.99220221       0.00000000      -0.00000000       0.10206629      -5.64590157
N      -10.88712755      26.04069923      40.59415201      -0.00000000      -0.00000000      -0.10206629      -6.54647390
Al     -10.88712755      26.04069923      42.49171485       0.00000000      -0.00000000       0.10206629      -5.64590157
N      -10.88712755      24.24478894      43.09366464      -0.00000000      -0.00000000      -0.10206629      -6.54647390
Al     -12.44243149      26.93865438      -0.00000000      -0.00000000      -0.00000000       0.10206629      -5.64590157
N      -12.44243149      28.73456467       0.60194979      -0.00000000       0.00000000      -0.10206629      -6.54647390
Al     -12.44243149      28.73456467       2.49951264      -0.00000000       0.00000000       0.10206629      -5.64590157
N      -12.44243149      26.93865438       3.10146243       0.00000000       0.00000000      -0.10206629      -6.54647390
Al     -12.44243149      26.93865438       4.99902528       0.00000000      -0.00000000       0.10206629      -5.64590157
N      -12.44243149      28.73456467       5.60097507      -0.00000000       0.00000000      -0.10206629      -6.54647390
Al     -12.44243149      28.73456467       7.49853791      -0.00000000       0.00000000       0.10206629      -5.64590157
N      -12.44243149      26.93865438       8.10048771      -0.00000000      -0.00000000      -0.10206629      -6.54647390
Al     -12.44243149      26.93865438       9.99805055       0.00000000      -0.00000000       0.10206629      -5.64590157
N      -12.44243149      28.73456467      10.60000035      -0.00000000       0.00000000      -0.10206629      -6.54647390
Al     -12.44243149      28.73456467      12.49756319      -0.00000000       0.00000000       0.10206629      -5.64590157
N      -12.44243149      26.93865438      13.09951298      -0.00000000      -0.00000000      -0.10206629      -6.54647390
Al     -12.44243149      26.93865438      14.99707583       0.00000000      -0.00000000       0.10206629      -5.64590157
N      -12.44243149      28.73456467      15.59902562      -0.00000000       0.00000000      -0.10206629      -6.54647390
Al     -12.44243149      28.73456467      17.49658847      -0.00000000       0.00000000       0.10206629      -5.64590157
N      -12.44243149      26.93865438      18.09853826      -0.00000000      -0.00000000      -0.10206629      -6.54647390
Al     -12.44243149      26.93865438      19.99610111       0.00000000      -0.00000000       0.10206629      -5.64590157
N      -12.44243149      28.73456467      20.59805090      -0.00000000       0.00000000      -0.10206629      -6.54647390
Al     -12.44243149      28.73456467      22.49561374      -0.00000000       0.00000000       0.10206629      -5.64590157
N      -12.44243149      26.93865438      23.09756354       0.00000000      -0.00000000      -0.10206629      -6.54647390
Al     -12.44243149      26.93865438      24.99512638      -0.00000000      -0.00000000       0.10206629      -5.64590157
N      -12.44243149      28.73456467      25.59707618      -0.00000000       0.00000000      -0.10206629      -6.54647390
Al     -12.44243149      28.73456467      27.49463902      -0.00000000       0.00000000       0.10206629      -5.64590157
N      -12.44243149      26.93865438      28.09658881       0.00000000      -0.00000000      -0.10206629      -6.54647390
Al     -12.44243149      26.93865438      29.99415166       0.00000000      -0.00000000       0.10206629      -5.64590157
N      -12.44243149      28.73456467      30.59610145      -0.00000000       0.00000000      -0.10206629      -6.54647390
Al     -12.44243149      28.73456467      32.49366430       0.00000000       0.00000000       0.10206629      -5.64590157
N      -12.44243149      26.93865438      33.09561409      -0.00000000      -0.00000000      -0.10206629      -6.54647390
Al     -12.44243149      26.93865438      34.99317694       0.00000000      -0.00000000       0.10206629      -5.64590157
N      -12.44243149      28.73456467      35.59512673      -0.00000000       0.00000000      -0.10206629      -6.54647390
Al     -12.44243149      28.73456467      37.49268957      -0.00000000       0.00000000       0.10206629      -5.64590157
N      -12.44243149      26.93865438      38.09463937      -0.00000000      -0.00000000      -0.10206629      -6.54647390
Al     -12.44243149      26.93865438      39.99220221       0.00000000      -0.00000000       0.10206629      -5.64590157
N      -12.44243149      28.73456467      40.59415201      -0.00000000       0.00000000      -0.10206629      -6.54647390
Al     -12.44243149      28.73456467      42.49171485      -0.00000000       0.00000000       0.10206629      -5.64590157
N      -12.44243149      26.93865438      43.09366464       0.00000000      -0.00000000      -0.10206629      -6.54647390
Al     -13.99773542      29.63251982      -0.00000000       0.00000000       0.00000000       0.10206629      -5.64590157
N      -13.99773542      31.42843011       0.60194979      -0.00000000      -0.00000000      -0.10206629      -6.54647390
Al     -13.99773542      31.42843011       2.49951264      -0.00000000      -0.00000000       0.10206629      -5.64590157
N      -13.99773542      29.63251982       3.10146243       0.00000000       0.00000000      -0.10206629      -6.54647390
Al     -13.99773542      29.63251982       4.99902528       0.00000000       0.00000000       0.10206629      -5.64590157
N      -13.99773542      31.42843011       5.60097507      -0.00000000      -0.00000000      -0.10206629      -6.54647390
Al     -13.99773542      31.42843011       7.49853791      -0.00000000      -0.00000000       0.10206629      -5.64590157
N      -13.99773542      29.63251982       8.10048771       0.00000000       0.00000000      -0.10206629      -6.54647390
Al     -13.99773542      29.63251982       9.99805055       0.00000000       0.00000000       0.10206629      -5.64590157
N      -13.99773542      31.42843011      10.60000035      -0.00000000      -0.00000000      -0.10206629      -6.54647390
Al     -13.99773542      31.42843011      12.49756319      -0.00000000      -0.00000000       0.10206629      -5.64590157
N      -13.99773542      29.63251982      13.09951298       0.00000000       0.00000000      -0.10206629      -6.54647390
Al     -13.99773542      29.63251982      14.99707583       0.00000000       0.00000000       0.10206629      -5.64590157
N      -13.99773542      31.42843011      15.59902562      -0.00000000      -0.00000000      -0.10206629      -6.54647390
Al     -13.99773542      31.42843011      17.49658847      -0.00000000      -0.00000000       0.10206629      -5.64590157
N      -13.99773542      29.63251982      18.09853826       0.00000000       0.00000000      -0.10206629      -6.54647390
Al     -13.99773542      29.63251982      19.99610111       0.00000000       0.00000000       0.10206629      -5.64590157
N      -13.99773542      31.42843011      20.59805090      -0.00000000      -0.00000000      -0.10206629      -6.54647390
Al     -13.99773542      31.42843011      22.49561374      -0.00000000      -0.00000000       0.10206629      -5.64590157
N      -13.99773542      29.63251982      23.09756354       0.00000000       0.00000000      -0.10206629      -6.54647390
Al     -13.99773542      29.63251982      24.99512638       0.00000000       0.00000000       0.10206629      -5.64590157
N      -13.99773542      31.42843011      25.59707618      -0.00000000      -0.00000000      -0.10206629      -6.54647390
Al     -13.99773542      31.42843011      27.49463902      -0.00000000      -0.00000000       0.10206629      -5.64590157
N      -13.99773542      29.63251982      28.09658881       0.00000000       0.00000000      -0.10206629      -6.54647390
Al     -13.99773542      29.63251982      29.99415166       0.00000000       0.00000000       0.10206629      -5.64590157
N      -13.99773542      31.42843011      30.59610145      -0.00000000      -0.00000000      -0.10206629      -6.54647390
Al     -13.99773542      31.42843011      32.49366430      -0.00000000      -0.00000000       0.10206629      -5.64590157
N      -13.99773542      29.63251982      33.09561409       0.00000000       0.00000000      -0.10206629      -6.54647390
Al     -13.99773542      29.63251982      34.99317694       0.00000000       0.00000000       0.10206629      -5.64590157
N      -13.99773542      31.42843011      35.59512673      -0.00000000      -0.00000000      -0.10206629      -6.54647390
Al     -13.99773542      31.42843011      37.49268957      -0.00000000      -0.00000000       0.10206629      -5.64590157
N      -13.99773542      29.63251982      38.09463937       0.00000000       0.00000000      -0.10206629      -6.54647390
Al     -13.99773542      29.63251982      39.99220221       0.00000000       0.00000000       0.10206629      -5.64590157
N      -13.99773542      31.42843011      40.59415201      -0.00000000      -0.00000000      -0.10206629      -6.54647390
Al     -13.99773542      31.42843011      42.49171485      -0.00000000      -0.00000000       0.10206629      -5.64590157
N      -13.99773542      29.63251982      43.09366464       0.00000000       0.00000000      -0.10206629      -6.54647390
Al     -15.55303936      32.32638525      -0.00000000       0.00000000       0.00000000       0.10206629      -5.64590157
N      -15.55303936      34.12229555       0.60194979       0.00000000      -0.00000000      -0.10206629      -6.54647390
Al     -15.55303936      34.12229555       2.49951264       0.00000000      -0.00000000       0.10206629      -5.64590157
N      -15.55303936      32.32638525       3.10146243       0.00000000       0.00000000      -0.10206629      -6.54647390
Al     -15.55303936      32.32638525       4.99902528       0.00000000       0.00000000       0.10206629      -5.64590157
N      -15.55303936      34.12229555       5.60097507       0.00000000      -0.00000000      -0.10206629      -6.54647390
Al     -15.55303936      34.12229555       7.49853791       0.00000000       0.00000000       0.10206629      -5.64590157
N      -15.55303936      32.32638525       8.10048771      -0.00000000       0.00000000      -0.10206629      -6.54647390
Al     -15.55303936      32.32638525       9.99805055       0.00000000       0.00000000       0.10206629      -5.64590157
N      -15.55303936      34.12229555      10.60000035       0.00000000      -0.00000000      -0.10206629      -6.54647390
Al     -15.55303936      34.12229555      12.49756319       0.00000000      -0.00000000       0.10206629      -5.64590157
N      -15.55303936      32.32638525      13.09951298       0.00000000       0.00000000      -0.10206629      -6.54647390
Al     -15.55303936      32.32638525      14.99707583       0.00000000       0.00000000       0.10206629      -5.64590157
N      -15.55303936      34.12229555      15.59902562       0.00000000      -0.00000000      -0.10206629      -6.54647390
Al     -15.55303936      34.12229555      17.49658847       0.00000000      -0.00000000       0.10206629      -5.64590157
N      -15.55303936      32.32638525      18.09853826       0.00000000       0.00000000      -0.10206629      -6.54647390
Al     -15.55303936      32.32638525      19.99610111       0.00000000       0.00000000       0.10206629      -5.64590157
N      -15.55303936      34.12229555      20.59805090       0.00000000      -0.00000000      -0.10206629      -6.54647390
Al     -15.55303936      34.12229555      22.49561374       0.00000000      -0.00000000       0.10206629      -5.64590157
N      -15.55303936      32.32638525      23.09756354       0.00000000       0.00000000      -0.10206629      -6.54647390
Al     -15.55303936      32.32638525      24.99512638       0.00000000       0.00000000       0.10206629      -5.64590157
N      -15.55303936      34.12229555      25.59707618       0.00000000      -0.00000000      -0.10206629      -6.54647390
Al     -15.55303936      34.12229555      27.49463902       0.00000000      -0.00000000       0.10206629      -5.64590157
N      -15.55303936      32.32638525      28.09658881       0.00000000       0.00000000      -0.10206629      -6.54647390
Al     -15.55303936      32.32638525      29.99415166       0.00000000       0.00000000       0.10206629      -5.64590157
N      -15.55303936      34.12229555      30.59610145       0.00000000      -0.00000000      -0.10206629      -6.54647390
Al     -15.55303936      34.12229555      32.49366430       0.00000000       0.00000000       0.10206629      -5.64590157
N      -15.55303936      32.32638525      33.09561409       0.00000000       0.00000000      -0.10206629      -6.54647390
Al     -15.55303936      32.32638525      34.99317694       0.00000000       0.00000000       0.10206629      -5.64590157
N      -15.55303936      34.12229555      35.59512673       0.00000000      -0.00000000      -0.10206629      -6.54647390
Al     -15.55303936      34.12229555      37.49268957       0.00000000      -0.00000000       0.10206629      -5.64590157
N      -15.55303936      32.32638525      38.09463937       0.00000000       0.00000000      -0.10206629      -6.54647390
Al     -15.55303936      32.32638525      39.99220221       0.00000000       0.00000000       0.10206629      -5.64590157
N      -15.55303936      34.12229555      40.59415201       0.00000000      -0.00000000      -0.10206629      -6.54647390
Al     -15.55303936      34.12229555      42.49171485       0.00000000      -0.00000000       0.10206629      -5.64590157
N      -15.55303936      32.32638525      43.09366464       0.00000000       0.00000000      -0.10206629      -6.54647390
Al     -17.10834329      35.02025069      -0.00000000      -0.00000000       0.00000000       0.10206629      -5.64590157
N      -17.10834329      36.81616098       0.60194979      -0.00000000      -0.00000000      -0.10206629      -6.54647390
Al     -17.10834329      36.81616098       2.49951264      -0.00000000      -0.00000000       0.10206629      -5.64590157
N      -17.10834329      35.02025069       3.10146243      -0.00000000      -0.00000000      -0.10206629      -6.54647390
Al     -17.10834329      35.02025069       4.99902528      -0.00000000       0.00000000       0.10206629      -5.64590157
N      -17.10834329      36.81616098       5.60097507      -0.00000000      -0.00000000      -0.10206629      -6.54647390
Al     -17.10834329      36.81616098       7.49853791      -0.00000000      -0.00000000       0.10206629      -5.64590157
N      -17.10834329      35.02025069       8.10048771      -0.00000000       0.00000000      -0.10206629      -6.54647390
Al     -17.10834329      35.02025069       9.99805055      -0.00000000       0.00000000       0.10206629      -5.64590157
N      -17.10834329      36.81616098      10.60000035      -0.00000000      -0.00000000      -0.10206629      -6.54647390
Al     -17.10834329      36.81616098      12.49756319      -0.00000000      -0.00000000       0.10206629      -5.64590157
N      -17.10834329      35.02025069      13.09951298      -0.00000000      -0.00000000      -0.10206629      -6.54647390
Al     -17.10834329      35.02025069      14.99707583      -0.00000000       0.00000000       0.10206629      -5.64590157
N      -17.10834329      36.81616098      15.59902562      -0.00000000      -0.00000000      -0.10206629      -6.54647390
Al     -17.10834329      36.81616098      17.49658847      -0.00000000      -0.00000000       0.10206629      -5.64590157
N      -17.10834329      35.02025069      18.09853826      -0.00000000      -0.00000000      -0.10206629      -6.54647390
Al     -17.10834329      35.02025069      19.99610111      -0.00000000       0.00000000       0.10206629      -5.64590157
N      -17.10834329      36.81616098      20.59805090      -0.00000000      -0.00000000      -0.10206629      -6.54647390
Al     -17.10834329      36.81616098      22.49561374      -0.00000000      -0.00000000       0.10206629      -5.64590157
N      -17.10834329      35.02025069      23.09756354      -0.00000000       0.00000000      -0.10206629      -6.54647390
Al     -17.10834329      35.02025069      24.99512638      -0.00000000       0.00000000       0.10206629      -5.64590157
N      -17.10834329      36.81616098      25.59707618      -0.00000000      -0.00000000      -0.10206629      -6.54647390
Al     -17.10834329      36.81616098      27.49463902      -0.00000000      -0.00000000       0.10206629      -5.64590157
N      -17.10834329      35.02025069      28.09658881      -0.00000000      -0.00000000      -0.10206629      -6.54647390
Al     -17.10834329      35.02025069      29.99415166      -0.00000000       0.00000000       0.10206629      -5.64590157
N      -17.10834329      36.81616098      30.59610145      -0.00000000      -0.00000000      -0.10206629      -6.54647390
Al     -17.10834329      36.81616098      32.49366430      -0.00000000      -0.00000000       0.10206629      -5.64590157
N      -17.10834329      35.02025069      33.09561409      -0.00000000       0.00000000      -0.10206629      -6.54647390
Al     -17.10834329      35.02025069      34.99317694      -0.00000000       0.00000000       0.10206629      -5.64590157
N      -17.10834329      36.81616098      35.59512673      -0.00000000      -0.00000000      -0.10206629      -6.54647390
Al     -17.10834329      36.81616098      37.49268957      -0.00000000      -0.00000000       0.10206629      -5.64590157
N      -17.10834329      35.02025069      38.09463937      -0.00000000      -0.00000000      -0.10206629      -6.54647390
Al     -17.10834329      35.02025069      39.99220221      -0.00000000       0.00000000       0.10206629      -5.64590157
N      -17.10834329      36.81616098      40.59415201      -0.00000000      -0.00000000      -0.10206629      -6.54647390
Al     -17.10834329      36.81616098      42.49171485      -0.00000000      -0.00000000       0.10206629      -5.64590157
N      -17.10834329      35.02025069      43.09366464      -0.00000000       0.00000000      -0.10206629      -6.54647390
Al     -18.66364723      37.71411613      -0.00000000       0.00000000      -0.00000000       0.10206629      -5.64590157
N      -18.66364723      39.51002642       0.60194979       0.00000000       0.00000000      -0.10206629      -6.54647390
Al     -18.66364723      39.51002642       2.49951264       0.00000000       0.00000000       0.10206629      -5.64590157
N      -18.66364723      37.71411613       3.10146243       0.00000000      -0.00000000      -0.10206629      -6.54647390
Al     -18.66364723      37.71411613       4.99902528       0.00000000      -0.00000000       0.10206629      -5.64590157
N      -18.66364723      39.51002642       5.60097507       0.00000000       0.00000000      -0.10206629      -6.54647390
Al     -18.66364723      39.51002642       7.49853791       0.00000000       0.00000000       0.10206629      -5.64590157
N      -18.66364723      37.71411613       8.10048771       0.00000000      -0.00000000      -0.10206629      -6.54647390
Al     -18.66364723      37.71411613       9.99805055       0.00000000      -0.00000000       0.10206629      -5.64590157
N      -18.66364723      39.51002642      10.60000035       0.00000000       0.00000000      -0.10206629      -6.54647390
Al     -18.66364723      39.51002642      12.49756319       0.00000000       0.00000000       0.10206629      -5.64590157
N      -18.66364723      37.71411613      13.09951298       0.00000000      -0.00000000      -0.10206629      -6.54647390
Al     -18.66364723      37.71411613      14.99707583       0.00000000      -0.00000000       0.10206629      -5.64590157
N      -18.66364723      39.51002642      15.59902562       0.00000000       0.00000000      -0.10206629      -6.54647390
Al     -18.66364723      39.51002642      17.49658847       0.00000000       0.00000000       0.10206629      -5.64590157
N      -18.66364723      37.71411613      18.09853826       0.00000000      -0.00000000      -0.10206629      -6.54647390
Al     -18.66364723      37.71411613      19.99610111       0.00000000      -0.00000000       0.10206629      -5.64590157
N      -18.66364723      39.51002642      20.59805090       0.00000000       0.00000000      -0.10206629      -6.54647390
Al     -18.66364723      39.51002642      22.49561374       0.00000000       0.00000000       0.10206629      -5.64590157
N      -18.66364723      37.71411613      23.09756354       0.00000000      -0.00000000      -0.10206629      -6.54647390
Al     -18.66364723      37.71411613      24.99512638       0.00000000      -0.00000000       0.10206629      -5.64590157
N      -18.66364723      39.51002642      25.59707618       0.00000000       0.00000000      -0.10206629      -6.54647390
Al     -18.66364723      39.51002642      27.49463902       0.00000000       0.00000000       0.10206629      -5.64590157
N      -18.66364723      37.71411613      28.09658881       0.00000000      -0.00000000      -0.10206629      -6.54647390
Al     -18.66364723      37.71411613      29.99415166       0.00000000      -0.00000000       0.10206629      -5.64590157
N      -18.66364723      39.51002642      30.59610145       0.00000000       0.00000000      -0.10206629      -6.54647390
Al     -18.66364723      39.51002642      32.49366430       0.00000000       0.00000000       0.10206629      -5.64590157
N      -18.66364723      37.71411613      33.09561409       0.00000000      -0.00000000      -0.10206629      -6.54647390
Al     -18.66364723      37.71411613      34.99317694       0.00000000      -0.00000000       0.10206629      -5.64590157
N      -18.66364723      39.51002642      35.59512673       0.00000000       0.00000000      -0.10206629      -6.54647390
Al     -18.66364723      39.51002642      37.49268957       0.00000000       0.00000000       0.10206629      -5.64590157
N      -18.66364723      37.71411613      38.09463937       0.00000000      -0.00000000      -0.10206629      -6.54647390
Al     -18.66364723      37.71411613      39.99220221       0.00000000      -0.00000000       0.10206629      -5.64590157
N      -18.66364723      39.51002642      40.59415201       0.00000000       0.00000000      -0.10206629      -6.54647390
Al     -18.66364723      39.51002642      42.49171485       0.00000000       0.00000000       0.10206629      -5.64590157
N      -18.66364723      37.71411613      43.09366464       0.00000000      -0.00000000      -0.10206629      -6.54647390
Al       6.22121574      -0.00000000       0.00000000      -0.00000000      -0.00000000       0.10206629      -5.64590157
N        6.22121574       1.79591029       0.60194979       0.00000000       0.00000000      -0.10206629      -6.54647390
Al       6.22121574       1.79591029       2.49951264       0.00000000      -0.00000000       0.10206629      -5.64590157
N        6.22121574      -0.00000000       3.10146243      -0.00000000      -0.00000000      -0.10206629      -6.54647390
Al       6.22121574      -0.00000000       4.99902528      -0.00000000      -0.00000000       0.10206629      -5.64590157
N        6.22121574       1.79591029       5.60097507       0.00000000       0.00000000      -0.10206629      -6.54647390
Al       6.22121574       1.79591029       7.49853791       0.00000000      -0.00000000       0.10206629      -5.64590157
N        6.22121574      -0.00000000       8.10048771      -0.00000000      -0.00000000      -0.10206629      -6.54647390
Al       6.22121574      -0.00000000       9.99805055      -0.00000000      -0.00000000       0.10206629      -5.64590157
N        6.22121574       1.79591029      10.60000035       0.00000000       0.00000000      -0.10206629      -6.54647390
Al       6.22121574       1.79591029      12.49756319       0.00000000      -0.00000000       0.10206629      -5.64590157
N        6.22121574      -0.00000000      13.09951298      -0.00000000      -0.00000000      -0.10206629      -6.54647390
Al       6.22121574      -0.00000000      14.99707583      -0.00000000      -0.00000000       0.10206629      -5.64590157
N        6.22121574       1.79591029      15.59902562       0.00000000      -0.00000000      -0.10206629      -6.54647390
Al       6.22121574       1.79591029      17.49658847       0.00000000       0.00000000       0.10206629      -5.64590157
N        6.22121574      -0.00000000      18.09853826      -0.00000000      -0.00000000      -0.10206629      -6.54647390
Al       6.22121574      -0.00000000      19.99610111      -0.00000000      -0.00000000       0.10206629      -5.64590157
N        6.22121574       1.79591029      20.59805090       0.00000000      -0.00000000      -0.10206629      -6.54647390
Al       6.22121574       1.79591029      22.49561374       0.00000000      -0.00000000       0.10206629      -5.64590157
N        6.22121574      -0.00000000      23.09756354      -0.00000000      -0.00000000      -0.10206629      -6.54647390
Al       6.22121574      -0.00000000      24.99512638      -0.00000000      -0.00000000       0.10206629      -5.64590157
N        6.22121574       1.79591029      25.59707618       0.00000000      -0.00000000      -0.10206629      -6.54647390
Al       6.22121574       1.79591029      27.49463902       0.00000000      -0.00000000       0.10206629      -5.64590157
N        6.22121574      -0.00000000      28.09658881      -0.00000000      -0.00000000      -0.10206629      -6.54647390
Al       6.22121574      -0.00000000      29.99415166      -0.00000000      -0.00000000       0.10206629      -5.64590157
N        6.22121574       1.79591029      30.59610145       0.00000000      -0.00000000      -0.10206629      -6.54647390
Al       6.22121574       1.79591029      32.49366430       0.00000000      -0.00000000       0.10206629      -5.64590157
N        6.22121574      -0.00000000      33.09561409      -0.00000000      -0.00000000      -0.10206629      -6.54647390
Al       6.22121574      -0.00000000      34.99317694      -0.00000000      -0.00000000       0.10206629      -5.64590157
N        6.22121574       1.79591029      35.59512673       0.00000000      -0.00000000      -0.10206629      -6.54647390
Al       6.22121574       1.79591029      37.49268957       0.00000000      -0.00000000       0.10206629      -5.64590157
N        6.22121574      -0.00000000      38.09463937      -0.00000000      -0.00000000      -0.10206629      -6.54647390
Al       6.22121574      -0.00000000      39.99220221      -0.00000000      -0.00000000       0.10206629      -5.64590157
N        6.22121574       1.79591029      40.59415201      -0.00000000      -0.00000000      -0.10206629      -6.54647390
Al       6.22121574       1.79591029      42.49171485      -0.00000000      -0.00000000       0.10206629      -5.64590157
N        6.22121574      -0.00000000      43.09366464      -0.00000000      -0.00000000      -0.10206629      -6.54647390
Al       4.66591181       2.69386544       0.00000000      -0.00000000      -0.00000000       0.10206629      -5.64590157
N        4.66591181       4.48977573       0.60194979       0.00000000      -0.00000000      -0.10206629      -6.54647390
Al       4.66591181       4.48977573       2.49951264       0.00000000      -0.00000000       0.10206629      -5.64590157
N        4.66591181       2.69386544       3.10146243      -0.00000000       0.00000000      -0.10206629      -6.54647390
Al       4.66591181       2.69386544       4.99902528      -0.00000000      -0.00000000       0.10206629      -5.64590157
N        4.66591181       4.48977573       5.60097507       0.00000000      -0.00000000      -0.10206629      -6.54647390
Al       4.66591181       4.48977573       7.49853791       0.00000000      -0.00000000       0.10206629      -5.64590157
N        4.66591181       2.69386544       8.10048771      -0.00000000      -0.00000000      -0.10206629      -6.54647390
Al       4.66591181       2.69386544       9.99805055      -0.00000000      -0.00000000       0.10206629      -5.64590157
N        4.66591181       4.48977573      10.60000035       0.00000000      -0.00000000      -0.10206629      -6.54647390
Al       4.66591181       4.48977573      12.49756319       0.00000000       0.00000000       0.10206629      -5.64590157
N        4.66591181       2.69386544      13.09951298      -0.00000000       0.00000000      -0.10206629      -6.54647390
Al       4.66591181       2.69386544      14.99707583      -0.00000000       0.00000000       0.10206629      -5.64590157
N        4.66591181       4.48977573      15.59902562       0.00000000      -0.00000000      -0.10206629      -6.54647390
Al       4.66591181       4.48977573      17.49658847       0.00000000       0.00000000       0.10206629      -5.64590157
N        4.66591181       2.69386544      18.09853826      -0.00000000       0.00000000      -0.10206629      -6.54647390
Al       4.66591181       2.69386544      19.99610111       0.00000000       0.00000000       0.10206629      -5.64590157
N        4.66591181       4.48977573      20.59805090       0.00000000       0.00000000      -0.10206629      -6.54647390
Al       4.66591181       4.48977573      22.49561374       0.00000000      -0.00000000       0.10206629      -5.64590157
N        4.66591181       2.69386544      23.09756354      -0.00000000       0.00000000      -0.10206629      -6.54647390
Al       4.66591181       2.69386544      24.99512638       0.00000000       0.00000000       0.10206629      -5.64590157
N        4.66591181       4.48977573      25.59707618       0.00000000       0.00000000      -0.10206629      -6.54647390
Al       4.66591181       4.48977573      27.49463902       0.00000000      -0.00000000       0.10206629      -5.64590157
N        4.66591181       2.69386544      28.09658881      -0.00000000       0.00000000      -0.10206629      -6.54647390
Al       4.66591181       2.69386544      29.99415166      -0.00000000       0.00000000       0.10206629      -5.64590157
N        4.66591181       4.48977573      30.59610145       0.00000000       0.00000000      -0.10206629      -6.54647390
Al       4.66591181       4.48977573      32.49366430       0.00000000       0.00000000       0.10206629      -5.64590157
N        4.66591181       2.69386544      33.09561409      -0.00000000       0.00000000      -0.10206629      -6.54647390
Al       4.66591181       2.69386544      34.99317694       0.00000000      -0.00000000       0.10206629      -5.64590157
N        4.66591181       4.48977573      35.59512673       0.00000000       0.00000000      -0.10206629      -6.54647390
Al       4.66591181       4.48977573      37.49268957       0.00000000      -0.00000000       0.10206629      -5.64590157
N        4.66591181       2.69386544      38.09463937      -0.00000000      -0.00000000      -0.10206629      -6.54647390
Al       4.66591181       2.69386544      39.99220221      -0.00000000      -0.00000000       0.10206629      -5.64590157
N        4.66591181       4.48977573      40.59415201      -0.00000000       0.00000000      -0.10206629      -6.54647390
Al       4.66591181       4.48977573      42.49171485      -0.00000000      -0.00000000       0.10206629      -5.64590157
N        4.66591181       2.69386544      43.09366464      -0.00000000       0.00000000      -0.10206629      -6.54647390
Al       3.11060787       5.38773088      -0.00000000      -0.00000000      -0.00000000       0.10206629      -5.64590157
N        3.11060787       7.18364117       0.60194979       0.00000000      -0.00000000      -0.10206629      -6.54647390
Al       3.11060787       7.18364117       2.49951264      -0.00000000      -0.00000000       0.10206629      -5.64590157
N        3.11060787       5.38773088       3.10146243      -0.00000000      -0.00000000      -0.10206629      -6.54647390
Al       3.11060787       5.38773088       4.99902528      -0.00000000      -0.00000000       0.10206629      -5.64590157
N        3.11060787       7.18364117       5.60097507       0.00000000      -0.00000000      -0.10206629      -6.54647390
Al       3.11060787       7.18364117       7.49853791      -0.00000000       0.00000000       0.10206629      -5.64590157
N        3.11060787       5.38773088       8.10048771      -0.00000000      -0.00000000      -0.10206629      -6.54647390
Al       3.11060787       5.38773088       9.99805055      -0.00000000       0.00000000       0.10206629      -5.64590157
N        3.11060787       7.18364117      10.60000035      -0.00000000      -0.00000000      -0.10206629      -6.54647390
Al       3.11060787       7.18364117      12.49756319       0.00000000       0.00000000       0.10206629      -5.64590157
N        3.11060787       5.38773088      13.09951298      -0.00000000      -0.00000000      -0.10206629      -6.54647390
Al       3.11060787       5.38773088      14.99707583       0.00000000       0.00000000       0.10206629      -5.64590157
N        3.11060787       7.18364117      15.59902562      -0.00000000      -0.00000000      -0.10206629      -6.54647390
Al       3.11060787       7.18364117      17.49658847       0.00000000       0.00000000       0.10206629      -5.64590157
N        3.11060787       5.38773088      18.09853826      -0.00000000      -0.00000000      -0.10206629      -6.54647390
Al       3.11060787       5.38773088      19.99610111      -0.00000000       0.00000000       0.10206629      -5.64590157
N        3.11060787       7.18364117      20.59805090      -0.00000000      -0.00000000      -0.10206629      -6.54647390
Al       3.11060787       7.18364117      22.49561374       0.00000000       0.00000000       0.10206629      -5.64590157
N        3.11060787       5.38773088      23.09756354      -0.00000000       0.00000000      -0.10206629      -6.54647390
Al       3.11060787       5.38773088      24.99512638      -0.00000000      -0.00000000       0.10206629      -5.64590157
N        3.11060787       7.18364117      25.59707618      -0.00000000      -0.00000000      -0.10206629      -6.54647390
Al       3.11060787       7.18364117      27.49463902      -0.00000000       0.00000000       0.10206629      -5.64590157
N        3.11060787       5.38773088      28.09658881      -0.00000000       0.00000000      -0.10206629      -6.54647390
Al       3.11060787       5.38773088      29.99415166      -0.00000000      -0.00000000       0.10206629      -5.64590157
N        3.11060787       7.18364117      30.59610145       0.00000000       0.00000000      -0.10206629      -6.54647390
Al       3.11060787       7.18364117      32.49366430       0.00000000       0.00000000       0.10206629      -5.64590157
N        3.11060787       5.38773088      33.09561409      -0.00000000      -0.00000000      -0.10206629      -6.54647390
Al       3.11060787       5.38773088      34.99317694      -0.00000000      -0.00000000       0.10206629      -5.64590157
N        3.11060787       7.18364117      35.59512673      -0.00000000       0.00000000      -0.10206629      -6.54647390
Al       3.11060787       7.18364117      37.49268957      -0.00000000       0.00000000       0.10206629      -5.64590157
N        3.11060787       5.38773088      38.09463937      -0.00000000      -0.00000000      -0.10206629      -6.54647390
Al       3.11060787       5.38773088      39.99220221      -0.00000000      -0.00000000       0.10206629      -5.64590157
N        3.11060787       7.18364117      40.59415201      -0.00000000      -0.00000000      -0.10206629      -6.54647390
Al       3.11060787       7.18364117      42.49171485      -0.00000000       0.00000000       0.10206629      -5.64590157
N        3.11060787       5.38773088      43.09366464      -0.00000000      -0.00000000      -0.10206629      -6.54647390
Al       1.55530394       8.08159631      -0.00000000      -0.00000000       0.00000000       0.10206629      -5.64590157
N        1.55530394       9.87750661       0.60194979       0.00000000       0.00000000      -0.10206629      -6.54647390
Al       1.55530394       9.87750661       2.49951264       0.00000000       0.00000000       0.10206629      -5.64590157
N        1.55530394       8.08159631       3.10146243      -0.00000000       0.00000000      -0.10206629      -6.54647390
Al       1.55530394       8.08159631       4.99902528      -0.00000000       0.00000000       0.10206629      -5.64590157
N        1.55530394       9.87750661       5.60097507      -0.00000000       0.00000000      -0.10206629      -6.54647390
Al       1.55530394       9.87750661       7.49853791       0.00000000       0.00000000       0.10206629      -5.64590157
N        1.55530394       8.08159631       8.10048771      -0.00000000      -0.00000000      -0.10206629      -6.54647390
Al       1.55530394       8.08159631       9.99805055       0.00000000       0.00000000       0.10206629      -5.64590157
N        1.55530394       9.87750661      10.60000035      -0.00000000       0.00000000      -0.10206629      -6.54647390
Al       1.55530394       9.87750661      12.49756319      -0.00000000       0.00000000       0.10206629      -5.64590157
N        1.55530394       8.08159631      13.09951298      -0.00000000      -0.00000000      -0.10206629      -6.54647390
Al       1.55530394       8.08159631      14.99707583       0.00000000       0.00000000       0.10206629      -5.64590157
N        1.55530394       9.87750661      15.59902562      -0.00000000       0.00000000      -0.10206629      -6.54647390
Al       1.55530394       9.87750661      17.49658847       0.00000000       0.00000000       0.10206629      -5.64590157
N        1.55530394       8.08159631      18.09853826      -0.00000000      -0.00000000      -0.10206629      -6.54647390
Al       1.55530394       8.08159631      19.99610111       0.00000000       0.00000000       0.10206629      -5.64590157
N        1.55530394       9.87750661      20.59805090      -0.00000000       0.00000000      -0.10206629      -6.54647390
Al       1.55530394       9.87750661      22.49561374       0.00000000       0.00000000       0.10206629      -5.64590157
N        1.55530394       8.08159631      23.09756354      -0.00000000      -0.00000000      -0.10206629      -6.54647390
Al       1.55530394       8.08159631      24.99512638       0.00000000      -0.00000000       0.10206629      -5.64590157
N        1.55530394       9.87750661      25.59707618      -0.00000000       0.00000000      -0.10206629      -6.54647390
Al       1.55530394       9.87750661      27.49463902      -0.00000000       0.00000000       0.10206629      -5.64590157
N        1.55530394       8.08159631      28.09658881       0.00000000      -0.00000000      -0.10206629      -6.54647390
Al       1.55530394       8.08159631      29.99415166       0.00000000      -0.00000000       0.10206629      -5.64590157
N        1.55530394       9.87750661      30.59610145      -0.00000000       0.00000000      -0.10206629      -6.54647390
Al       1.55530394       9.87750661      32.49366430       0.00000000       0.00000000       0.10206629      -5.64590157
N        1.55530394       8.08159631      33.09561409      -0.00000000       0.00000000      -0.10206629      -6.54647390
Al       1.55530394       8.08159631      34.99317694      -0.00000000       0.00000000       0.10206629      -5.64590157
N        1.55530394       9.87750661      35.59512673       0.00000000       0.00000000      -0.10206629      -6.54647390
Al       1.55530394       9.87750661      37.49268957      -0.00000000       0.00000000       0.10206629      -5.64590157
N        1.55530394       8.08159631      38.09463937      -0.00000000      -0.00000000      -0.10206629      -6.54647390
Al       1.55530394       8.08159631      39.99220221       0.00000000       0.00000000       0.10206629      -5.64590157
N        1.55530394       9.87750661      40.59415201      -0.00000000      -0.00000000      -0.10206629      -6.54647390
Al       1.55530394       9.87750661      42.49171485      -0.00000000       0.00000000       0.10206629      -5.64590157
N        1.55530394       8.08159631      43.09366464       0.00000000       0.00000000      -0.10206629      -6.54647390
Al       0.00000000      10.77546175      -0.00000000      -0.00000000       0.00000000       0.10206629      -5.64590157
N       -0.00000000      12.57137204       0.60194979       0.00000000      -0.00000000      -0.10206629      -6.54647390
Al      -0.00000000      12.57137204       2.49951264      -0.00000000      -0.00000000       0.10206629      -5.64590157
N        0.00000000      10.77546175       3.10146243      -0.00000000      -0.00000000      -0.10206629      -6.54647390
Al       0.00000000      10.77546175       4.99902528      -0.00000000      -0.00000000       0.10206629      -5.64590157
N       -0.00000000      12.57137204       5.60097507      -0.00000000      -0.00000000      -0.10206629      -6.54647390
Al      -0.00000000      12.57137204       7.49853791       0.00000000      -0.00000000       0.10206629      -5.64590157
N        0.00000000      10.77546175       8.10048771      -0.00000000      -0.00000000      -0.10206629      -6.54647390
Al       0.00000000      10.77546175       9.99805055       0.00000000      -0.00000000       0.10206629      -5.64590157
N       -0.00000000      12.57137204      10.60000035       0.00000000      -0.00000000      -0.10206629      -6.54647390
Al      -0.00000000      12.57137204      12.49756319       0.00000000      -0.00000000       0.10206629      -5.64590157
N        0.00000000      10.77546175      13.09951298      -0.00000000      -0.00000000      -0.10206629      -6.54647390
Al       0.00000000      10.77546175      14.99707583       0.00000000      -0.00000000       0.10206629      -5.64590157
N        0.00000000      12.57137204      15.59902562       0.00000000      -0.00000000      -0.10206629      -6.54647390
Al       0.00000000      12.57137204      17.49658847      -0.00000000      -0.00000000       0.10206629      -5.64590157
N        0.00000000      10.77546175      18.09853826      -0.00000000      -0.00000000      -0.10206629      -6.54647390
Al       0.00000000      10.77546175      19.99610111       0.00000000       0.00000000       0.10206629      -5.64590157
N        0.00000000      12.57137204      20.59805090       0.00000000      -0.00000000      -0.10206629      -6.54647390
Al       0.00000000      12.57137204      22.49561374       0.00000000      -0.00000000       0.10206629      -5.64590157
N        0.00000000      10.77546175      23.09756354       0.00000000      -0.00000000      -0.10206629      -6.54647390
Al       0.00000000      10.77546175      24.99512638      -0.00000000       0.00000000       0.10206629      -5.64590157
N        0.00000000      12.57137204      25.59707618       0.00000000      -0.00000000      -0.10206629      -6.54647390
Al       0.00000000      12.57137204      27.49463902       0.00000000      -0.00000000       0.10206629      -5.64590157
N        0.00000000      10.77546175      28.09658881      -0.00000000      -0.00000000      -0.10206629      -6.54647390
Al       0.00000000      10.77546175      29.99415166       0.00000000       0.00000000       0.10206629      -5.64590157
N        0.00000000      12.57137204      30.59610145       0.00000000      -0.00000000      -0.10206629      -6.54647390
Al       0.00000000      12.57137204      32.49366430       0.00000000      -0.00000000       0.10206629      -5.64590157
N        0.00000000      10.77546175      33.09561409       0.00000000       0.00000000      -0.10206629      -6.54647390
Al       0.00000000      10.77546175      34.99317694       0.00000000      -0.00000000       0.10206629      -5.64590157
N        0.00000000      12.57137204      35.59512673       0.00000000      -0.00000000      -0.10206629      -6.54647390
Al       0.00000000      12.57137204      37.49268957       0.00000000      -0.00000000       0.10206629      -5.64590157
N        0.00000000      10.77546175      38.09463937      -0.00000000      -0.00000000      -0.10206629      -6.54647390
Al       0.00000000      10.77546175      39.99220221       0.00000000       0.00000000       0.10206629      -5.64590157
N        0.00000000      12.57137204      40.59415201       0.00000000      -0.00000000      -0.10206629      -6.54647390
Al       0.00000000      12.57137204      42.49171485      -0.00000000      -0.00000000       0.10206629      -5.64590157
N        0.00000000      10.77546175      43.09366464       0.00000000      -0.00000000      -0.10206629      -6.54647390
Al      -1.55530394      13.46932719      -0.00000000       0.00000000      -0.00000000       0.10206629      -5.64590157
N       -1.55530394      15.26523748       0.60194979       0.00000000      -0.00000000      -0.10206629      -6.54647390
Al      -1.55530394      15.26523748       2.49951264       0.00000000      -0.00000000       0.10206629      -5.64590157
N       -1.55530394      13.46932719       3.10146243       0.00000000       0.00000000      -0.10206629      -6.54647390
Al      -1.55530394      13.46932719       4.99902528       0.00000000      -0.00000000       0.10206629      -5.64590157
N       -1.55530394      15.26523748       5.60097507       0.00000000      -0.00000000      -0.10206629      -6.54647390
Al      -1.55530394      15.26523748       7.49853791      -0.00000000      -0.00000000       0.10206629      -5.64590157
N       -1.55530394      13.46932719       8.10048771      -0.00000000       0.00000000      -0.10206629      -6.54647390
Al      -1.55530394      13.46932719       9.99805055      -0.00000000      -0.00000000       0.10206629      -5.64590157
N       -1.55530394      15.26523748      10.60000035      -0.00000000      -0.00000000      -0.10206629      -6.54647390
Al      -1.55530394      15.26523748      12.49756319      -0.00000000       0.00000000       0.10206629      -5.64590157
N       -1.55530394      13.46932719      13.09951298      -0.00000000      -0.00000000      -0.10206629      -6.54647390
Al      -1.55530394      13.46932719      14.99707583      -0.00000000      -0.00000000       0.10206629      -5.64590157
N       -1.55530394      15.26523748      15.59902562      -0.00000000      -0.00000000      -0.10206629      -6.54647390
Al      -1.55530394      15.26523748      17.49658847      -0.00000000      -0.00000000       0.10206629      -5.64590157
N       -1.55530394      13.46932719      18.09853826      -0.00000000      -0.00000000      -0.10206629      -6.54647390
Al      -1.55530394      13.46932719      19.99610111      -0.00000000       0.00000000       0.10206629      -5.64590157
N       -1.55530394      15.26523748      20.59805090       0.00000000       0.00000000      -0.10206629      -6.54647390
Al      -1.55530394      15.26523748      22.49561374      -0.00000000       0.00000000       0.10206629      -5.64590157
N       -1.55530394      13.46932719      23.09756354      -0.00000000       0.00000000      -0.10206629      -6.54647390
Al      -1.55530394      13.46932719      24.99512638       0.00000000      -0.00000000       0.10206629      -5.64590157
N       -1.55530394      15.26523748      25.59707618       0.00000000       0.00000000      -0.10206629      -6.54647390
Al      -1.55530394      15.26523748      27.49463902       0.00000000      -0.00000000       0.10206629      -5.64590157
N       -1.55530394      13.46932719      28.09658881      -0.00000000      -0.00000000      -0.10206629      -6.54647390
Al      -1.55530394      13.46932719      29.99415166       0.00000000      -0.00000000       0.10206629      -5.64590157
N       -1.55530394      15.26523748      30.59610145       0.00000000      -0.00000000      -0.10206629      -6.54647390
Al      -1.55530394      15.26523748      32.49366430       0.00000000      -0.00000000       0.10206629      -5.64590157
N       -1.55530394      13.46932719      33.09561409       0.00000000      -0.00000000      -0.10206629      -6.54647390
Al      -1.55530394      13.46932719      34.99317694       0.00000000       0.00000000       0.10206629      -5.64590157
N       -1.55530394      15.26523748      35.59512673      -0.00000000      -0.00000000      -0.10206629      -6.54647390
Al      -1.55530394      15.26523748      37.49268957      -0.00000000       0.00000000       0.10206629      -5.64590157
N       -1.55530394      13.46932719      38.09463937      -0.00000000       0.00000000      -0.10206629      -6.54647390
Al      -1.55530394      13.46932719      39.99220221       0.00000000       0.00000000       0.10206629      -5.64590157
N       -1.55530394      15.26523748      40.59415201      -0.00000000       0.00000000      -0.10206629      -6.54647390
Al      -1.55530394      15.26523748      42.49171485      -0.00000000      -0.00000000       0.10206629      -5.64590157
N       -1.55530394      13.46932719      43.09366464      -0.00000000       0.00000000      -0.10206629      -6.54647390
Al      -3.11060787      16.16319263      -0.00000000      -0.00000000       0.00000000       0.10206629      -5.64590157
N       -3.11060787      17.95910292       0.60194979      -0.00000000      -0.00000000      -0.10206629      -6.54647390
Al      -3.11060787      17.95910292       2.49951264      -0.00000000      -0.00000000       0.10206629      -5.64590157
N       -3.11060787      16.16319263       3.10146243      -0.00000000       0.00000000      -0.10206629      -6.54647390
Al      -3.11060787      16.16319263       4.99902528      -0.00000000       0.00000000       0.10206629      -5.64590157
N       -3.11060787      17.95910292       5.60097507      -0.00000000      -0.00000000      -0.10206629      -6.54647390
Al      -3.11060787      17.95910292       7.49853791      -0.00000000       0.00000000       0.10206629      -5.64590157
N       -3.11060787      16.16319263       8.10048771      -0.00000000       0.00000000      -0.10206629      -6.54647390
Al      -3.11060787      16.16319263       9.99805055      -0.00000000       0.00000000       0.10206629      -5.64590157
N       -3.11060787      17.95910292      10.60000035       0.00000000      -0.00000000      -0.10206629      -6.54647390
Al      -3.11060787      17.95910292      12.49756319      -0.00000000       0.00000000       0.10206629      -5.64590157
N       -3.11060787      16.16319263      13.09951298      -0.00000000       0.00000000      -0.10206629      -6.54647390
Al      -3.11060787      16.16319263      14.99707583      -0.00000000       0.00000000       0.10206629      -5.64590157
N       -3.11060787      17.95910292      15.59902562       0.00000000      -0.00000000      -0.10206629      -6.54647390
Al      -3.11060787      17.95910292      17.49658847      -0.00000000      -0.00000000       0.10206629      -5.64590157
N       -3.11060787      16.16319263      18.09853826      -0.00000000       0.00000000      -0.10206629      -6.54647390
Al      -3.11060787      16.16319263      19.99610111       0.00000000       0.00000000       0.10206629      -5.64590157
N       -3.11060787      17.95910292      20.59805090      -0.00000000      -0.00000000      -0.10206629      -6.54647390
Al      -3.11060787      17.95910292      22.49561374      -0.00000000       0.00000000       0.10206629      -5.64590157
N       -3.11060787      16.16319263      23.09756354      -0.00000000       0.00000000      -0.10206629      -6.54647390
Al      -3.11060787      16.16319263      24.99512638       0.00000000       0.00000000       0.10206629      -5.64590157
N       -3.11060787      17.95910292      25.59707618      -0.00000000      -0.00000000      -0.10206629      -6.54647390
Al      -3.11060787      17.95910292      27.49463902      -0.00000000       0.00000000       0.10206629      -5.64590157
N       -3.11060787      16.16319263      28.09658881      -0.00000000       0.00000000      -0.10206629      -6.54647390
Al      -3.11060787      16.16319263      29.99415166       0.00000000       0.00000000       0.10206629      -5.64590157
N       -3.11060787      17.95910292      30.59610145      -0.00000000      -0.00000000      -0.10206629      -6.54647390
Al      -3.11060787      17.95910292      32.49366430      -0.00000000      -0.00000000       0.10206629      -5.64590157
N       -3.11060787      16.16319263      33.09561409      -0.00000000       0.00000000      -0.10206629      -6.54647390
Al      -3.11060787      16.16319263      34.99317694      -0.00000000       0.00000000       0.10206629      -5.64590157
N       -3.11060787      17.95910292      35.59512673      -0.00000000      -0.00000000      -0.10206629      -6.54647390
Al      -3.11060787      17.95910292      37.49268957      -0.00000000      -0.00000000       0.10206629      -5.64590157
N       -3.11060787      16.16319263      38.09463937      -0.00000000       0.00000000      -0.10206629      -6.54647390
Al      -3.11060787      16.16319263      39.99220221       0.00000000       0.00000000       0.10206629      -5.64590157
N       -3.11060787      17.95910292      40.59415201      -0.00000000      -0.00000000      -0.10206629      -6.54647390
Al      -3.11060787      17.95910292      42.49171485      -0.00000000      -0.00000000       0.10206629      -5.64590157
N       -3.11060787      16.16319263      43.09366464       0.00000000       0.00000000      -0.10206629      -6.54647390
Al      -4.66591181      18.85705806      -0.00000000       0.00000000      -0.00000000       0.10206629      -5.64590157
N       -4.66591181      20.65296836       0.60194979       0.00000000       0.00000000      -0.10206629      -6.54647390
Al      -4.66591181      20.65296836       2.49951264       0.00000000       0.00000000       0.10206629      -5.64590157
N       -4.66591181      18.85705806       3.10146243       0.00000000      -0.00000000      -0.10206629      -6.54647390
Al      -4.66591181      18.85705806       4.99902528       0.00000000      -0.00000000       0.10206629      -5.64590157
N       -4.66591181      20.65296836       5.60097507       0.00000000       0.00000000      -0.10206629      -6.54647390
Al      -4.66591181      20.65296836       7.49853791       0.00000000       0.00000000       0.10206629      -5.64590157
N       -4.66591181      18.85705806       8.10048771       0.00000000      -0.00000000      -0.10206629      -6.54647390
Al      -4.66591181      18.85705806       9.99805055       0.00000000      -0.00000000       0.10206629      -5.64590157
N       -4.66591181      20.65296836      10.60000035       0.00000000       0.00000000      -0.10206629      -6.54647390
Al      -4.66591181      20.65296836      12.49756319       0.00000000       0.00000000       0.10206629      -5.64590157
N       -4.66591181      18.85705806      13.09951298       0.00000000      -0.00000000      -0.10206629      -6.54647390
Al      -4.66591181      18.85705806      14.99707583       0.00000000      -0.00000000       0.10206629      -5.64590157
N       -4.66591181      20.65296836      15.59902562       0.00000000       0.00000000      -0.10206629      -6.54647390
Al      -4.66591181      20.65296836      17.49658847       0.00000000       0.00000000       0.10206629      -5.64590157
N       -4.66591181      18.85705806      18.09853826       0.00000000      -0.00000000      -0.10206629      -6.54647390
Al      -4.66591181      18.85705806      19.99610111       0.00000000      -0.00000000       0.10206629      -5.64590157
N       -4.66591181      20.65296836      20.59805090       0.00000000       0.00000000      -0.10206629      -6.54647390
Al      -4.66591181      20.65296836      22.49561374       0.00000000       0.00000000       0.10206629      -5.64590157
N       -4.66591181      18.85705806      23.09756354       0.00000000      -0.00000000      -0.10206629      -6.54647390
Al      -4.66591181      18.85705806      24.99512638       0.00000000      -0.00000000       0.10206629      -5.64590157
N       -4.66591181      20.65296836      25.59707618       0.00000000       0.00000000      -0.10206629      -6.54647390
Al      -4.66591181      20.65296836      27.49463902       0.00000000       0.00000000       0.10206629      -5.64590157
N       -4.66591181      18.85705806      28.09658881      -0.00000000      -0.00000000      -0.10206629      -6.54647390
Al      -4.66591181      18.85705806      29.99415166       0.00000000      -0.00000000       0.10206629      -5.64590157
N       -4.66591181      20.65296836      30.59610145       0.00000000       0.00000000      -0.10206629      -6.54647390
Al      -4.66591181      20.65296836      32.49366430       0.00000000       0.00000000       0.10206629      -5.64590157
N       -4.66591181      18.85705806      33.09561409       0.00000000      -0.00000000      -0.10206629      -6.54647390
Al      -4.66591181      18.85705806      34.99317694       0.00000000      -0.00000000       0.10206629      -5.64590157
N       -4.66591181      20.65296836      35.59512673       0.00000000       0.00000000      -0.10206629      -6.54647390
Al      -4.66591181      20.65296836      37.49268957       0.00000000       0.00000000       0.10206629      -5.64590157
N       -4.66591181      18.85705806      38.09463937       0.00000000      -0.00000000      -0.10206629      -6.54647390
Al      -4.66591181      18.85705806      39.99220221       0.00000000      -0.00000000       0.10206629      -5.64590157
N       -4.66591181      20.65296836      40.59415201       0.00000000       0.00000000      -0.10206629      -6.54647390
Al      -4.66591181      20.65296836      42.49171485       0.00000000       0.00000000       0.10206629      -5.64590157
N       -4.66591181      18.85705806      43.09366464       0.00000000      -0.00000000      -0.10206629      -6.54647390
Al      -6.22121574      21.55092350      -0.00000000      -0.00000000      -0.00000000       0.10206629      -5.64590157
N       -6.22121574      23.34683379       0.60194979       0.00000000       0.00000000      -0.10206629      -6.54647390
Al      -6.22121574      23.34683379       2.49951264       0.00000000       0.00000000       0.10206629      -5.64590157
N       -6.22121574      21.55092350       3.10146243      -0.00000000      -0.00000000      -0.10206629      -6.54647390
Al      -6.22121574      21.55092350       4.99902528      -0.00000000       0.00000000       0.10206629      -5.64590157
N       -6.22121574      23.34683379       5.60097507       0.00000000       0.00000000      -0.10206629      -6.54647390
Al      -6.22121574      23.34683379       7.49853791       0.00000000       0.00000000       0.10206629      -5.64590157
N       -6.22121574      21.55092350       8.10048771      -0.00000000      -0.00000000      -0.10206629      -6.54647390
Al      -6.22121574      21.55092350       9.99805055      -0.00000000       0.00000000       0.10206629      -5.64590157
N       -6.22121574      23.34683379      10.60000035      -0.00000000       0.00000000      -0.10206629      -6.54647390
Al      -6.22121574      23.34683379      12.49756319       0.00000000       0.00000000       0.10206629      -5.64590157
N       -6.22121574      21.55092350      13.09951298      -0.00000000      -0.00000000      -0.10206629      -6.54647390
Al      -6.22121574      21.55092350      14.99707583      -0.00000000       0.00000000       0.10206629      -5.64590157
N       -6.22121574      23.34683379      15.59902562       0.00000000       0.00000000      -0.10206629      -6.54647390
Al      -6.22121574      23.34683379      17.49658847       0.00000000       0.00000000       0.10206629      -5.64590157
N       -6.22121574      21.55092350      18.09853826      -0.00000000       0.00000000      -0.10206629      -6.54647390
Al      -6.22121574      21.55092350      19.99610111      -0.00000000       0.00000000       0.10206629      -5.64590157
N       -6.22121574      23.34683379      20.59805090       0.00000000       0.00000000      -0.10206629      -6.54647390
Al      -6.22121574      23.34683379      22.49561374       0.00000000       0.00000000       0.10206629      -5.64590157
N       -6.22121574      21.55092350      23.09756354      -0.00000000      -0.00000000      -0.10206629      -6.54647390
Al      -6.22121574      21.55092350      24.99512638       0.00000000       0.00000000       0.10206629      -5.64590157
N       -6.22121574      23.34683379      25.59707618       0.00000000       0.00000000      -0.10206629      -6.54647390
Al      -6.22121574      23.34683379      27.49463902       0.00000000       0.00000000       0.10206629      -5.64590157
N       -6.22121574      21.55092350      28.09658881      -0.00000000      -0.00000000      -0.10206629      -6.54647390
Al      -6.22121574      21.55092350      29.99415166      -0.00000000       0.00000000       0.10206629      -5.64590157
N       -6.22121574      23.34683379      30.59610145       0.00000000       0.00000000      -0.10206629      -6.54647390
Al      -6.22121574      23.34683379      32.49366430       0.00000000       0.00000000       0.10206629      -5.64590157
N       -6.22121574      21.55092350      33.09561409      -0.00000000       0.00000000      -0.10206629      -6.54647390
Al      -6.22121574      21.55092350      34.99317694      -0.00000000       0.00000000       0.10206629      -5.64590157
N       -6.22121574      23.34683379      35.59512673       0.00000000       0.00000000      -0.10206629      -6.54647390
Al      -6.22121574      23.34683379      37.49268957       0.00000000       0.00000000       0.10206629      -5.64590157
N       -6.22121574      21.55092350      38.09463937      -0.00000000       0.00000000      -0.10206629      -6.54647390
Al      -6.22121574      21.55092350      39.99220221      -0.00000000      -0.00000000       0.10206629      -5.64590157
N       -6.22121574      23.34683379      40.59415201       0.00000000       0.00000000      -0.10206629      -6.54647390
Al      -6.22121574      23.34683379      42.49171485      -0.00000000       0.00000000       0.10206629      -5.64590157
N       -6.22121574      21.55092350      43.09366464      -0.00000000       0.00000000      -0.10206629      -6.54647390
Al      -7.77651968      24.24478894      -0.00000000      -0.00000000      -0.00000000       0.10206629      -5.64590157
N       -7.77651968      26.04069923       0.60194979      -0.00000000      -0.00000000      -0.10206629      -6.54647390
Al      -7.77651968      26.04069923       2.49951264       0.00000000      -0.00000000       0.10206629      -5.64590157
N       -7.77651968      24.24478894       3.10146243      -0.00000000      -0.00000000      -0.10206629      -6.54647390
Al      -7.77651968      24.24478894       4.99902528      -0.00000000      -0.00000000       0.10206629      -5.64590157
N       -7.77651968      26.04069923       5.60097507       0.00000000       0.00000000      -0.10206629      -6.54647390
Al      -7.77651968      26.04069923       7.49853791       0.00000000      -0.00000000       0.10206629      -5.64590157
N       -7.77651968      24.24478894       8.10048771      -0.00000000      -0.00000000      -0.10206629      -6.54647390
Al      -7.77651968      24.24478894       9.99805055      -0.00000000      -0.00000000       0.10206629      -5.64590157
N       -7.77651968      26.04069923      10.60000035       0.00000000       0.00000000      -0.10206629      -6.54647390
Al      -7.77651968      26.04069923      12.49756319       0.00000000      -0.00000000       0.10206629      -5.64590157
N       -7.77651968      24.24478894      13.09951298      -0.00000000      -0.00000000      -0.10206629      -6.54647390
Al      -7.77651968      24.24478894      14.99707583      -0.00000000      -0.00000000       0.10206629      -5.64590157
N       -7.77651968      26.04069923      15.59902562       0.00000000       0.00000000      -0.10206629      -6.54647390
Al      -7.77651968      26.04069923      17.49658847       0.00000000      -0.00000000       0.10206629      -5.64590157
N       -7.77651968      24.24478894      18.09853826      -0.00000000      -0.00000000      -0.10206629      -6.54647390
Al      -7.77651968      24.24478894      19.99610111       0.00000000      -0.00000000       0.10206629      -5.64590157
N       -7.77651968      26.04069923      20.59805090       0.00000000      -0.00000000      -0.10206629      -6.54647390
Al      -7.77651968      26.04069923      22.49561374       0.00000000      -0.00000000       0.10206629      -5.64590157
N       -7.77651968      24.24478894      23.09756354      -0.00000000      -0.00000000      -0.10206629      -6.54647390
Al      -7.77651968      24.24478894      24.99512638      -0.00000000      -0.00000000       0.10206629      -5.64590157
N       -7.77651968      26.04069923      25.59707618       0.00000000       0.00000000      -0.10206629      -6.54647390
Al      -7.77651968      26.04069923      27.49463902       0.00000000      -0.00000000       0.10206629      -5.64590157
N       -7.77651968      24.24478894      28.09658881      -0.00000000      -0.00000000      -0.10206629      -6.54647390
Al      -7.77651968      24.24478894      29.99415166      -0.00000000      -0.00000000       0.10206629      -5.64590157
N       -7.77651968      26.04069923      30.59610145       0.00000000      -0.00000000      -0.10206629      -6.54647390
Al      -7.77651968      26.04069923      32.49366430       0.00000000      -0.00000000       0.10206629      -5.64590157
N       -7.77651968      24.24478894      33.09561409      -0.00000000      -0.00000000      -0.10206629      -6.54647390
Al      -7.77651968      24.24478894      34.99317694      -0.00000000      -0.00000000       0.10206629      -5.64590157
N       -7.77651968      26.04069923      35.59512673       0.00000000      -0.00000000      -0.10206629      -6.54647390
Al      -7.77651968      26.04069923      37.49268957       0.00000000      -0.00000000       0.10206629      -5.64590157
N       -7.77651968      24.24478894      38.09463937      -0.00000000      -0.00000000      -0.10206629      -6.54647390
Al      -7.77651968      24.24478894      39.99220221      -0.00000000      -0.00000000       0.10206629      -5.64590157
N       -7.77651968      26.04069923      40.59415201       0.00000000      -0.00000000      -0.10206629      -6.54647390
Al      -7.77651968      26.04069923      42.49171485       0.00000000      -0.00000000       0.10206629      -5.64590157
N       -7.77651968      24.24478894      43.09366464      -0.00000000      -0.00000000      -0.10206629      -6.54647390
Al      -9.33182361      26.93865438      -0.00000000      -0.00000000      -0.00000000       0.10206629      -5.64590157
N       -9.33182361      28.73456467       0.60194979      -0.00000000       0.00000000      -0.10206629      -6.54647390
Al      -9.33182361      28.73456467       2.49951264      -0.00000000       0.00000000       0.10206629      -5.64590157
N       -9.33182361      26.93865438       3.10146243      -0.00000000      -0.00000000      -0.10206629      -6.54647390
Al      -9.33182361      26.93865438       4.99902528       0.00000000      -0.00000000       0.10206629      -5.64590157
N       -9.33182361      28.73456467       5.60097507      -0.00000000       0.00000000      -0.10206629      -6.54647390
Al      -9.33182361      28.73456467       7.49853791      -0.00000000       0.00000000       0.10206629      -5.64590157
N       -9.33182361      26.93865438       8.10048771      -0.00000000      -0.00000000      -0.10206629      -6.54647390
Al      -9.33182361      26.93865438       9.99805055      -0.00000000      -0.00000000       0.10206629      -5.64590157
N       -9.33182361      28.73456467      10.60000035      -0.00000000       0.00000000      -0.10206629      -6.54647390
Al      -9.33182361      28.73456467      12.49756319      -0.00000000       0.00000000       0.10206629      -5.64590157
N       -9.33182361      26.93865438      13.09951298      -0.00000000       0.00000000      -0.10206629      -6.54647390
Al      -9.33182361      26.93865438      14.99707583       0.00000000      -0.00000000       0.10206629      -5.64590157
N       -9.33182361      28.73456467      15.59902562      -0.00000000       0.00000000      -0.10206629      -6.54647390
Al      -9.33182361      28.73456467      17.49658847      -0.00000000       0.00000000       0.10206629      -5.64590157
N       -9.33182361      26.93865438      18.09853826      -0.00000000      -0.00000000      -0.10206629      -6.54647390
Al      -9.33182361      26.93865438      19.99610111       0.00000000      -0.00000000       0.10206629      -5.64590157
N       -9.33182361      28.73456467      20.59805090      -0.00000000       0.00000000      -0.10206629      -6.54647390
Al      -9.33182361      28.73456467      22.49561374      -0.00000000       0.00000000       0.10206629      -5.64590157
N       -9.33182361      26.93865438      23.09756354      -0.00000000      -0.00000000      -0.10206629      -6.54647390
Al      -9.33182361      26.93865438      24.99512638      -0.00000000      -0.00000000       0.10206629      -5.64590157
N       -9.33182361      28.73456467      25.59707618      -0.00000000       0.00000000      -0.10206629      -6.54647390
Al      -9.33182361      28.73456467      27.49463902      -0.00000000       0.00000000       0.10206629      -5.64590157
N       -9.33182361      26.93865438      28.09658881      -0.00000000      -0.00000000      -0.10206629      -6.54647390
Al      -9.33182361      26.93865438      29.99415166      -0.00000000      -0.00000000       0.10206629      -5.64590157
N       -9.33182361      28.73456467      30.59610145      -0.00000000       0.00000000      -0.10206629      -6.54647390
Al      -9.33182361      28.73456467      32.49366430      -0.00000000       0.00000000       0.10206629      -5.64590157
N       -9.33182361      26.93865438      33.09561409      -0.00000000      -0.00000000      -0.10206629      -6.54647390
Al      -9.33182361      26.93865438      34.99317694      -0.00000000      -0.00000000       0.10206629      -5.64590157
N       -9.33182361      28.73456467      35.59512673      -0.00000000       0.00000000      -0.10206629      -6.54647390
Al      -9.33182361      28.73456467      37.49268957      -0.00000000       0.00000000       0.10206629      -5.64590157
N       -9.33182361      26.93865438      38.09463937      -0.00000000      -0.00000000      -0.10206629      -6.54647390
Al      -9.33182361      26.93865438      39.99220221       0.00000000      -0.00000000       0.10206629      -5.64590157
N       -9.33182361      28.73456467      40.59415201      -0.00000000       0.00000000      -0.10206629      -6.54647390
Al      -9.33182361      28.73456467      42.49171485      -0.00000000       0.00000000       0.10206629      -5.64590157
N       -9.33182361      26.93865438      43.09366464      -0.00000000      -0.00000000      -0.10206629      -6.54647390
Al     -10.88712755      29.63251982      -0.00000000       0.00000000       0.00000000       0.10206629      -5.64590157
N      -10.88712755      31.42843011       0.60194979      -0.00000000      -0.00000000      -0.10206629      -6.54647390
Al     -10.88712755      31.42843011       2.49951264      -0.00000000      -0.00000000       0.10206629      -5.64590157
N      -10.88712755      29.63251982       3.10146243       0.00000000      -0.00000000      -0.10206629      -6.54647390
Al     -10.88712755      29.63251982       4.99902528       0.00000000       0.00000000       0.10206629      -5.64590157
N      -10.88712755      31.42843011       5.60097507      -0.00000000      -0.00000000      -0.10206629      -6.54647390
Al     -10.88712755      31.42843011       7.49853791      -0.00000000      -0.00000000       0.10206629      -5.64590157
N      -10.88712755      29.63251982       8.10048771       0.00000000      -0.00000000      -0.10206629      -6.54647390
Al     -10.88712755      29.63251982       9.99805055       0.00000000       0.00000000       0.10206629      -5.64590157
N      -10.88712755      31.42843011      10.60000035      -0.00000000      -0.00000000      -0.10206629      -6.54647390
Al     -10.88712755      31.42843011      12.49756319      -0.00000000      -0.00000000       0.10206629      -5.64590157
N      -10.88712755      29.63251982      13.09951298       0.00000000      -0.00000000      -0.10206629      -6.54647390
Al     -10.88712755      29.63251982      14.99707583       0.00000000       0.00000000       0.10206629      -5.64590157
N      -10.88712755      31.42843011      15.59902562      -0.00000000      -0.00000000      -0.10206629      -6.54647390
Al     -10.88712755      31.42843011      17.49658847      -0.00000000      -0.00000000       0.10206629      -5.64590157
N      -10.88712755      29.63251982      18.09853826       0.00000000      -0.00000000      -0.10206629      -6.54647390
Al     -10.88712755      29.63251982      19.99610111       0.00000000       0.00000000       0.10206629      -5.64590157
N      -10.88712755      31.42843011      20.59805090      -0.00000000      -0.00000000      -0.10206629      -6.54647390
Al     -10.88712755      31.42843011      22.49561374      -0.00000000      -0.00000000       0.10206629      -5.64590157
N      -10.88712755      29.63251982      23.09756354       0.00000000      -0.00000000      -0.10206629      -6.54647390
Al     -10.88712755      29.63251982      24.99512638       0.00000000       0.00000000       0.10206629      -5.64590157
N      -10.88712755      31.42843011      25.59707618      -0.00000000      -0.00000000      -0.10206629      -6.54647390
Al     -10.88712755      31.42843011      27.49463902      -0.00000000      -0.00000000       0.10206629      -5.64590157
N      -10.88712755      29.63251982      28.09658881       0.00000000      -0.00000000      -0.10206629      -6.54647390
Al     -10.88712755      29.63251982      29.99415166       0.00000000       0.00000000       0.10206629      -5.64590157
N      -10.88712755      31.42843011      30.59610145      -0.00000000      -0.00000000      -0.10206629      -6.54647390
Al     -10.88712755      31.42843011      32.49366430       0.00000000      -0.00000000       0.10206629      -5.64590157
N      -10.88712755      29.63251982      33.09561409       0.00000000      -0.00000000      -0.10206629      -6.54647390
Al     -10.88712755      29.63251982      34.99317694       0.00000000       0.00000000       0.10206629      -5.64590157
N      -10.88712755      31.42843011      35.59512673      -0.00000000      -0.00000000      -0.10206629      -6.54647390
Al     -10.88712755      31.42843011      37.49268957      -0.00000000      -0.00000000       0.10206629      -5.64590157
N      -10.88712755      29.63251982      38.09463937       0.00000000      -0.00000000      -0.10206629      -6.54647390
Al     -10.88712755      29.63251982      39.99220221       0.00000000       0.00000000       0.10206629      -5.64590157
N      -10.88712755      31.42843011      40.59415201      -0.00000000      -0.00000000      -0.10206629      -6.54647390
Al     -10.88712755      31.42843011      42.49171485      -0.00000000      -0.00000000       0.10206629      -5.64590157
N      -10.88712755      29.63251982      43.09366464       0.00000000       0.00000000      -0.10206629      -6.54647390
Al     -12.44243149      32.32638525      -0.00000000       0.00000000       0.00000000       0.10206629      -5.64590157
N      -12.44243149      34.12229555       0.60194979       0.00000000      -0.00000000      -0.10206629      -6.54647390
Al     -12.44243149      34.12229555       2.49951264       0.00000000      -0.00000000       0.10206629      -5.64590157
N      -12.44243149      32.32638525       3.10146243       0.00000000       0.00000000      -0.10206629      -6.54647390
Al     -12.44243149      32.32638525       4.99902528       0.00000000       0.00000000       0.10206629      -5.64590157
N      -12.44243149      34.12229555       5.60097507      -0.00000000      -0.00000000      -0.10206629      -6.54647390
Al     -12.44243149      34.12229555       7.49853791       0.00000000      -0.00000000       0.10206629      -5.64590157
N      -12.44243149      32.32638525       8.10048771       0.00000000       0.00000000      -0.10206629      -6.54647390
Al     -12.44243149      32.32638525       9.99805055       0.00000000       0.00000000       0.10206629      -5.64590157
N      -12.44243149      34.12229555      10.60000035       0.00000000      -0.00000000      -0.10206629      -6.54647390
Al     -12.44243149      34.12229555      12.49756319       0.00000000      -0.00000000       0.10206629      -5.64590157
N      -12.44243149      32.32638525      13.09951298       0.00000000       0.00000000      -0.10206629      -6.54647390
Al     -12.44243149      32.32638525      14.99707583       0.00000000       0.00000000       0.10206629      -5.64590157
N      -12.44243149      34.12229555      15.59902562       0.00000000      -0.00000000      -0.10206629      -6.54647390
Al     -12.44243149      34.12229555      17.49658847      -0.00000000       0.00000000       0.10206629      -5.64590157
N      -12.44243149      32.32638525      18.09853826       0.00000000       0.00000000      -0.10206629      -6.54647390
Al     -12.44243149      32.32638525      19.99610111       0.00000000       0.00000000       0.10206629      -5.64590157
N      -12.44243149      34.12229555      20.59805090       0.00000000      -0.00000000      -0.10206629      -6.54647390
Al     -12.44243149      34.12229555      22.49561374       0.00000000      -0.00000000       0.10206629      -5.64590157
N      -12.44243149      32.32638525      23.09756354       0.00000000       0.00000000      -0.10206629      -6.54647390
Al     -12.44243149      32.32638525      24.99512638       0.00000000       0.00000000       0.10206629      -5.64590157
N      -12.44243149      34.12229555      25.59707618      -0.00000000      -0.00000000      -0.10206629      -6.54647390
Al     -12.44243149      34.12229555      27.49463902       0.00000000      -0.00000000       0.10206629      -5.64590157
N      -12.44243149      32.32638525      28.09658881      -0.00000000       0.00000000      -0.10206629      -6.54647390
Al     -12.44243149      32.32638525      29.99415166       0.00000000       0.00000000       0.10206629      -5.64590157
N      -12.44243149      34.12229555      30.59610145      -0.00000000      -0.00000000      -0.10206629      -6.54647390
Al     -12.44243149      34.12229555      32.49366430       0.00000000      -0.00000000       0.10206629      -5.64590157
N      -12.44243149      32.32638525      33.09561409      -0.00000000       0.00000000      -0.10206629      -6.54647390
Al     -12.44243149      32.32638525      34.99317694       0.00000000       0.00000000       0.10206629      -5.64590157
N      -12.44243149      34.12229555      35.59512673       0.00000000      -0.00000000      -0.10206629      -6.54647390
Al     -12.44243149      34.12229555      37.49268957       0.00000000      -0.00000000       0.10206629      -5.64590157
N      -12.44243149      32.32638525      38.09463937       0.00000000       0.00000000      -0.10206629      -6.54647390
Al     -12.44243149      32.32638525      39.99220221       0.00000000       0.00000000       0.10206629      -5.64590157
N      -12.44243149      34.12229555      40.59415201       0.00000000      -0.00000000      -0.10206629      -6.54647390
Al     -12.44243149      34.12229555      42.49171485      -0.00000000      -0.00000000       0.10206629      -5.64590157
N      -12.44243149      32.32638525      43.09366464       0.00000000       0.00000000      -0.10206629      -6.54647390
Al     -13.99773542      35.02025069      -0.00000000      -0.00000000       0.00000000       0.10206629      -5.64590157
N      -13.99773542      36.81616098       0.60194979       0.00000000      -0.00000000      -0.10206629      -6.54647390
Al     -13.99773542      36.81616098       2.49951264       0.00000000      -0.00000000       0.10206629      -5.64590157
N      -13.99773542      35.02025069       3.10146243      -0.00000000       0.00000000      -0.10206629      -6.54647390
Al     -13.99773542      35.02025069       4.99902528      -0.00000000       0.00000000       0.10206629      -5.64590157
N      -13.99773542      36.81616098       5.60097507      -0.00000000      -0.00000000      -0.10206629      -6.54647390
Al     -13.99773542      36.81616098       7.49853791      -0.00000000      -0.00000000       0.10206629      -5.64590157
N      -13.99773542      35.02025069       8.10048771      -0.00000000       0.00000000      -0.10206629      -6.54647390
Al     -13.99773542      35.02025069       9.99805055      -0.00000000       0.00000000       0.10206629      -5.64590157
N      -13.99773542      36.81616098      10.60000035      -0.00000000      -0.00000000      -0.10206629      -6.54647390
Al     -13.99773542      36.81616098      12.49756319       0.00000000      -0.00000000       0.10206629      -5.64590157
N      -13.99773542      35.02025069      13.09951298      -0.00000000       0.00000000      -0.10206629      -6.54647390
Al     -13.99773542      35.02025069      14.99707583      -0.00000000       0.00000000       0.10206629      -5.64590157
N      -13.99773542      36.81616098      15.59902562       0.00000000      -0.00000000      -0.10206629      -6.54647390
Al     -13.99773542      36.81616098      17.49658847       0.00000000      -0.00000000       0.10206629      -5.64590157
N      -13.99773542      35.02025069      18.09853826      -0.00000000       0.00000000      -0.10206629      -6.54647390
Al     -13.99773542      35.02025069      19.99610111      -0.00000000       0.00000000       0.10206629      -5.64590157
N      -13.99773542      36.81616098      20.59805090       0.00000000      -0.00000000      -0.10206629      -6.54647390
Al     -13.99773542      36.81616098      22.49561374      -0.00000000      -0.00000000       0.10206629      -5.64590157
N      -13.99773542      35.02025069      23.09756354      -0.00000000       0.00000000      -0.10206629      -6.54647390
Al     -13.99773542      35.02025069      24.99512638      -0.00000000       0.00000000       0.10206629      -5.64590157
N      -13.99773542      36.81616098      25.59707618      -0.00000000      -0.00000000      -0.10206629      -6.54647390
Al     -13.99773542      36.81616098      27.49463902       0.00000000      -0.00000000       0.10206629      -5.64590157
N      -13.99773542      35.02025069      28.09658881      -0.00000000       0.00000000      -0.10206629      -6.54647390
Al     -13.99773542      35.02025069      29.99415166      -0.00000000       0.00000000       0.10206629      -5.64590157
N      -13.99773542      36.81616098      30.59610145      -0.00000000      -0.00000000      -0.10206629      -6.54647390
Al     -13.99773542      36.81616098      32.49366430      -0.00000000      -0.00000000       0.10206629      -5.64590157
N      -13.99773542      35.02025069      33.09561409      -0.00000000       0.00000000      -0.10206629      -6.54647390
Al     -13.99773542      35.02025069      34.99317694      -0.00000000       0.00000000       0.10206629      -5.64590157
N      -13.99773542      36.81616098      35.59512673      -0.00000000      -0.00000000      -0.10206629      -6.54647390
Al     -13.99773542      36.81616098      37.49268957      -0.00000000      -0.00000000       0.10206629      -5.64590157
N      -13.99773542      35.02025069      38.09463937      -0.00000000       0.00000000      -0.10206629      -6.54647390
Al     -13.99773542      35.02025069      39.99220221      -0.00000000       0.00000000       0.10206629      -5.64590157
N      -13.99773542      36.81616098      40.59415201      -0.00000000      -0.00000000      -0.10206629      -6.54647390
Al     -13.99773542      36.81616098      42.49171485      -0.00000000      -0.00000000       0.10206629      -5.64590157
N      -13.99773542      35.02025069      43.09366464      -0.00000000       0.00000000      -0.10206629      -6.54647390
Al     -15.55303936      37.71411613      -0.00000000      -0.00000000      -0.00000000       0.10206629      -5.64590157
N      -15.55303936      39.51002642       0.60194979       0.00000000       0.00000000      -0.10206629      -6.54647390
Al     -15.55303936      39.51002642       2.49951264       0.00000000       0.00000000       0.10206629      -5.64590157
N      -15.55303936      37.71411613       3.10146243       0.00000000      -0.00000000      -0.10206629      -6.54647390
Al     -15.55303936      37.71411613       4.99902528       0.00000000      -0.00000000       0.10206629      -5.64590157
N      -15.55303936      39.51002642       5.60097507       0.00000000       0.00000000      -0.10206629      -6.54647390
Al     -15.55303936      39.51002642       7.49853791       0.00000000       0.00000000       0.10206629      -5.64590157
N      -15.55303936      37.71411613       8.10048771       0.00000000      -0.00000000      -0.10206629      -6.54647390
Al     -15.55303936      37.71411613       9.99805055       0.00000000      -0.00000000       0.10206629      -5.64590157
N      -15.55303936      39.51002642      10.60000035       0.00000000       0.00000000      -0.10206629      -6.54647390
Al     -15.55303936      39.51002642      12.49756319       0.00000000       0.00000000       0.10206629      -5.64590157
N      -15.55303936      37.71411613      13.09951298       0.00000000      -0.00000000      -0.10206629      -6.54647390
Al     -15.55303936      37.71411613      14.99707583       0.00000000      -0.00000000       0.10206629      -5.64590157
N      -15.55303936      39.51002642      15.59902562       0.00000000       0.00000000      -0.10206629      -6.54647390
Al     -15.55303936      39.51002642      17.49658847       0.00000000       0.00000000       0.10206629      -5.64590157
N      -15.55303936      37.71411613      18.09853826       0.00000000      -0.00000000      -0.10206629      -6.54647390
Al     -15.55303936      37.71411613      19.99610111       0.00000000      -0.00000000       0.10206629      -5.64590157
N      -15.55303936      39.51002642      20.59805090       0.00000000       0.00000000      -0.10206629      -6.54647390
Al     -15.55303936      39.51002642      22.49561374       0.00000000       0.00000000       0.10206629      -5.64590157
N      -15.55303936      37.71411613      23.09756354       0.00000000      -0.00000000      -0.10206629      -6.54647390
Al     -15.55303936      37.71411613      24.99512638       0.00000000      -0.00000000       0.10206629      -5.64590157
N      -15.55303936      39.51002642      25.59707618       0.00000000       0.00000000      -0.10206629      -6.54647390
Al     -15.55303936      39.51002642      27.49463902       0.00000000       0.00000000       0.10206629      -5.64590157
N      -15.55303936      37.71411613      28.09658881       0.00000000      -0.00000000      -0.10206629      -6.54647390
Al     -15.55303936      37.71411613      29.99415166       0.00000000      -0.00000000       0.10206629      -5.64590157
N      -15.55303936      39.51002642      30.59610145       0.00000000       0.00000000      -0.10206629      -6.54647390
Al     -15.55303936      39.51002642      32.49366430       0.00000000       0.00000000       0.10206629      -5.64590157
N      -15.55303936      37.71411613      33.09561409       0.00000000      -0.00000000      -0.10206629      -6.54647390
Al     -15.55303936      37.71411613      34.99317694       0.00000000      -0.00000000       0.10206629      -5.64590157
N      -15.55303936      39.51002642      35.59512673       0.00000000       0.00000000      -0.10206629      -6.54647390
Al     -15.55303936      39.51002642      37.49268957       0.00000000       0.00000000       0.10206629      -5.64590157
N      -15.55303936      37.71411613      38.09463937       0.00000000      -0.00000000      -0.10206629      -6.54647390
Al     -15.55303936      37.71411613      39.99220221       0.00000000      -0.00000000       0.10206629      -5.64590157
N      -15.55303936      39.51002642      40.59415201       0.00000000       0.00000000      -0.10206629      -6.54647390
Al     -15.55303936      39.51002642      42.49171485       0.00000000       0.00000000       0.10206629      -5.64590157
N      -15.55303936      37.71411613      43.09366464      -0.00000000      -0.00000000      -0.10206629      -6.54647390
Al       9.33182361      -0.00000000       0.00000000      -0.00000000      -0.00000000       0.10206629      -5.64590157
N        9.33182361       1.79591029       0.60194979      -0.00000000      -0.00000000      -0.10206629      -6.54647390
Al       9.33182361       1.79591029       2.49951264      -0.00000000      -0.00000000       0.10206629      -5.64590157
N        9.33182361      -0.00000000       3.10146243      -0.00000000      -0.00000000      -0.10206629      -6.54647390
Al       9.33182361      -0.00000000       4.99902528      -0.00000000      -0.00000000       0.10206629      -5.64590157
N        9.33182361       1.79591029       5.60097507      -0.00000000      -0.00000000      -0.10206629      -6.54647390
Al       9.33182361       1.79591029       7.49853791      -0.00000000      -0.00000000       0.10206629      -5.64590157
N        9.33182361      -0.00000000       8.10048771      -0.00000000      -0.00000000      -0.10206629      -6.54647390
Al       9.33182361      -0.00000000       9.99805055      -0.00000000      -0.00000000       0.10206629      -5.64590157
N        9.33182361       1.79591029      10.60000035      -0.00000000      -0.00000000      -0.10206629      -6.54647390
Al       9.33182361       1.79591029      12.49756319      -0.00000000      -0.00000000       0.10206629      -5.64590157
N        9.33182361      -0.00000000      13.09951298      -0.00000000      -0.00000000      -0.10206629      -6.54647390
Al       9.33182361      -0.00000000      14.99707583      -0.00000000      -0.00000000       0.10206629      -5.64590157
N        9.33182361       1.79591029      15.59902562      -0.00000000      -0.00000000      -0.10206629      -6.54647390
Al       9.33182361       1.79591029      17.49658847      -0.00000000      -0.00000000       0.10206629      -5.64590157
N        9.33182361      -0.00000000      18.09853826      -0.00000000      -0.00000000      -0.10206629      -6.54647390
Al       9.33182361      -0.00000000      19.99610111      -0.00000000      -0.00000000       0.10206629      -5.64590157
N        9.33182361       1.79591029      20.59805090       0.00000000      -0.00000000      -0.10206629      -6.54647390
Al       9.33182361       1.79591029      22.49561374       0.00000000      -0.00000000       0.10206629      -5.64590157
N        9.33182361      -0.00000000      23.09756354      -0.00000000      -0.00000000      -0.10206629      -6.54647390
Al       9.33182361      -0.00000000      24.99512638      -0.00000000      -0.00000000       0.10206629      -5.64590157
N        9.33182361       1.79591029      25.59707618      -0.00000000      -0.00000000      -0.10206629      -6.54647390
Al       9.33182361       1.79591029      27.49463902      -0.00000000      -0.00000000       0.10206629      -5.64590157
N        9.33182361      -0.00000000      28.09658881      -0.00000000      -0.00000000      -0.10206629      -6.54647390
Al       9.33182361      -0.00000000      29.99415166      -0.00000000      -0.00000000       0.10206629      -5.64590157
N        9.33182361       1.79591029      30.59610145      -0.00000000      -0.00000000      -0.10206629      -6.54647390
Al       9.33182361       1.79591029      32.49366430      -0.00000000      -0.00000000       0.10206629      -5.64590157
N        9.33182361      -0.00000000      33.09561409      -0.00000000      -0.00000000      -0.10206629      -6.54647390
Al       9.33182361      -0.00000000      34.99317694      -0.00000000      -0.00000000       0.10206629      -5.64590157
N        9.33182361       1.79591029      35.59512673      -0.00000000      -0.00000000      -0.10206629      -6.54647390
Al       9.33182361       1.79591029      37.49268957      -0.00000000      -0.00000000       0.10206629      -5.64590157
N        9.33182361      -0.00000000      38.09463937      -0.00000000      -0.00000000      -0.10206629      -6.54647390
Al       9.33182361      -0.00000000      39.99220221      -0.00000000      -0.00000000       0.10206629      -5.64590157
N        9.33182361       1.79591029      40.59415201       0.00000000      -0.00000000      -0.10206629      -6.54647390
Al       9.33182361       1.79591029      42.49171485      -0.00000000      -0.00000000       0.10206629      -5.64590157
N        9.33182361      -0.00000000      43.09366464      -0.00000000      -0.00000000      -0.10206629      -6.54647390
Al       7.77651968       2.69386544       0.00000000       0.00000000      -0.00000000       0.10206629      -5.64590157
N        7.77651968       4.48977573       0.60194979       0.00000000      -0.00000000      -0.10206629      -6.54647390
Al       7.77651968       4.48977573       2.49951264       0.00000000      -0.00000000       0.10206629      -5.64590157
N        7.77651968       2.69386544       3.10146243       0.00000000       0.00000000      -0.10206629      -6.54647390
Al       7.77651968       2.69386544       4.99902528       0.00000000      -0.00000000       0.10206629      -5.64590157
N        7.77651968       4.48977573       5.60097507       0.00000000      -0.00000000      -0.10206629      -6.54647390
Al       7.77651968       4.48977573       7.49853791       0.00000000      -0.00000000       0.10206629      -5.64590157
N        7.77651968       2.69386544       8.10048771       0.00000000      -0.00000000      -0.10206629      -6.54647390
Al       7.77651968       2.69386544       9.99805055       0.00000000      -0.00000000       0.10206629      -5.64590157
N        7.77651968       4.48977573      10.60000035       0.00000000      -0.00000000      -0.10206629      -6.54647390
Al       7.77651968       4.48977573      12.49756319       0.00000000       0.00000000       0.10206629      -5.64590157
N        7.77651968       2.69386544      13.09951298       0.00000000       0.00000000      -0.10206629      -6.54647390
Al       7.77651968       2.69386544      14.99707583       0.00000000      -0.00000000       0.10206629      -5.64590157
N        7.77651968       4.48977573      15.59902562       0.00000000      -0.00000000      -0.10206629      -6.54647390
Al       7.77651968       4.48977573      17.49658847       0.00000000      -0.00000000       0.10206629      -5.64590157
N        7.77651968       2.69386544      18.09853826       0.00000000       0.00000000      -0.10206629      -6.54647390
Al       7.77651968       2.69386544      19.99610111       0.00000000      -0.00000000       0.10206629      -5.64590157
N        7.77651968       4.48977573      20.59805090       0.00000000       0.00000000      -0.10206629      -6.54647390
Al       7.77651968       4.48977573      22.49561374       0.00000000      -0.00000000       0.10206629      -5.64590157
N        7.77651968       2.69386544      23.09756354      -0.00000000       0.00000000      -0.10206629      -6.54647390
Al       7.77651968       2.69386544      24.99512638       0.00000000      -0.00000000       0.10206629      -5.64590157
N        7.77651968       4.48977573      25.59707618       0.00000000      -0.00000000      -0.10206629      -6.54647390
Al       7.77651968       4.48977573      27.49463902       0.00000000      -0.00000000       0.10206629      -5.64590157
N        7.77651968       2.69386544      28.09658881       0.00000000      -0.00000000      -0.10206629      -6.54647390
Al       7.77651968       2.69386544      29.99415166       0.00000000      -0.00000000       0.10206629      -5.64590157
N        7.77651968       4.48977573      30.59610145       0.00000000       0.00000000      -0.10206629      -6.54647390
Al       7.77651968       4.48977573      32.49366430      -0.00000000       0.00000000       0.10206629      -5.64590157
N        7.77651968       2.69386544      33.09561409       0.00000000      -0.00000000      -0.10206629      -6.54647390
Al       7.77651968       2.69386544      34.99317694       0.00000000      -0.00000000       0.10206629      -5.64590157
N        7.77651968       4.48977573      35.59512673      -0.00000000       0.00000000      -0.10206629      -6.54647390
Al       7.77651968       4.48977573      37.49268957       0.00000000      -0.00000000       0.10206629      -5.64590157
N        7.77651968       2.69386544      38.09463937       0.00000000       0.00000000      -0.10206629      -6.54647390
Al       7.77651968       2.69386544      39.99220221      -0.00000000      -0.00000000       0.10206629      -5.64590157
N        7.77651968       4.48977573      40.59415201       0.00000000       0.00000000      -0.10206629      -6.54647390
Al       7.77651968       4.48977573      42.49171485      -0.00000000      -0.00000000       0.10206629      -5.64590157
N        7.77651968       2.69386544      43.09366464      -0.00000000       0.00000000      -0.10206629      -6.54647390
Al       6.22121574       5.38773088       0.00000000      -0.00000000      -0.00000000       0.10206629      -5.64590157
N        6.22121574       7.18364117       0.60194979      -0.00000000      -0.00000000      -0.10206629      -6.54647390
Al       6.22121574       7.18364117       2.49951264      -0.00000000      -0.00000000       0.10206629      -5.64590157
N        6.22121574       5.38773088       3.10146243      -0.00000000      -0.00000000      -0.10206629      -6.54647390
Al       6.22121574       5.38773088       4.99902528      -0.00000000      -0.00000000       0.10206629      -5.64590157
N        6.22121574       7.18364117       5.60097507      -0.00000000      -0.00000000      -0.10206629      -6.54647390
Al       6.22121574       7.18364117       7.49853791      -0.00000000      -0.00000000       0.10206629      -5.64590157
N        6.22121574       5.38773088       8.10048771      -0.00000000      -0.00000000      -0.10206629      -6.54647390
Al       6.22121574       5.38773088       9.99805055      -0.00000000       0.00000000       0.10206629      -5.64590157
N        6.22121574       7.18364117      10.60000035      -0.00000000      -0.00000000      -0.10206629      -6.54647390
Al       6.22121574       7.18364117      12.49756319      -0.00000000      -0.00000000       0.10206629      -5.64590157
N        6.22121574       5.38773088      13.09951298      -0.00000000      -0.00000000      -0.10206629      -6.54647390
Al       6.22121574       5.38773088      14.99707583      -0.00000000       0.00000000       0.10206629      -5.64590157
N        6.22121574       7.18364117      15.59902562      -0.00000000      -0.00000000      -0.10206629      -6.54647390
Al       6.22121574       7.18364117      17.49658847      -0.00000000      -0.00000000       0.10206629      -5.64590157
N        6.22121574       5.38773088      18.09853826      -0.00000000      -0.00000000      -0.10206629      -6.54647390
Al       6.22121574       5.38773088      19.99610111      -0.00000000      -0.00000000       0.10206629      -5.64590157
N        6.22121574       7.18364117      20.59805090      -0.00000000      -0.00000000      -0.10206629      -6.54647390
Al       6.22121574       7.18364117      22.49561374      -0.00000000      -0.00000000       0.10206629      -5.64590157
N        6.22121574       5.38773088      23.09756354      -0.00000000      -0.00000000      -0.10206629      -6.54647390
Al       6.22121574       5.38773088      24.99512638      -0.00000000      -0.00000000       0.10206629      -5.64590157
N        6.22121574       7.18364117      25.59707618      -0.00000000      -0.00000000      -0.10206629      -6.54647390
Al       6.22121574       7.18364117      27.49463902      -0.00000000       0.00000000       0.10206629      -5.64590157
N        6.22121574       5.38773088      28.09658881      -0.00000000       0.00000000      -0.10206629      -6.54647390
Al       6.22121574       5.38773088      29.99415166      -0.00000000      -0.00000000       0.10206629      -5.64590157
N        6.22121574       7.18364117      30.59610145      -0.00000000      -0.00000000      -0.10206629      -6.54647390
Al       6.22121574       7.18364117      32.49366430      -0.00000000      -0.00000000       0.10206629      -5.64590157
N        6.22121574       5.38773088      33.09561409      -0.00000000      -0.00000000      -0.10206629      -6.54647390
Al       6.22121574       5.38773088      34.99317694      -0.00000000      -0.00000000       0.10206629      -5.64590157
N        6.22121574       7.18364117      35.59512673      -0.00000000       0.00000000      -0.10206629      -6.54647390
Al       6.22121574       7.18364117      37.49268957      -0.00000000      -0.00000000       0.10206629      -5.64590157
N        6.22121574       5.38773088      38.09463937      -0.00000000       0.00000000      -0.10206629      -6.54647390
Al       6.22121574       5.38773088      39.99220221      -0.00000000      -0.00000000       0.10206629      -5.64590157
N        6.22121574       7.18364117      40.59415201       0.00000000      -0.00000000      -0.10206629      -6.54647390
Al       6.22121574       7.18364117      42.49171485      -0.00000000      -0.00000000       0.10206629      -5.64590157
N        6.22121574       5.38773088      43.09366464      -0.00000000       0.00000000      -0.10206629      -6.54647390
Al       4.66591181       8.08159631      -0.00000000      -0.00000000       0.00000000       0.10206629      -5.64590157
N        4.66591181       9.87750661       0.60194979       0.00000000       0.00000000      -0.10206629      -6.54647390
Al       4.66591181       9.87750661       2.49951264       0.00000000       0.00000000       0.10206629      -5.64590157
N        4.66591181       8.08159631       3.10146243       0.00000000      -0.00000000      -0.10206629      -6.54647390
Al       4.66591181       8.08159631       4.99902528      -0.00000000       0.00000000       0.10206629      -5.64590157
N        4.66591181       9.87750661       5.60097507       0.00000000       0.00000000      -0.10206629      -6.54647390
Al       4.66591181       9.87750661       7.49853791       0.00000000       0.00000000       0.10206629      -5.64590157
N        4.66591181       8.08159631       8.10048771      -0.00000000      -0.00000000      -0.10206629      -6.54647390
Al       4.66591181       8.08159631       9.99805055      -0.00000000       0.00000000       0.10206629      -5.64590157
N        4.66591181       9.87750661      10.60000035       0.00000000       0.00000000      -0.10206629      -6.54647390
Al       4.66591181       9.87750661      12.49756319       0.00000000       0.00000000       0.10206629      -5.64590157
N        4.66591181       8.08159631      13.09951298      -0.00000000      -0.00000000      -0.10206629      -6.54647390
Al       4.66591181       8.08159631      14.99707583       0.00000000      -0.00000000       0.10206629      -5.64590157
N        4.66591181       9.87750661      15.59902562       0.00000000       0.00000000      -0.10206629      -6.54647390
Al       4.66591181       9.87750661      17.49658847       0.00000000       0.00000000       0.10206629      -5.64590157
N        4.66591181       8.08159631      18.09853826      -0.00000000      -0.00000000      -0.10206629      -6.54647390
Al       4.66591181       8.08159631      19.99610111      -0.00000000       0.00000000       0.10206629      -5.64590157
N        4.66591181       9.87750661      20.59805090       0.00000000       0.00000000      -0.10206629      -6.54647390
Al       4.66591181       9.87750661      22.49561374       0.00000000       0.00000000       0.10206629      -5.64590157
N        4.66591181       8.08159631      23.09756354      -0.00000000      -0.00000000      -0.10206629      -6.54647390
Al       4.66591181       8.08159631      24.99512638       0.00000000      -0.00000000       0.10206629      -5.64590157
N        4.66591181       9.87750661      25.59707618       0.00000000       0.00000000      -0.10206629      -6.54647390
Al       4.66591181       9.87750661      27.49463902       0.00000000       0.00000000       0.10206629      -5.64590157
N        4.66591181       8.08159631      28.09658881      -0.00000000      -0.00000000      -0.10206629      -6.54647390
Al       4.66591181       8.08159631      29.99415166      -0.00000000       0.00000000       0.10206629      -5.64590157
N        4.66591181       9.87750661      30.59610145       0.00000000       0.00000000      -0.10206629      -6.54647390
Al       4.66591181       9.87750661      32.49366430       0.00000000       0.00000000       0.10206629      -5.64590157
N        4.66591181       8.08159631      33.09561409      -0.00000000       0.00000000      -0.10206629      -6.54647390
Al       4.66591181       8.08159631      34.99317694       0.00000000       0.00000000       0.10206629      -5.64590157
N        4.66591181       9.87750661      35.59512673       0.00000000       0.00000000      -0.10206629      -6.54647390
Al       4.66591181       9.87750661      37.49268957       0.00000000       0.00000000       0.10206629      -5.64590157
N        4.66591181       8.08159631      38.09463937       0.00000000       0.00000000      -0.10206629      -6.54647390
Al       4.66591181       8.08159631      39.99220221      -0.00000000       0.00000000       0.10206629      -5.64590157
N        4.66591181       9.87750661      40.59415201       0.00000000       0.00000000      -0.10206629      -6.54647390
Al       4.66591181       9.87750661      42.49171485      -0.00000000       0.00000000       0.10206629      -5.64590157
N        4.66591181       8.08159631      43.09366464       0.00000000      -0.00000000      -0.10206629      -6.54647390
Al       3.11060787      10.77546175      -0.00000000      -0.00000000      -0.00000000       0.10206629      -5.64590157
N        3.11060787      12.57137204       0.60194979      -0.00000000      -0.00000000      -0.10206629      -6.54647390
Al       3.11060787      12.57137204       2.49951264      -0.00000000      -0.00000000       0.10206629      -5.64590157
N        3.11060787      10.77546175       3.10146243      -0.00000000       0.00000000      -0.10206629      -6.54647390
Al       3.11060787      10.77546175       4.99902528      -0.00000000      -0.00000000       0.10206629      -5.64590157
N        3.11060787      12.57137204       5.60097507      -0.00000000      -0.00000000      -0.10206629      -6.54647390
Al       3.11060787      12.57137204       7.49853791      -0.00000000      -0.00000000       0.10206629      -5.64590157
N        3.11060787      10.77546175       8.10048771      -0.00000000       0.00000000      -0.10206629      -6.54647390
Al       3.11060787      10.77546175       9.99805055      -0.00000000      -0.00000000       0.10206629      -5.64590157
N        3.11060787      12.57137204      10.60000035      -0.00000000      -0.00000000      -0.10206629      -6.54647390
Al       3.11060787      12.57137204      12.49756319      -0.00000000      -0.00000000       0.10206629      -5.64590157
N        3.11060787      10.77546175      13.09951298      -0.00000000       0.00000000      -0.10206629      -6.54647390
Al       3.11060787      10.77546175      14.99707583      -0.00000000      -0.00000000       0.10206629      -5.64590157
N        3.11060787      12.57137204      15.59902562      -0.00000000      -0.00000000      -0.10206629      -6.54647390
Al       3.11060787      12.57137204      17.49658847      -0.00000000      -0.00000000       0.10206629      -5.64590157
N        3.11060787      10.77546175      18.09853826      -0.00000000       0.00000000      -0.10206629      -6.54647390
Al       3.11060787      10.77546175      19.99610111      -0.00000000      -0.00000000       0.10206629      -5.64590157
N        3.11060787      12.57137204      20.59805090      -0.00000000      -0.00000000      -0.10206629      -6.54647390
Al       3.11060787      12.57137204      22.49561374      -0.00000000      -0.00000000       0.10206629      -5.64590157
N        3.11060787      10.77546175      23.09756354      -0.00000000       0.00000000      -0.10206629      -6.54647390
Al       3.11060787      10.77546175      24.99512638      -0.00000000       0.00000000       0.10206629      -5.64590157
N        3.11060787      12.57137204      25.59707618      -0.00000000      -0.00000000      -0.10206629      -6.54647390
Al       3.11060787      12.57137204      27.49463902      -0.00000000      -0.00000000       0.10206629      -5.64590157
N        3.11060787      10.77546175      28.09658881      -0.00000000       0.00000000      -0.10206629      -6.54647390
Al       3.11060787      10.77546175      29.99415166       0.00000000       0.00000000       0.10206629      -5.64590157
N        3.11060787      12.57137204      30.59610145      -0.00000000      -0.00000000      -0.10206629      -6.54647390
Al       3.11060787      12.57137204      32.49366430      -0.00000000      -0.00000000       0.10206629      -5.64590157
N        3.11060787      10.77546175      33.09561409      -0.00000000       0.00000000      -0.10206629      -6.54647390
Al       3.11060787      10.77546175      34.99317694      -0.00000000       0.00000000       0.10206629      -5.64590157
N        3.11060787      12.57137204      35.59512673      -0.00000000      -0.00000000      -0.10206629      -6.54647390
Al       3.11060787      12.57137204      37.49268957      -0.00000000      -0.00000000       0.10206629      -5.64590157
N        3.11060787      10.77546175      38.09463937       0.00000000      -0.00000000      -0.10206629      -6.54647390
Al       3.11060787      10.77546175      39.99220221      -0.00000000      -0.00000000       0.10206629      -5.64590157
N        3.11060787      12.57137204      40.59415201       0.00000000      -0.00000000      -0.10206629      -6.54647390
Al       3.11060787      12.57137204      42.49171485      -0.00000000      -0.00000000       0.10206629      -5.64590157
N        3.11060787      10.77546175      43.09366464      -0.00000000      -0.00000000      -0.10206629      -6.54647390
Al       1.55530394      13.46932719      -0.00000000      -0.00000000      -0.00000000       0.10206629      -5.64590157
N        1.55530394      15.26523748       0.60194979      -0.00000000      -0.00000000      -0.10206629      -6.54647390
Al       1.55530394      15.26523748       2.49951264      -0.00000000      -0.00000000       0.10206629      -5.64590157
N        1.55530394      13.46932719       3.10146243      -0.00000000      -0.00000000      -0.10206629      -6.54647390
Al       1.55530394      13.46932719       4.99902528      -0.00000000      -0.00000000       0.10206629      -5.64590157
N        1.55530394      15.26523748       5.60097507      -0.00000000       0.00000000      -0.10206629      -6.54647390
Al       1.55530394      15.26523748       7.49853791      -0.00000000      -0.00000000       0.10206629      -5.64590157
N        1.55530394      13.46932719       8.10048771      -0.00000000       0.00000000      -0.10206629      -6.54647390
Al       1.55530394      13.46932719       9.99805055      -0.00000000      -0.00000000       0.10206629      -5.64590157
N        1.55530394      15.26523748      10.60000035      -0.00000000       0.00000000      -0.10206629      -6.54647390
Al       1.55530394      15.26523748      12.49756319      -0.00000000      -0.00000000       0.10206629      -5.64590157
N        1.55530394      13.46932719      13.09951298      -0.00000000      -0.00000000      -0.10206629      -6.54647390
Al       1.55530394      13.46932719      14.99707583      -0.00000000      -0.00000000       0.10206629      -5.64590157
N        1.55530394      15.26523748      15.59902562      -0.00000000       0.00000000      -0.10206629      -6.54647390
Al       1.55530394      15.26523748      17.49658847      -0.00000000      -0.00000000       0.10206629      -5.64590157
N        1.55530394      13.46932719      18.09853826      -0.00000000       0.00000000      -0.10206629      -6.54647390
Al       1.55530394      13.46932719      19.99610111      -0.00000000      -0.00000000       0.10206629      -5.64590157
N        1.55530394      15.26523748      20.59805090       0.00000000       0.00000000      -0.10206629      -6.54647390
Al       1.55530394      15.26523748      22.49561374      -0.00000000      -0.00000000       0.10206629      -5.64590157
N        1.55530394      13.46932719      23.09756354       0.00000000      -0.00000000      -0.10206629      -6.54647390
Al       1.55530394      13.46932719      24.99512638      -0.00000000      -0.00000000       0.10206629      -5.64590157
N        1.55530394      15.26523748      25.59707618      -0.00000000      -0.00000000      -0.10206629      -6.54647390
Al       1.55530394      15.26523748      27.49463902      -0.00000000      -0.00000000       0.10206629      -5.64590157
N        1.55530394      13.46932719      28.09658881      -0.00000000      -0.00000000      -0.10206629      -6.54647390
Al       1.55530394      13.46932719      29.99415166      -0.00000000      -0.00000000       0.10206629      -5.64590157
N        1.55530394      15.26523748      30.59610145      -0.00000000      -0.00000000      -0.10206629      -6.54647390
Al       1.55530394      15.26523748      32.49366430      -0.00000000      -0.00000000       0.10206629      -5.64590157
N        1.55530394      13.46932719      33.09561409      -0.00000000      -0.00000000      -0.10206629      -6.54647390
Al       1.55530394      13.46932719      34.99317694      -0.00000000      -0.00000000       0.10206629      -5.64590157
N        1.55530394      15.26523748      35.59512673      -0.00000000      -0.00000000      -0.10206629      -6.54647390
Al       1.55530394      15.26523748      37.49268957      -0.00000000      -0.00000000       0.10206629      -5.64590157
N        1.55530394      13.46932719      38.09463937      -0.00000000      -0.00000000      -0.10206629      -6.54647390
Al       1.55530394      13.46932719      39.99220221      -0.00000000      -0.00000000       0.10206629      -5.64590157
N        1.55530394      15.26523748      40.59415201      -0.00000000      -0.00000000      -0.10206629      -6.54647390
Al       1.55530394      15.26523748      42.49171485      -0.00000000      -0.00000000       0.10206629      -5.64590157
N        1.55530394      13.46932719      43.09366464      -0.00000000      -0.00000000      -0.10206629      -6.54647390
Al       0.00000000      16.16319263      -0.00000000       0.00000000       0.00000000       0.10206629      -5.64590157
N        0.00000000      17.95910292       0.60194979       0.00000000      -0.00000000      -0.10206629      -6.54647390
Al       0.00000000      17.95910292       2.49951264      -0.00000000      -0.00000000       0.10206629      -5.64590157
N        0.00000000      16.16319263       3.10146243      -0.00000000       0.00000000      -0.10206629      -6.54647390
Al       0.00000000      16.16319263       4.99902528       0.00000000       0.00000000       0.10206629      -5.64590157
N        0.00000000      17.95910292       5.60097507       0.00000000      -0.00000000      -0.10206629      -6.54647390
Al       0.00000000      17.95910292       7.49853791      -0.00000000       0.00000000       0.10206629      -5.64590157
N        0.00000000      16.16319263       8.10048771      -0.00000000       0.00000000      -0.10206629      -6.54647390
Al       0.00000000      16.16319263       9.99805055      -0.00000000       0.00000000       0.10206629      -5.64590157
N        0.00000000      17.95910292      10.60000035       0.00000000      -0.00000000      -0.10206629      -6.54647390
Al       0.00000000      17.95910292      12.49756319      -0.00000000      -0.00000000       0.10206629      -5.64590157
N        0.00000000      16.16319263      13.09951298       0.00000000       0.00000000      -0.10206629      -6.54647390
Al       0.00000000      16.16319263      14.99707583      -0.00000000       0.00000000       0.10206629      -5.64590157
N        0.00000000      17.95910292      15.59902562      -0.00000000      -0.00000000      -0.10206629      -6.54647390
Al       0.00000000      17.95910292      17.49658847      -0.00000000      -0.00000000       0.10206629      -5.64590157
N        0.00000000      16.16319263      18.09853826      -0.00000000       0.00000000      -0.10206629      -6.54647390
Al       0.00000000      16.16319263      19.99610111      -0.00000000       0.00000000       0.10206629      -5.64590157
N        0.00000000      17.95910292      20.59805090       0.00000000      -0.00000000      -0.10206629      -6.54647390
Al       0.00000000      17.95910292      22.49561374      -0.00000000      -0.00000000       0.10206629      -5.64590157
N        0.00000000      16.16319263      23.09756354      -0.00000000       0.00000000      -0.10206629      -6.54647390
Al       0.00000000      16.16319263      24.99512638      -0.00000000       0.00000000       0.10206629      -5.64590157
N        0.00000000      17.95910292      25.59707618       0.00000000      -0.00000000      -0.10206629      -6.54647390
Al       0.00000000      17.95910292      27.49463902      -0.00000000      -0.00000000       0.10206629      -5.64590157
N        0.00000000      16.16319263      28.09658881      -0.00000000       0.00000000      -0.10206629      -6.54647390
Al       0.00000000      16.16319263      29.99415166      -0.00000000       0.00000000       0.10206629      -5.64590157
N        0.00000000      17.95910292      30.59610145      -0.00000000      -0.00000000      -0.10206629      -6.54647390
Al       0.00000000      17.95910292      32.49366430      -0.00000000      -0.00000000       0.10206629      -5.64590157
N        0.00000000      16.16319263      33.09561409      -0.00000000       0.00000000      -0.10206629      -6.54647390
Al       0.00000000      16.16319263      34.99317694      -0.00000000       0.00000000       0.10206629      -5.64590157
N        0.00000000      17.95910292      35.59512673      -0.00000000      -0.00000000      -0.10206629      -6.54647390
Al       0.00000000      17.95910292      37.49268957      -0.00000000      -0.00000000       0.10206629      -5.64590157
N        0.00000000      16.16319263      38.09463937      -0.00000000       0.00000000      -0.10206629      -6.54647390
Al       0.00000000      16.16319263      39.99220221      -0.00000000       0.00000000       0.10206629      -5.64590157
N        0.00000000      17.95910292      40.59415201      -0.00000000      -0.00000000      -0.10206629      -6.54647390
Al       0.00000000      17.95910292      42.49171485      -0.00000000      -0.00000000       0.10206629      -5.64590157
N        0.00000000      16.16319263      43.09366464      -0.00000000       0.00000000      -0.10206629      -6.54647390
Al      -1.55530394      18.85705806      -0.00000000      -0.00000000      -0.00000000       0.10206629      -5.64590157
N       -1.55530394      20.65296836       0.60194979       0.00000000       0.00000000      -0.10206629      -6.54647390
Al      -1.55530394      20.65296836       2.49951264      -0.00000000       0.00000000       0.10206629      -5.64590157
N       -1.55530394      18.85705806       3.10146243       0.00000000      -0.00000000      -0.10206629      -6.54647390
Al      -1.55530394      18.85705806       4.99902528      -0.00000000      -0.00000000       0.10206629      -5.64590157
N       -1.55530394      20.65296836       5.60097507       0.00000000       0.00000000      -0.10206629      -6.54647390
Al      -1.55530394      20.65296836       7.49853791      -0.00000000       0.00000000       0.10206629      -5.64590157
N       -1.55530394      18.85705806       8.10048771       0.00000000      -0.00000000      -0.10206629      -6.54647390
Al      -1.55530394      18.85705806       9.99805055      -0.00000000      -0.00000000       0.10206629      -5.64590157
N       -1.55530394      20.65296836      10.60000035       0.00000000       0.00000000      -0.10206629      -6.54647390
Al      -1.55530394      20.65296836      12.49756319      -0.00000000       0.00000000       0.10206629      -5.64590157
N       -1.55530394      18.85705806      13.09951298       0.00000000      -0.00000000      -0.10206629      -6.54647390
Al      -1.55530394      18.85705806      14.99707583      -0.00000000      -0.00000000       0.10206629      -5.64590157
N       -1.55530394      20.65296836      15.59902562       0.00000000       0.00000000      -0.10206629      -6.54647390
Al      -1.55530394      20.65296836      17.49658847      -0.00000000       0.00000000       0.10206629      -5.64590157
N       -1.55530394      18.85705806      18.09853826      -0.00000000      -0.00000000      -0.10206629      -6.54647390
Al      -1.55530394      18.85705806      19.99610111      -0.00000000      -0.00000000       0.10206629      -5.64590157
N       -1.55530394      20.65296836      20.59805090       0.00000000       0.00000000      -0.10206629      -6.54647390
Al      -1.55530394      20.65296836      22.49561374      -0.00000000       0.00000000       0.10206629      -5.64590157
N       -1.55530394      18.85705806      23.09756354      -0.00000000      -0.00000000      -0.10206629      -6.54647390
Al      -1.55530394      18.85705806      24.99512638      -0.00000000      -0.00000000       0.10206629      -5.64590157
N       -1.55530394      20.65296836      25.59707618       0.00000000       0.00000000      -0.10206629      -6.54647390
Al      -1.55530394      20.65296836      27.49463902      -0.00000000       0.00000000       0.10206629      -5.64590157
N       -1.55530394      18.85705806      28.09658881       0.00000000      -0.00000000      -0.10206629      -6.54647390
Al      -1.55530394      18.85705806      29.99415166       0.00000000      -0.00000000       0.10206629      -5.64590157
N       -1.55530394      20.65296836      30.59610145       0.00000000       0.00000000      -0.10206629      -6.54647390
Al      -1.55530394      20.65296836      32.49366430       0.00000000       0.00000000       0.10206629      -5.64590157
N       -1.55530394      18.85705806      33.09561409       0.00000000      -0.00000000      -0.10206629      -6.54647390
Al      -1.55530394      18.85705806      34.99317694      -0.00000000      -0.00000000       0.10206629      -5.64590157
N       -1.55530394      20.65296836      35.59512673       0.00000000       0.00000000      -0.10206629      -6.54647390
Al      -1.55530394      20.65296836      37.49268957      -0.00000000       0.00000000       0.10206629      -5.64590157
N       -1.55530394      18.85705806      38.09463937       0.00000000      -0.00000000      -0.10206629      -6.54647390
Al      -1.55530394      18.85705806      39.99220221      -0.00000000      -0.00000000       0.10206629      -5.64590157
N       -1.55530394      20.65296836      40.59415201       0.00000000       0.00000000      -0.10206629      -6.54647390
Al      -1.55530394      20.65296836      42.49171485       0.00000000       0.00000000       0.10206629      -5.64590157
N       -1.55530394      18.85705806      43.09366464       0.00000000      -0.00000000      -0.10206629      -6.54647390
Al      -3.11060787      21.55092350      -0.00000000      -0.00000000      -0.00000000       0.10206629      -5.64590157
N       -3.11060787      23.34683379       0.60194979      -0.00000000       0.00000000      -0.10206629      -6.54647390
Al      -3.11060787      23.34683379       2.49951264      -0.00000000       0.00000000       0.10206629      -5.64590157
N       -3.11060787      21.55092350       3.10146243      -0.00000000       0.00000000      -0.10206629      -6.54647390
Al      -3.11060787      21.55092350       4.99902528      -0.00000000       0.00000000       0.10206629      -5.64590157
N       -3.11060787      23.34683379       5.60097507       0.00000000       0.00000000      -0.10206629      -6.54647390
Al      -3.11060787      23.34683379       7.49853791      -0.00000000       0.00000000       0.10206629      -5.64590157
N       -3.11060787      21.55092350       8.10048771      -0.00000000      -0.00000000      -0.10206629      -6.54647390
Al      -3.11060787      21.55092350       9.99805055      -0.00000000       0.00000000       0.10206629      -5.64590157
N       -3.11060787      23.34683379      10.60000035      -0.00000000       0.00000000      -0.10206629      -6.54647390
Al      -3.11060787      23.34683379      12.49756319      -0.00000000       0.00000000       0.10206629      -5.64590157
N       -3.11060787      21.55092350      13.09951298      -0.00000000      -0.00000000      -0.10206629      -6.54647390
Al      -3.11060787      21.55092350      14.99707583      -0.00000000      -0.00000000       0.10206629      -5.64590157
N       -3.11060787      23.34683379      15.59902562      -0.00000000       0.00000000      -0.10206629      -6.54647390
Al      -3.11060787      23.34683379      17.49658847      -0.00000000       0.00000000       0.10206629      -5.64590157
N       -3.11060787      21.55092350      18.09853826      -0.00000000      -0.00000000      -0.10206629      -6.54647390
Al      -3.11060787      21.55092350      19.99610111      -0.00000000       0.00000000       0.10206629      -5.64590157
N       -3.11060787      23.34683379      20.59805090      -0.00000000       0.00000000      -0.10206629      -6.54647390
Al      -3.11060787      23.34683379      22.49561374      -0.00000000       0.00000000       0.10206629      -5.64590157
N       -3.11060787      21.55092350      23.09756354      -0.00000000      -0.00000000      -0.10206629      -6.54647390
Al      -3.11060787      21.55092350      24.99512638      -0.00000000      -0.00000000       0.10206629      -5.64590157
N       -3.11060787      23.34683379      25.59707618      -0.00000000       0.00000000      -0.10206629      -6.54647390
Al      -3.11060787      23.34683379      27.49463902      -0.00000000       0.00000000       0.10206629      -5.64590157
N       -3.11060787      21.55092350      28.09658881      -0.00000000      -0.00000000      -0.10206629      -6.54647390
Al      -3.11060787      21.55092350      29.99415166      -0.00000000      -0.00000000       0.10206629      -5.64590157
N       -3.11060787      23.34683379      30.59610145      -0.00000000       0.00000000      -0.10206629      -6.54647390
Al      -3.11060787      23.34683379      32.49366430      -0.00000000       0.00000000       0.10206629      -5.64590157
N       -3.11060787      21.55092350      33.09561409      -0.00000000      -0.00000000      -0.10206629      -6.54647390
Al      -3.11060787      21.55092350      34.99317694      -0.00000000      -0.00000000       0.10206629      -5.64590157
N       -3.11060787      23.34683379      35.59512673      -0.00000000       0.00000000      -0.10206629      -6.54647390
Al      -3.11060787      23.34683379      37.49268957      -0.00000000       0.00000000       0.10206629      -5.64590157
N       -3.11060787      21.55092350      38.09463937      -0.00000000       0.00000000      -0.10206629      -6.54647390
Al      -3.11060787      21.55092350      39.99220221      -0.00000000      -0.00000000       0.10206629      -5.64590157
N       -3.11060787      23.34683379      40.59415201      -0.00000000       0.00000000      -0.10206629      -6.54647390
Al      -3.11060787      23.34683379      42.49171485      -0.00000000       0.00000000       0.10206629      -5.64590157
N       -3.11060787      21.55092350      43.09366464      -0.00000000       0.00000000      -0.10206629      -6.54647390
Al      -4.66591181      24.24478894      -0.00000000       0.00000000      -0.00000000       0.10206629      -5.64590157
N       -4.66591181      26.04069923       0.60194979      -0.00000000      -0.00000000      -0.10206629      -6.54647390
Al      -4.66591181      26.04069923       2.49951264      -0.00000000      -0.00000000       0.10206629      -5.64590157
N       -4.66591181      24.24478894       3.10146243       0.00000000      -0.00000000      -0.10206629      -6.54647390
Al      -4.66591181      24.24478894       4.99902528      -0.00000000      -0.00000000       0.10206629      -5.64590157
N       -4.66591181      26.04069923       5.60097507      -0.00000000       0.00000000      -0.10206629      -6.54647390
Al      -4.66591181      26.04069923       7.49853791      -0.00000000      -0.00000000       0.10206629      -5.64590157
N       -4.66591181      24.24478894       8.10048771       0.00000000      -0.00000000      -0.10206629      -6.54647390
Al      -4.66591181      24.24478894       9.99805055       0.00000000      -0.00000000       0.10206629      -5.64590157
N       -4.66591181      26.04069923      10.60000035      -0.00000000       0.00000000      -0.10206629      -6.54647390
Al      -4.66591181      26.04069923      12.49756319      -0.00000000      -0.00000000       0.10206629      -5.64590157
N       -4.66591181      24.24478894      13.09951298       0.00000000      -0.00000000      -0.10206629      -6.54647390
Al      -4.66591181      24.24478894      14.99707583       0.00000000      -0.00000000       0.10206629      -5.64590157
N       -4.66591181      26.04069923      15.59902562      -0.00000000       0.00000000      -0.10206629      -6.54647390
Al      -4.66591181      26.04069923      17.49658847      -0.00000000      -0.00000000       0.10206629      -5.64590157
N       -4.66591181      24.24478894      18.09853826       0.00000000      -0.00000000      -0.10206629      -6.54647390
Al      -4.66591181      24.24478894      19.99610111       0.00000000      -0.00000000       0.10206629      -5.64590157
N       -4.66591181      26.04069923      20.59805090       0.00000000       0.00000000      -0.10206629      -6.54647390
Al      -4.66591181      26.04069923      22.49561374       0.00000000      -0.00000000       0.10206629      -5.64590157
N       -4.66591181      24.24478894      23.09756354       0.00000000      -0.00000000      -0.10206629      -6.54647390
Al      -4.66591181      24.24478894      24.99512638       0.00000000      -0.00000000       0.10206629      -5.64590157
N       -4.66591181      26.04069923      25.59707618      -0.00000000      -0.00000000      -0.10206629      -6.54647390
Al      -4.66591181      26.04069923      27.49463902      -0.00000000      -0.00000000       0.10206629      -5.64590157
N       -4.66591181      24.24478894      28.09658881       0.00000000      -0.00000000      -0.10206629      -6.54647390
Al      -4.66591181      24.24478894      29.99415166       0.00000000      -0.00000000       0.10206629      -5.64590157
N       -4.66591181      26.04069923      30.59610145      -0.00000000      -0.00000000      -0.10206629      -6.54647390
Al      -4.66591181      26.04069923      32.49366430       0.00000000      -0.00000000       0.10206629      -5.64590157
N       -4.66591181      24.24478894      33.09561409       0.00000000      -0.00000000      -0.10206629      -6.54647390
Al      -4.66591181      24.24478894      34.99317694       0.00000000      -0.00000000       0.10206629      -5.64590157
N       -4.66591181      26.04069923      35.59512673      -0.00000000      -0.00000000      -0.10206629      -6.54647390
Al      -4.66591181      26.04069923      37.49268957      -0.00000000      -0.00000000       0.10206629      -5.64590157
N       -4.66591181      24.24478894      38.09463937       0.00000000      -0.00000000      -0.10206629      -6.54647390
Al      -4.66591181      24.24478894      39.99220221      -0.00000000      -0.00000000       0.10206629      -5.64590157
N       -4.66591181      26.04069923      40.59415201      -0.00000000      -0.00000000      -0.10206629      -6.54647390
Al      -4.66591181      26.04069923      42.49171485       0.00000000      -0.00000000       0.10206629      -5.64590157
N       -4.66591181      24.24478894      43.09366464      -0.00000000      -0.00000000      -0.10206629      -6.54647390
Al      -6.22121574      26.93865438      -0.00000000      -0.00000000      -0.00000000       0.10206629      -5.64590157
N       -6.22121574      28.73456467       0.60194979      -0.00000000       0.00000000      -0.10206629      -6.54647390
Al      -6.22121574      28.73456467       2.49951264      -0.00000000       0.00000000       0.10206629      -5.64590157
N       -6.22121574      26.93865438       3.10146243      -0.00000000       0.00000000      -0.10206629      -6.54647390
Al      -6.22121574      26.93865438       4.99902528      -0.00000000      -0.00000000       0.10206629      -5.64590157
N       -6.22121574      28.73456467       5.60097507      -0.00000000       0.00000000      -0.10206629      -6.54647390
Al      -6.22121574      28.73456467       7.49853791      -0.00000000       0.00000000       0.10206629      -5.64590157
N       -6.22121574      26.93865438       8.10048771      -0.00000000       0.00000000      -0.10206629      -6.54647390
Al      -6.22121574      26.93865438       9.99805055      -0.00000000      -0.00000000       0.10206629      -5.64590157
N       -6.22121574      28.73456467      10.60000035      -0.00000000       0.00000000      -0.10206629      -6.54647390
Al      -6.22121574      28.73456467      12.49756319      -0.00000000       0.00000000       0.10206629      -5.64590157
N       -6.22121574      26.93865438      13.09951298      -0.00000000       0.00000000      -0.10206629      -6.54647390
Al      -6.22121574      26.93865438      14.99707583      -0.00000000      -0.00000000       0.10206629      -5.64590157
N       -6.22121574      28.73456467      15.59902562      -0.00000000       0.00000000      -0.10206629      -6.54647390
Al      -6.22121574      28.73456467      17.49658847      -0.00000000       0.00000000       0.10206629      -5.64590157
N       -6.22121574      26.93865438      18.09853826      -0.00000000       0.00000000      -0.10206629      -6.54647390
Al      -6.22121574      26.93865438      19.99610111      -0.00000000      -0.00000000       0.10206629      -5.64590157
N       -6.22121574      28.73456467      20.59805090      -0.00000000       0.00000000      -0.10206629      -6.54647390
Al      -6.22121574      28.73456467      22.49561374      -0.00000000       0.00000000       0.10206629      -5.64590157
N       -6.22121574      26.93865438      23.09756354      -0.00000000      -0.00000000      -0.10206629      -6.54647390
Al      -6.22121574      26.93865438      24.99512638      -0.00000000      -0.00000000       0.10206629      -5.64590157
N       -6.22121574      28.73456467      25.59707618      -0.00000000       0.00000000      -0.10206629      -6.54647390
Al      -6.22121574      28.73456467      27.49463902      -0.00000000       0.00000000       0.10206629      -5.64590157
N       -6.22121574      26.93865438      28.09658881      -0.00000000      -0.00000000      -0.10206629      -6.54647390
Al      -6.22121574      26.93865438      29.99415166      -0.00000000      -0.00000000       0.10206629      -5.64590157
N       -6.22121574      28.73456467      30.59610145      -0.00000000       0.00000000      -0.10206629      -6.54647390
Al      -6.22121574      28.73456467      32.49366430      -0.00000000       0.00000000       0.10206629      -5.64590157
N       -6.22121574      26.93865438      33.09561409      -0.00000000      -0.00000000      -0.10206629      -6.54647390
Al      -6.22121574      26.93865438      34.99317694      -0.00000000      -0.00000000       0.10206629      -5.64590157
N       -6.22121574      28.73456467      35.59512673      -0.00000000       0.00000000      -0.10206629      -6.54647390
Al      -6.22121574      28.73456467      37.49268957      -0.00000000       0.00000000       0.10206629      -5.64590157
N       -6.22121574      26.93865438      38.09463937      -0.00000000      -0.00000000      -0.10206629      -6.54647390
Al      -6.22121574      26.93865438      39.99220221      -0.00000000      -0.00000000       0.10206629      -5.64590157
N       -6.22121574      28.73456467      40.59415201      -0.00000000       0.00000000      -0.10206629      -6.54647390
Al      -6.22121574      28.73456467      42.49171485      -0.00000000       0.00000000       0.10206629      -5.64590157
N       -6.22121574      26.93865438      43.09366464      -0.00000000      -0.00000000      -0.10206629      -6.54647390
Al      -7.77651968      29.63251982      -0.00000000       0.00000000       0.00000000       0.10206629      -5.64590157
N       -7.77651968      31.42843011       0.60194979      -0.00000000      -0.00000000      -0.10206629      -6.54647390
Al      -7.77651968      31.42843011       2.49951264      -0.00000000      -0.00000000       0.10206629      -5.64590157
N       -7.77651968      29.63251982       3.10146243       0.00000000       0.00000000      -0.10206629      -6.54647390
Al      -7.77651968      29.63251982       4.99902528       0.00000000       0.00000000       0.10206629      -5.64590157
N       -7.77651968      31.42843011       5.60097507      -0.00000000      -0.00000000      -0.10206629      -6.54647390
Al      -7.77651968      31.42843011       7.49853791      -0.00000000      -0.00000000       0.10206629      -5.64590157
N       -7.77651968      29.63251982       8.10048771       0.00000000      -0.00000000      -0.10206629      -6.54647390
Al      -7.77651968      29.63251982       9.99805055       0.00000000       0.00000000       0.10206629      -5.64590157
N       -7.77651968      31.42843011      10.60000035      -0.00000000      -0.00000000      -0.10206629      -6.54647390
Al      -7.77651968      31.42843011      12.49756319      -0.00000000      -0.00000000       0.10206629      -5.64590157
N       -7.77651968      29.63251982      13.09951298       0.00000000       0.00000000      -0.10206629      -6.54647390
Al      -7.77651968      29.63251982      14.99707583       0.00000000       0.00000000       0.10206629      -5.64590157
N       -7.77651968      31.42843011      15.59902562      -0.00000000      -0.00000000      -0.10206629      -6.54647390
Al      -7.77651968      31.42843011      17.49658847      -0.00000000      -0.00000000       0.10206629      -5.64590157
N       -7.77651968      29.63251982      18.09853826       0.00000000      -0.00000000      -0.10206629      -6.54647390
Al      -7.77651968      29.63251982      19.99610111       0.00000000       0.00000000       0.10206629      -5.64590157
N       -7.77651968      31.42843011      20.59805090      -0.00000000      -0.00000000      -0.10206629      -6.54647390
Al      -7.77651968      31.42843011      22.49561374      -0.00000000      -0.00000000       0.10206629      -5.64590157
N       -7.77651968      29.63251982      23.09756354       0.00000000      -0.00000000      -0.10206629      -6.54647390
Al      -7.77651968      29.63251982      24.99512638       0.00000000       0.00000000       0.10206629      -5.64590157
N       -7.77651968      31.42843011      25.59707618      -0.00000000      -0.00000000      -0.10206629      -6.54647390
Al      -7.77651968      31.42843011      27.49463902      -0.00000000      -0.00000000       0.10206629      -5.64590157
N       -7.77651968      29.63251982      28.09658881       0.00000000       0.00000000      -0.10206629      -6.54647390
Al      -7.77651968      29.63251982      29.99415166       0.00000000       0.00000000       0.10206629      -5.64590157
N       -7.77651968      31.42843011      30.59610145      -0.00000000      -0.00000000      -0.10206629      -6.54647390
Al      -7.77651968      31.42843011      32.49366430      -0.00000000      -0.00000000       0.10206629      -5.64590157
N       -7.77651968      29.63251982      33.09561409       0.00000000       0.00000000      -0.10206629      -6.54647390
Al      -7.77651968      29.63251982      34.99317694       0.00000000       0.00000000       0.10206629      -5.64590157
N       -7.77651968      31.42843011      35.59512673      -0.00000000      -0.00000000      -0.10206629      -6.54647390
Al      -7.77651968      31.42843011      37.49268957      -0.00000000      -0.00000000       0.10206629      -5.64590157
N       -7.77651968      29.63251982      38.09463937       0.00000000       0.00000000      -0.10206629      -6.54647390
Al      -7.77651968      29.63251982      39.99220221       0.00000000       0.00000000       0.10206629      -5.64590157
N       -7.77651968      31.42843011      40.59415201      -0.00000000      -0.00000000      -0.10206629      -6.54647390
Al      -7.77651968      31.42843011      42.49171485      -0.00000000      -0.00000000       0.10206629      -5.64590157
N       -7.77651968      29.63251982      43.09366464       0.00000000       0.00000000      -0.10206629      -6.54647390
Al      -9.33182361      32.32638525      -0.00000000      -0.00000000       0.00000000       0.10206629      -5.64590157
N       -9.33182361      34.12229555       0.60194979      -0.00000000      -0.00000000      -0.10206629      -6.54647390
Al      -9.33182361      34.12229555       2.49951264      -0.00000000       0.00000000       0.10206629      -5.64590157
N       -9.33182361      32.32638525       3.10146243       0.00000000       0.00000000      -0.10206629      -6.54647390
Al      -9.33182361      32.32638525       4.99902528       0.00000000       0.00000000       0.10206629      -5.64590157
N       -9.33182361      34.12229555       5.60097507       0.00000000      -0.00000000      -0.10206629      -6.54647390
Al      -9.33182361      34.12229555       7.49853791      -0.00000000       0.00000000       0.10206629      -5.64590157
N       -9.33182361      32.32638525       8.10048771       0.00000000       0.00000000      -0.10206629      -6.54647390
Al      -9.33182361      32.32638525       9.99805055       0.00000000       0.00000000       0.10206629      -5.64590157
N       -9.33182361      34.12229555      10.60000035      -0.00000000      -0.00000000      -0.10206629      -6.54647390
Al      -9.33182361      34.12229555      12.49756319      -0.00000000       0.00000000       0.10206629      -5.64590157
N       -9.33182361      32.32638525      13.09951298       0.00000000       0.00000000      -0.10206629      -6.54647390
Al      -9.33182361      32.32638525      14.99707583       0.00000000       0.00000000       0.10206629      -5.64590157
N       -9.33182361      34.12229555      15.59902562      -0.00000000      -0.00000000      -0.10206629      -6.54647390
Al      -9.33182361      34.12229555      17.49658847      -0.00000000       0.00000000       0.10206629      -5.64590157
N       -9.33182361      32.32638525      18.09853826       0.00000000       0.00000000      -0.10206629      -6.54647390
Al      -9.33182361      32.32638525      19.99610111       0.00000000       0.00000000       0.10206629      -5.64590157
N       -9.33182361      34.12229555      20.59805090      -0.00000000      -0.00000000      -0.10206629      -6.54647390
Al      -9.33182361      34.12229555      22.49561374      -0.00000000       0.00000000       0.10206629      -5.64590157
N       -9.33182361      32.32638525      23.09756354       0.00000000       0.00000000      -0.10206629      -6.54647390
Al      -9.33182361      32.32638525      24.99512638       0.00000000       0.00000000       0.10206629      -5.64590157
N       -9.33182361      34.12229555      25.59707618      -0.00000000      -0.00000000      -0.10206629      -6.54647390
Al      -9.33182361      34.12229555      27.49463902      -0.00000000       0.00000000       0.10206629      -5.64590157
N       -9.33182361      32.32638525      28.09658881       0.00000000       0.00000000      -0.10206629      -6.54647390
Al      -9.33182361      32.32638525      29.99415166       0.00000000       0.00000000       0.10206629      -5.64590157
N       -9.33182361      34.12229555      30.59610145      -0.00000000      -0.00000000      -0.10206629      -6.54647390
Al      -9.33182361      34.12229555      32.49366430      -0.00000000       0.00000000       0.10206629      -5.64590157
N       -9.33182361      32.32638525      33.09561409       0.00000000       0.00000000      -0.10206629      -6.54647390
Al      -9.33182361      32.32638525      34.99317694       0.00000000       0.00000000       0.10206629      -5.64590157
N       -9.33182361      34.12229555      35.59512673      -0.00000000       0.00000000      -0.10206629      -6.54647390
Al      -9.33182361      34.12229555      37.49268957      -0.00000000       0.00000000       0.10206629      -5.64590157
N       -9.33182361      32.32638525      38.09463937       0.00000000       0.00000000      -0.10206629      -6.54647390
Al      -9.33182361      32.32638525      39.99220221       0.00000000       0.00000000       0.10206629      -5.64590157
N       -9.33182361      34.12229555      40.59415201      -0.00000000      -0.00000000      -0.10206629      -6.54647390
Al      -9.33182361      34.12229555      42.49171485      -0.00000000       0.00000000       0.10206629      -5.64590157
N       -9.33182361      32.32638525      43.09366464       0.00000000       0.00000000      -0.10206629      -6.54647390
Al     -10.88712755      35.02025069      -0.00000000       0.00000000       0.00000000       0.10206629      -5.64590157
N      -10.88712755      36.81616098       0.60194979      -0.00000000      -0.00000000      -0.10206629      -6.54647390
Al     -10.88712755      36.81616098       2.49951264      -0.00000000      -0.00000000       0.10206629      -5.64590157
N      -10.88712755      35.02025069       3.10146243       0.00000000       0.00000000      -0.10206629      -6.54647390
Al     -10.88712755      35.02025069       4.99902528       0.00000000       0.00000000       0.10206629      -5.64590157
N      -10.88712755      36.81616098       5.60097507      -0.00000000      -0.00000000      -0.10206629      -6.54647390
Al     -10.88712755      36.81616098       7.49853791      -0.00000000      -0.00000000       0.10206629      -5.64590157
N      -10.88712755      35.02025069       8.10048771       0.00000000       0.00000000      -0.10206629      -6.54647390
Al     -10.88712755      35.02025069       9.99805055       0.00000000       0.00000000       0.10206629      -5.64590157
N      -10.88712755      36.81616098      10.60000035      -0.00000000      -0.00000000      -0.10206629      -6.54647390
Al     -10.88712755      36.81616098      12.49756319      -0.00000000      -0.00000000       0.10206629      -5.64590157
N      -10.88712755      35.02025069      13.09951298       0.00000000       0.00000000      -0.10206629      -6.54647390
Al     -10.88712755      35.02025069      14.99707583       0.00000000       0.00000000       0.10206629      -5.64590157
N      -10.88712755      36.81616098      15.59902562      -0.00000000      -0.00000000      -0.10206629      -6.54647390
Al     -10.88712755      36.81616098      17.49658847      -0.00000000      -0.00000000       0.10206629      -5.64590157
N      -10.88712755      35.02025069      18.09853826       0.00000000       0.00000000      -0.10206629      -6.54647390
Al     -10.88712755      35.02025069      19.99610111       0.00000000       0.00000000       0.10206629      -5.64590157
N      -10.88712755      36.81616098      20.59805090      -0.00000000      -0.00000000      -0.10206629      -6.54647390
Al     -10.88712755      36.81616098      22.49561374      -0.00000000      -0.00000000       0.10206629      -5.64590157
N      -10.88712755      35.02025069      23.09756354       0.00000000       0.00000000      -0.10206629      -6.54647390
Al     -10.88712755      35.02025069      24.99512638       0.00000000       0.00000000       0.10206629      -5.64590157
N      -10.88712755      36.81616098      25.59707618      -0.00000000      -0.00000000      -0.10206629      -6.54647390
Al     -10.88712755      36.81616098      27.49463902      -0.00000000      -0.00000000       0.10206629      -5.64590157
N      -10.88712755      35.02025069      28.09658881       0.00000000       0.00000000      -0.10206629      -6.54647390
Al     -10.88712755      35.02025069      29.99415166       0.00000000       0.00000000       0.10206629      -5.64590157
N      -10.88712755      36.81616098      30.59610145      -0.00000000      -0.00000000      -0.10206629      -6.54647390
Al     -10.88712755      36.81616098      32.49366430      -0.00000000      -0.00000000       0.10206629      -5.64590157
N      -10.88712755      35.02025069      33.09561409       0.00000000       0.00000000      -0.10206629      -6.54647390
Al     -10.88712755      35.02025069      34.99317694       0.00000000       0.00000000       0.10206629      -5.64590157
N      -10.88712755      36.81616098      35.59512673      -0.00000000      -0.00000000      -0.10206629      -6.54647390
Al     -10.88712755      36.81616098      37.49268957      -0.00000000      -0.00000000       0.10206629      -5.64590157
N      -10.88712755      35.02025069      38.09463937       0.00000000       0.00000000      -0.10206629      -6.54647390
Al     -10.88712755      35.02025069      39.99220221       0.00000000       0.00000000       0.10206629      -5.64590157
N      -10.88712755      36.81616098      40.59415201      -0.00000000      -0.00000000      -0.10206629      -6.54647390
Al     -10.88712755      36.81616098      42.49171485      -0.00000000      -0.00000000       0.10206629      -5.64590157
N      -10.88712755      35.02025069      43.09366464       0.00000000       0.00000000      -0.10206629      -6.54647390
Al     -12.44243149      37.71411613      -0.00000000       0.00000000      -0.00000000       0.10206629      -5.64590157
N      -12.44243149      39.51002642       0.60194979       0.00000000       0.00000000      -0.10206629      -6.54647390
Al     -12.44243149      39.51002642       2.49951264       0.00000000       0.00000000       0.10206629      -5.64590157
N      -12.44243149      37.71411613       3.10146243       0.00000000      -0.00000000      -0.10206629      -6.54647390
Al     -12.44243149      37.71411613       4.99902528       0.00000000      -0.00000000       0.10206629      -5.64590157
N      -12.44243149      39.51002642       5.60097507       0.00000000       0.00000000      -0.10206629      -6.54647390
Al     -12.44243149      39.51002642       7.49853791       0.00000000       0.00000000       0.10206629      -5.64590157
N      -12.44243149      37.71411613       8.10048771       0.00000000      -0.00000000      -0.10206629      -6.54647390
Al     -12.44243149      37.71411613       9.99805055       0.00000000      -0.00000000       0.10206629      -5.64590157
N      -12.44243149      39.51002642      10.60000035       0.00000000       0.00000000      -0.10206629      -6.54647390
Al     -12.44243149      39.51002642      12.49756319       0.00000000       0.00000000       0.10206629      -5.64590157
N      -12.44243149      37.71411613      13.09951298       0.00000000      -0.00000000      -0.10206629      -6.54647390
Al     -12.44243149      37.71411613      14.99707583       0.00000000      -0.00000000       0.10206629      -5.64590157
N      -12.44243149      39.51002642      15.59902562       0.00000000       0.00000000      -0.10206629      -6.54647390
Al     -12.44243149      39.51002642      17.49658847       0.00000000       0.00000000       0.10206629      -5.64590157
N      -12.44243149      37.71411613      18.09853826       0.00000000      -0.00000000      -0.10206629      -6.54647390
Al     -12.44243149      37.71411613      19.99610111       0.00000000      -0.00000000       0.10206629      -5.64590157
N      -12.44243149      39.51002642      20.59805090       0.00000000       0.00000000      -0.10206629      -6.54647390
Al     -12.44243149      39.51002642      22.49561374       0.00000000       0.00000000       0.10206629      -5.64590157
N      -12.44243149      37.71411613      23.09756354       0.00000000      -0.00000000      -0.10206629      -6.54647390
Al     -12.44243149      37.71411613      24.99512638       0.00000000      -0.00000000       0.10206629      -5.64590157
N      -12.44243149      39.51002642      25.59707618       0.00000000       0.00000000      -0.10206629      -6.54647390
Al     -12.44243149      39.51002642      27.49463902       0.00000000       0.00000000       0.10206629      -5.64590157
N      -12.44243149      37.71411613      28.09658881       0.00000000      -0.00000000      -0.10206629      -6.54647390
Al     -12.44243149      37.71411613      29.99415166       0.00000000      -0.00000000       0.10206629      -5.64590157
N      -12.44243149      39.51002642      30.59610145       0.00000000       0.00000000      -0.10206629      -6.54647390
Al     -12.44243149      39.51002642      32.49366430       0.00000000       0.00000000       0.10206629      -5.64590157
N      -12.44243149      37.71411613      33.09561409       0.00000000      -0.00000000      -0.10206629      -6.54647390
Al     -12.44243149      37.71411613      34.99317694       0.00000000      -0.00000000       0.10206629      -5.64590157
N      -12.44243149      39.51002642      35.59512673       0.00000000       0.00000000      -0.10206629      -6.54647390
Al     -12.44243149      39.51002642      37.49268957       0.00000000       0.00000000       0.10206629      -5.64590157
N      -12.44243149      37.71411613      38.09463937       0.00000000      -0.00000000      -0.10206629      -6.54647390
Al     -12.44243149      37.71411613      39.99220221       0.00000000      -0.00000000       0.10206629      -5.64590157
N      -12.44243149      39.51002642      40.59415201       0.00000000       0.00000000      -0.10206629      -6.54647390
Al     -12.44243149      39.51002642      42.49171485       0.00000000       0.00000000       0.10206629      -5.64590157
N      -12.44243149      37.71411613      43.09366464       0.00000000      -0.00000000      -0.10206629      -6.54647390
Al      12.44243149      -0.00000000       0.00000000      -0.00000000      -0.00000000       0.10206629      -5.64590157
N       12.44243149       1.79591029       0.60194979       0.00000000      -0.00000000      -0.10206629      -6.54647390
Al      12.44243149       1.79591029       2.49951264       0.00000000      -0.00000000       0.10206629      -5.64590157
N       12.44243149      -0.00000000       3.10146243      -0.00000000      -0.00000000      -0.10206629      -6.54647390
Al      12.44243149      -0.00000000       4.99902528      -0.00000000      -0.00000000       0.10206629      -5.64590157
N       12.44243149       1.79591029       5.60097507       0.00000000      -0.00000000      -0.10206629      -6.54647390
Al      12.44243149       1.79591029       7.49853791       0.00000000      -0.00000000       0.10206629      -5.64590157
N       12.44243149      -0.00000000       8.10048771      -0.00000000      -0.00000000      -0.10206629      -6.54647390
Al      12.44243149      -0.00000000       9.99805055      -0.00000000      -0.00000000       0.10206629      -5.64590157
N       12.44243149       1.79591029      10.60000035       0.00000000      -0.00000000      -0.10206629      -6.54647390
Al      12.44243149       1.79591029      12.49756319       0.00000000      -0.00000000       0.10206629      -5.64590157
N       12.44243149      -0.00000000      13.09951298      -0.00000000      -0.00000000      -0.10206629      -6.54647390
Al      12.44243149      -0.00000000      14.99707583      -0.00000000      -0.00000000       0.10206629      -5.64590157
N       12.44243149       1.79591029      15.59902562      -0.00000000      -0.00000000      -0.10206629      -6.54647390
Al      12.44243149       1.79591029      17.49658847      -0.00000000      -0.00000000       0.10206629      -5.64590157
N       12.44243149      -0.00000000      18.09853826      -0.00000000      -0.00000000      -0.10206629      -6.54647390
Al      12.44243149      -0.00000000      19.99610111      -0.00000000      -0.00000000       0.10206629      -5.64590157
N       12.44243149       1.79591029      20.59805090       0.00000000      -0.00000000      -0.10206629      -6.54647390
Al      12.44243149       1.79591029      22.49561374      -0.00000000      -0.00000000       0.10206629      -5.64590157
N       12.44243149      -0.00000000      23.09756354      -0.00000000      -0.00000000      -0.10206629      -6.54647390
Al      12.44243149      -0.00000000      24.99512638      -0.00000000      -0.00000000       0.10206629      -5.64590157
N       12.44243149       1.79591029      25.59707618      -0.00000000      -0.00000000      -0.10206629      -6.54647390
Al      12.44243149       1.79591029      27.49463902      -0.00000000      -0.00000000       0.10206629      -5.64590157
N       12.44243149      -0.00000000      28.09658881      -0.00000000      -0.00000000      -0.10206629      -6.54647390
Al      12.44243149      -0.00000000      29.99415166      -0.00000000      -0.00000000       0.10206629      -5.64590157
N       12.44243149       1.79591029      30.59610145       0.00000000      -0.00000000      -0.10206629      -6.54647390
Al      12.44243149       1.79591029      32.49366430       0.00000000      -0.00000000       0.10206629      -5.64590157
N       12.44243149      -0.00000000      33.09561409      -0.00000000      -0.00000000      -0.10206629      -6.54647390
Al      12.44243149      -0.00000000      34.99317694      -0.00000000      -0.00000000       0.10206629      -5.64590157
N       12.44243149       1.79591029      35.59512673      -0.00000000      -0.00000000      -0.10206629      -6.54647390
Al      12.44243149       1.79591029      37.49268957      -0.00000000      -0.00000000       0.10206629      -5.64590157
N       12.44243149      -0.00000000      38.09463937      -0.00000000      -0.00000000      -0.10206629      -6.54647390
Al      12.44243149      -0.00000000      39.99220221      -0.00000000      -0.00000000       0.10206629      -5.64590157
N       12.44243149       1.79591029      40.59415201      -0.00000000      -0.00000000      -0.10206629      -6.54647390
Al      12.44243149       1.79591029      42.49171485       0.00000000      -0.00000000       0.10206629      -5.64590157
N       12.44243149      -0.00000000      43.09366464      -0.00000000      -0.00000000      -0.10206629      -6.54647390
Al      10.88712755       2.69386544       0.00000000       0.00000000      -0.00000000       0.10206629      -5.64590157
N       10.88712755       4.48977573       0.60194979       0.00000000       0.00000000      -0.10206629      -6.54647390
Al      10.88712755       4.48977573       2.49951264       0.00000000       0.00000000       0.10206629      -5.64590157
N       10.88712755       2.69386544       3.10146243       0.00000000       0.00000000      -0.10206629      -6.54647390
Al      10.88712755       2.69386544       4.99902528       0.00000000      -0.00000000       0.10206629      -5.64590157
N       10.88712755       4.48977573       5.60097507       0.00000000       0.00000000      -0.10206629      -6.54647390
Al      10.88712755       4.48977573       7.49853791      -0.00000000       0.00000000       0.10206629      -5.64590157
N       10.88712755       2.69386544       8.10048771       0.00000000      -0.00000000      -0.10206629      -6.54647390
Al      10.88712755       2.69386544       9.99805055      -0.00000000       0.00000000       0.10206629      -5.64590157
N       10.88712755       4.48977573      10.60000035       0.00000000       0.00000000      -0.10206629      -6.54647390
Al      10.88712755       4.48977573      12.49756319       0.00000000       0.00000000       0.10206629      -5.64590157
N       10.88712755       2.69386544      13.09951298       0.00000000       0.00000000      -0.10206629      -6.54647390
Al      10.88712755       2.69386544      14.99707583       0.00000000      -0.00000000       0.10206629      -5.64590157
N       10.88712755       4.48977573      15.59902562       0.00000000       0.00000000      -0.10206629      -6.54647390
Al      10.88712755       4.48977573      17.49658847      -0.00000000       0.00000000       0.10206629      -5.64590157
N       10.88712755       2.69386544      18.09853826       0.00000000       0.00000000      -0.10206629      -6.54647390
Al      10.88712755       2.69386544      19.99610111      -0.00000000      -0.00000000       0.10206629      -5.64590157
N       10.88712755       4.48977573      20.59805090      -0.00000000       0.00000000      -0.10206629      -6.54647390
Al      10.88712755       4.48977573      22.49561374      -0.00000000       0.00000000       0.10206629      -5.64590157
N       10.88712755       2.69386544      23.09756354      -0.00000000       0.00000000      -0.10206629      -6.54647390
Al      10.88712755       2.69386544      24.99512638      -0.00000000       0.00000000       0.10206629      -5.64590157
N       10.88712755       4.48977573      25.59707618      -0.00000000       0.00000000      -0.10206629      -6.54647390
Al      10.88712755       4.48977573      27.49463902      -0.00000000       0.00000000       0.10206629      -5.64590157
N       10.88712755       2.69386544      28.09658881       0.00000000       0.00000000      -0.10206629      -6.54647390
Al      10.88712755       2.69386544      29.99415166      -0.00000000      -0.00000000       0.10206629      -5.64590157
N       10.88712755       4.48977573      30.59610145       0.00000000       0.00000000      -0.10206629      -6.54647390
Al      10.88712755       4.48977573      32.49366430      -0.00000000       0.00000000       0.10206629      -5.64590157
N       10.88712755       2.69386544      33.09561409       0.00000000       0.00000000      -0.10206629      -6.54647390
Al      10.88712755       2.69386544      34.99317694      -0.00000000       0.00000000       0.10206629      -5.64590157
N       10.88712755       4.48977573      35.59512673      -0.00000000       0.00000000      -0.10206629      -6.54647390
Al      10.88712755       4.48977573      37.49268957       0.00000000      -0.00000000       0.10206629      -5.64590157
N       10.88712755       2.69386544      38.09463937      -0.00000000       0.00000000      -0.10206629      -6.54647390
Al      10.88712755       2.69386544      39.99220221      -0.00000000      -0.00000000       0.10206629      -5.64590157
N       10.88712755       4.48977573      40.59415201       0.00000000       0.00000000      -0.10206629      -6.54647390
Al      10.88712755       4.48977573      42.49171485       0.00000000      -0.00000000       0.10206629      -5.64590157
N       10.88712755       2.69386544      43.09366464       0.00000000       0.00000000      -0.10206629      -6.54647390
Al       9.33182361       5.38773088       0.00000000       0.00000000       0.00000000       0.10206629      -5.64590157
N        9.33182361       7.18364117       0.60194979      -0.00000000      -0.00000000      -0.10206629      -6.54647390
Al       9.33182361       7.18364117       2.49951264      -0.00000000       0.00000000       0.10206629      -5.64590157
N        9.33182361       5.38773088       3.10146243      -0.00000000      -0.00000000      -0.10206629      -6.54647390
Al       9.33182361       5.38773088       4.99902528      -0.00000000      -0.00000000       0.10206629      -5.64590157
N        9.33182361       7.18364117       5.60097507      -0.00000000       0.00000000      -0.10206629      -6.54647390
Al       9.33182361       7.18364117       7.49853791      -0.00000000       0.00000000       0.10206629      -5.64590157
N        9.33182361       5.38773088       8.10048771      -0.00000000      -0.00000000      -0.10206629      -6.54647390
Al       9.33182361       5.38773088       9.99805055      -0.00000000      -0.00000000       0.10206629      -5.64590157
N        9.33182361       7.18364117      10.60000035      -0.00000000      -0.00000000      -0.10206629      -6.54647390
Al       9.33182361       7.18364117      12.49756319      -0.00000000       0.00000000       0.10206629      -5.64590157
N        9.33182361       5.38773088      13.09951298      -0.00000000      -0.00000000      -0.10206629      -6.54647390
Al       9.33182361       5.38773088      14.99707583      -0.00000000      -0.00000000       0.10206629      -5.64590157
N        9.33182361       7.18364117      15.59902562      -0.00000000       0.00000000      -0.10206629      -6.54647390
Al       9.33182361       7.18364117      17.49658847      -0.00000000       0.00000000       0.10206629      -5.64590157
N        9.33182361       5.38773088      18.09853826      -0.00000000      -0.00000000      -0.10206629      -6.54647390
Al       9.33182361       5.38773088      19.99610111      -0.00000000      -0.00000000       0.10206629      -5.64590157
N        9.33182361       7.18364117      20.59805090      -0.00000000       0.00000000      -0.10206629      -6.54647390
Al       9.33182361       7.18364117      22.49561374       0.00000000       0.00000000       0.10206629      -5.64590157
N        9.33182361       5.38773088      23.09756354      -0.00000000      -0.00000000      -0.10206629      -6.54647390
Al       9.33182361       5.38773088      24.99512638      -0.00000000      -0.00000000       0.10206629      -5.64590157
N        9.33182361       7.18364117      25.59707618      -0.00000000       0.00000000      -0.10206629      -6.54647390
Al       9.33182361       7.18364117      27.49463902      -0.00000000       0.00000000       0.10206629      -5.64590157
N        9.33182361       5.38773088      28.09658881       0.00000000       0.00000000      -0.10206629      -6.54647390
Al       9.33182361       5.38773088      29.99415166      -0.00000000      -0.00000000       0.10206629      -5.64590157
N        9.33182361       7.18364117      30.59610145      -0.00000000       0.00000000      -0.10206629      -6.54647390
Al       9.33182361       7.18364117      32.49366430      -0.00000000       0.00000000       0.10206629      -5.64590157
N        9.33182361       5.38773088      33.09561409      -0.00000000      -0.00000000      -0.10206629      -6.54647390
Al       9.33182361       5.38773088      34.99317694      -0.00000000      -0.00000000       0.10206629      -5.64590157
N        9.33182361       7.18364117      35.59512673      -0.00000000       0.00000000      -0.10206629      -6.54647390
Al       9.33182361       7.18364117      37.49268957      -0.00000000       0.00000000       0.10206629      -5.64590157
N        9.33182361       5.38773088      38.09463937      -0.00000000       0.00000000      -0.10206629      -6.54647390
Al       9.33182361       5.38773088      39.99220221      -0.00000000      -0.00000000       0.10206629      -5.64590157
N        9.33182361       7.18364117      40.59415201       0.00000000      -0.00000000      -0.10206629      -6.54647390
Al       9.33182361       7.18364117      42.49171485       0.00000000       0.00000000       0.10206629      -5.64590157
N        9.33182361       5.38773088      43.09366464      -0.00000000       0.00000000      -0.10206629      -6.54647390
Al       7.77651968       8.08159631       0.00000000       0.00000000       0.00000000       0.10206629      -5.64590157
N        7.77651968       9.87750661       0.60194979       0.00000000       0.00000000      -0.10206629      -6.54647390
Al       7.77651968       9.87750661       2.49951264       0.00000000       0.00000000       0.10206629      -5.64590157
N        7.77651968       8.08159631       3.10146243       0.00000000      -0.00000000      -0.10206629      -6.54647390
Al       7.77651968       8.08159631       4.99902528       0.00000000       0.00000000       0.10206629      -5.64590157
N        7.77651968       9.87750661       5.60097507       0.00000000       0.00000000      -0.10206629      -6.54647390
Al       7.77651968       9.87750661       7.49853791       0.00000000       0.00000000       0.10206629      -5.64590157
N        7.77651968       8.08159631       8.10048771       0.00000000      -0.00000000      -0.10206629      -6.54647390
Al       7.77651968       8.08159631       9.99805055       0.00000000       0.00000000       0.10206629      -5.64590157
N        7.77651968       9.87750661      10.60000035       0.00000000       0.00000000      -0.10206629      -6.54647390
Al       7.77651968       9.87750661      12.49756319       0.00000000       0.00000000       0.10206629      -5.64590157
N        7.77651968       8.08159631      13.09951298       0.00000000       0.00000000      -0.10206629      -6.54647390
Al       7.77651968       8.08159631      14.99707583       0.00000000       0.00000000       0.10206629      -5.64590157
N        7.77651968       9.87750661      15.59902562       0.00000000       0.00000000      -0.10206629      -6.54647390
Al       7.77651968       9.87750661      17.49658847       0.00000000       0.00000000       0.10206629      -5.64590157
N        7.77651968       8.08159631      18.09853826       0.00000000      -0.00000000      -0.10206629      -6.54647390
Al       7.77651968       8.08159631      19.99610111       0.00000000       0.00000000       0.10206629      -5.64590157
N        7.77651968       9.87750661      20.59805090       0.00000000       0.00000000      -0.10206629      -6.54647390
Al       7.77651968       9.87750661      22.49561374       0.00000000       0.00000000       0.10206629      -5.64590157
N        7.77651968       8.08159631      23.09756354       0.00000000       0.00000000      -0.10206629      -6.54647390
Al       7.77651968       8.08159631      24.99512638       0.00000000      -0.00000000       0.10206629      -5.64590157
N        7.77651968       9.87750661      25.59707618       0.00000000       0.00000000      -0.10206629      -6.54647390
Al       7.77651968       9.87750661      27.49463902       0.00000000       0.00000000       0.10206629      -5.64590157
N        7.77651968       8.08159631      28.09658881       0.00000000      -0.00000000      -0.10206629      -6.54647390
Al       7.77651968       8.08159631      29.99415166       0.00000000       0.00000000       0.10206629      -5.64590157
N        7.77651968       9.87750661      30.59610145       0.00000000       0.00000000      -0.10206629      -6.54647390
Al       7.77651968       9.87750661      32.49366430       0.00000000       0.00000000       0.10206629      -5.64590157
N        7.77651968       8.08159631      33.09561409       0.00000000       0.00000000      -0.10206629      -6.54647390
Al       7.77651968       8.08159631      34.99317694       0.00000000       0.00000000       0.10206629      -5.64590157
N        7.77651968       9.87750661      35.59512673       0.00000000       0.00000000      -0.10206629      -6.54647390
Al       7.77651968       9.87750661      37.49268957       0.00000000       0.00000000       0.10206629      -5.64590157
N        7.77651968       8.08159631      38.09463937       0.00000000       0.00000000      -0.10206629      -6.54647390
Al       7.77651968       8.08159631      39.99220221      -0.00000000       0.00000000       0.10206629      -5.64590157
N        7.77651968       9.87750661      40.59415201       0.00000000       0.00000000      -0.10206629      -6.54647390
Al       7.77651968       9.87750661      42.49171485       0.00000000       0.00000000       0.10206629      -5.64590157
N        7.77651968       8.08159631      43.09366464      -0.00000000      -0.00000000      -0.10206629      -6.54647390
Al       6.22121574      10.77546175      -0.00000000      -0.00000000       0.00000000       0.10206629      -5.64590157
N        6.22121574      12.57137204       0.60194979       0.00000000      -0.00000000      -0.10206629      -6.54647390
Al       6.22121574      12.57137204       2.49951264       0.00000000      -0.00000000       0.10206629      -5.64590157
N        6.22121574      10.77546175       3.10146243      -0.00000000       0.00000000      -0.10206629      -6.54647390
Al       6.22121574      10.77546175       4.99902528      -0.00000000       0.00000000       0.10206629      -5.64590157
N        6.22121574      12.57137204       5.60097507       0.00000000      -0.00000000      -0.10206629      -6.54647390
Al       6.22121574      12.57137204       7.49853791      -0.00000000      -0.00000000       0.10206629      -5.64590157
N        6.22121574      10.77546175       8.10048771      -0.00000000       0.00000000      -0.10206629      -6.54647390
Al       6.22121574      10.77546175       9.99805055      -0.00000000       0.00000000       0.10206629      -5.64590157
N        6.22121574      12.57137204      10.60000035       0.00000000      -0.00000000      -0.10206629      -6.54647390
Al       6.22121574      12.57137204      12.49756319       0.00000000      -0.00000000       0.10206629      -5.64590157
N        6.22121574      10.77546175      13.09951298      -0.00000000       0.00000000      -0.10206629      -6.54647390
Al       6.22121574      10.77546175      14.99707583      -0.00000000       0.00000000       0.10206629      -5.64590157
N        6.22121574      12.57137204      15.59902562      -0.00000000      -0.00000000      -0.10206629      -6.54647390
Al       6.22121574      12.57137204      17.49658847       0.00000000      -0.00000000       0.10206629      -5.64590157
N        6.22121574      10.77546175      18.09853826      -0.00000000       0.00000000      -0.10206629      -6.54647390
Al       6.22121574      10.77546175      19.99610111      -0.00000000       0.00000000       0.10206629      -5.64590157
N        6.22121574      12.57137204      20.59805090      -0.00000000       0.00000000      -0.10206629      -6.54647390
Al       6.22121574      12.57137204      22.49561374       0.00000000      -0.00000000       0.10206629      -5.64590157
N        6.22121574      10.77546175      23.09756354      -0.00000000       0.00000000      -0.10206629      -6.54647390
Al       6.22121574      10.77546175      24.99512638      -0.00000000       0.00000000       0.10206629      -5.64590157
N        6.22121574      12.57137204      25.59707618      -0.00000000       0.00000000      -0.10206629      -6.54647390
Al       6.22121574      12.57137204      27.49463902      -0.00000000      -0.00000000       0.10206629      -5.64590157
N        6.22121574      10.77546175      28.09658881      -0.00000000       0.00000000      -0.10206629      -6.54647390
Al       6.22121574      10.77546175      29.99415166      -0.00000000       0.00000000       0.10206629      -5.64590157
N        6.22121574      12.57137204      30.59610145      -0.00000000      -0.00000000      -0.10206629      -6.54647390
Al       6.22121574      12.57137204      32.49366430       0.00000000      -0.00000000       0.10206629      -5.64590157
N        6.22121574      10.77546175      33.09561409      -0.00000000       0.00000000      -0.10206629      -6.54647390
Al       6.22121574      10.77546175      34.99317694      -0.00000000       0.00000000       0.10206629      -5.64590157
N        6.22121574      12.57137204      35.59512673      -0.00000000      -0.00000000      -0.10206629      -6.54647390
Al       6.22121574      12.57137204      37.49268957       0.00000000      -0.00000000       0.10206629      -5.64590157
N        6.22121574      10.77546175      38.09463937      -0.00000000      -0.00000000      -0.10206629      -6.54647390
Al       6.22121574      10.77546175      39.99220221      -0.00000000       0.00000000       0.10206629      -5.64590157
N        6.22121574      12.57137204      40.59415201       0.00000000      -0.00000000      -0.10206629      -6.54647390
Al       6.22121574      12.57137204      42.49171485      -0.00000000      -0.00000000       0.10206629      -5.64590157
N        6.22121574      10.77546175      43.09366464      -0.00000000      -0.00000000      -0.10206629      -6.54647390
Al       4.66591181      13.46932719      -0.00000000       0.00000000       0.00000000       0.10206629      -5.64590157
N        4.66591181      15.26523748       0.60194979      -0.00000000      -0.00000000      -0.10206629      -6.54647390
Al       4.66591181      15.26523748       2.49951264      -0.00000000      -0.00000000       0.10206629      -5.64590157
N        4.66591181      13.46932719       3.10146243       0.00000000      -0.00000000      -0.10206629      -6.54647390
Al       4.66591181      13.46932719       4.99902528       0.00000000      -0.00000000       0.10206629      -5.64590157
N        4.66591181      15.26523748       5.60097507      -0.00000000       0.00000000      -0.10206629      -6.54647390
Al       4.66591181      15.26523748       7.49853791      -0.00000000      -0.00000000       0.10206629      -5.64590157
N        4.66591181      13.46932719       8.10048771       0.00000000       0.00000000      -0.10206629      -6.54647390
Al       4.66591181      13.46932719       9.99805055       0.00000000      -0.00000000       0.10206629      -5.64590157
N        4.66591181      15.26523748      10.60000035      -0.00000000       0.00000000      -0.10206629      -6.54647390
Al       4.66591181      15.26523748      12.49756319      -0.00000000      -0.00000000       0.10206629      -5.64590157
N        4.66591181      13.46932719      13.09951298       0.00000000       0.00000000      -0.10206629      -6.54647390
Al       4.66591181      13.46932719      14.99707583       0.00000000      -0.00000000       0.10206629      -5.64590157
N        4.66591181      15.26523748      15.59902562      -0.00000000      -0.00000000      -0.10206629      -6.54647390
Al       4.66591181      15.26523748      17.49658847      -0.00000000      -0.00000000       0.10206629      -5.64590157
N        4.66591181      13.46932719      18.09853826       0.00000000       0.00000000      -0.10206629      -6.54647390
Al       4.66591181      13.46932719      19.99610111       0.00000000      -0.00000000       0.10206629      -5.64590157
N        4.66591181      15.26523748      20.59805090      -0.00000000      -0.00000000      -0.10206629      -6.54647390
Al       4.66591181      15.26523748      22.49561374      -0.00000000      -0.00000000       0.10206629      -5.64590157
N        4.66591181      13.46932719      23.09756354       0.00000000       0.00000000      -0.10206629      -6.54647390
Al       4.66591181      13.46932719      24.99512638       0.00000000       0.00000000       0.10206629      -5.64590157
N        4.66591181      15.26523748      25.59707618      -0.00000000      -0.00000000      -0.10206629      -6.54647390
Al       4.66591181      15.26523748      27.49463902      -0.00000000      -0.00000000       0.10206629      -5.64590157
N        4.66591181      13.46932719      28.09658881       0.00000000      -0.00000000      -0.10206629      -6.54647390
Al       4.66591181      13.46932719      29.99415166       0.00000000      -0.00000000       0.10206629      -5.64590157
N        4.66591181      15.26523748      30.59610145      -0.00000000      -0.00000000      -0.10206629      -6.54647390
Al       4.66591181      15.26523748      32.49366430      -0.00000000      -0.00000000       0.10206629      -5.64590157
N        4.66591181      13.46932719      33.09561409       0.00000000      -0.00000000      -0.10206629      -6.54647390
Al       4.66591181      13.46932719      34.99317694       0.00000000      -0.00000000       0.10206629      -5.64590157
N        4.66591181      15.26523748      35.59512673      -0.00000000      -0.00000000      -0.10206629      -6.54647390
Al       4.66591181      15.26523748      37.49268957      -0.00000000      -0.00000000       0.10206629      -5.64590157
N        4.66591181      13.46932719      38.09463937       0.00000000      -0.00000000      -0.10206629      -6.54647390
Al       4.66591181      13.46932719      39.99220221      -0.00000000      -0.00000000       0.10206629      -5.64590157
N        4.66591181      15.26523748      40.59415201       0.00000000       0.00000000      -0.10206629      -6.54647390
Al       4.66591181      15.26523748      42.49171485      -0.00000000       0.00000000       0.10206629      -5.64590157
N        4.66591181      13.46932719      43.09366464      -0.00000000      -0.00000000      -0.10206629      -6.54647390
Al       3.11060787      16.16319263      -0.00000000       0.00000000       0.00000000       0.10206629      -5.64590157
N        3.11060787      17.95910292       0.60194979      -0.00000000      -0.00000000      -0.10206629      -6.54647390
Al       3.11060787      17.95910292       2.49951264       0.00000000      -0.00000000       0.10206629      -5.64590157
N        3.11060787      16.16319263       3.10146243       0.00000000       0.00000000      -0.10206629      -6.54647390
Al       3.11060787      16.16319263       4.99902528       0.00000000       0.00000000       0.10206629      -5.64590157
N        3.11060787      17.95910292       5.60097507      -0.00000000      -0.00000000      -0.10206629      -6.54647390
Al       3.11060787      17.95910292       7.49853791       0.00000000       0.00000000       0.10206629      -5.64590157
N        3.11060787      16.16319263       8.10048771       0.00000000       0.00000000      -0.10206629      -6.54647390
Al       3.11060787      16.16319263       9.99805055       0.00000000       0.00000000       0.10206629      -5.64590157
N        3.11060787      17.95910292      10.60000035      -0.00000000      -0.00000000      -0.10206629      -6.54647390
Al       3.11060787      17.95910292      12.49756319       0.00000000      -0.00000000       0.10206629      -5.64590157
N        3.11060787      16.16319263      13.09951298       0.00000000       0.00000000      -0.10206629      -6.54647390
Al       3.11060787      16.16319263      14.99707583       0.00000000       0.00000000       0.10206629      -5.64590157
N        3.11060787      17.95910292      15.59902562      -0.00000000      -0.00000000      -0.10206629      -6.54647390
Al       3.11060787      17.95910292      17.49658847       0.00000000      -0.00000000       0.10206629      -5.64590157
N        3.11060787      16.16319263      18.09853826       0.00000000       0.00000000      -0.10206629      -6.54647390
Al       3.11060787      16.16319263      19.99610111       0.00000000       0.00000000       0.10206629      -5.64590157
N        3.11060787      17.95910292      20.59805090      -0.00000000      -0.00000000      -0.10206629      -6.54647390
Al       3.11060787      17.95910292      22.49561374      -0.00000000      -0.00000000       0.10206629      -5.64590157
N        3.11060787      16.16319263      23.09756354       0.00000000       0.00000000      -0.10206629      -6.54647390
Al       3.11060787      16.16319263      24.99512638       0.00000000       0.00000000       0.10206629      -5.64590157
N        3.11060787      17.95910292      25.59707618      -0.00000000      -0.00000000      -0.10206629      -6.54647390
Al       3.11060787      17.95910292      27.49463902      -0.00000000      -0.00000000       0.10206629      -5.64590157
N        3.11060787      16.16319263      28.09658881       0.00000000       0.00000000      -0.10206629      -6.54647390
Al       3.11060787      16.16319263      29.99415166       0.00000000       0.00000000       0.10206629      -5.64590157
N        3.11060787      17.95910292      30.59610145      -0.00000000      -0.00000000      -0.10206629      -6.54647390
Al       3.11060787      17.95910292      32.49366430      -0.00000000      -0.00000000       0.10206629      -5.64590157
N        3.11060787      16.16319263      33.09561409       0.00000000       0.00000000      -0.10206629      -6.54647390
Al       3.11060787      16.16319263      34.99317694       0.00000000       0.00000000       0.10206629      -5.64590157
N        3.11060787      17.95910292      35.59512673      -0.00000000      -0.00000000      -0.10206629      -6.54647390
Al       3.11060787      17.95910292      37.49268957      -0.00000000      -0.00000000       0.10206629      -5.64590157
N        3.11060787      16.16319263      38.09463937       0.00000000       0.00000000      -0.10206629      -6.54647390
Al       3.11060787      16.16319263      39.99220221       0.00000000       0.00000000       0.10206629      -5.64590157
N        3.11060787      17.95910292      40.59415201      -0.00000000      -0.00000000      -0.10206629      -6.54647390
Al       3.11060787      17.95910292      42.49171485      -0.00000000       0.00000000       0.10206629      -5.64590157
N        3.11060787      16.16319263      43.09366464       0.00000000       0.00000000      -0.10206629      -6.54647390
Al       1.55530394      18.85705806      -0.00000000       0.00000000      -0.00000000       0.10206629      -5.64590157
N        1.55530394      20.65296836       0.60194979       0.00000000       0.00000000      -0.10206629      -6.54647390
Al       1.55530394      20.65296836       2.49951264      -0.00000000       0.00000000       0.10206629      -5.64590157
N        1.55530394      18.85705806       3.10146243       0.00000000      -0.00000000      -0.10206629      -6.54647390
Al       1.55530394      18.85705806       4.99902528       0.00000000      -0.00000000       0.10206629      -5.64590157
N        1.55530394      20.65296836       5.60097507      -0.00000000       0.00000000      -0.10206629      -6.54647390
Al       1.55530394      20.65296836       7.49853791       0.00000000       0.00000000       0.10206629      -5.64590157
N        1.55530394      18.85705806       8.10048771       0.00000000      -0.00000000      -0.10206629      -6.54647390
Al       1.55530394      18.85705806       9.99805055       0.00000000      -0.00000000       0.10206629      -5.64590157
N        1.55530394      20.65296836      10.60000035       0.00000000       0.00000000      -0.10206629      -6.54647390
Al       1.55530394      20.65296836      12.49756319      -0.00000000       0.00000000       0.10206629      -5.64590157
N        1.55530394      18.85705806      13.09951298       0.00000000      -0.00000000      -0.10206629      -6.54647390
Al       1.55530394      18.85705806      14.99707583       0.00000000      -0.00000000       0.10206629      -5.64590157
N        1.55530394      20.65296836      15.59902562       0.00000000       0.00000000      -0.10206629      -6.54647390
Al       1.55530394      20.65296836      17.49658847      -0.00000000       0.00000000       0.10206629      -5.64590157
N        1.55530394      18.85705806      18.09853826       0.00000000      -0.00000000      -0.10206629      -6.54647390
Al       1.55530394      18.85705806      19.99610111       0.00000000      -0.00000000       0.10206629      -5.64590157
N        1.55530394      20.65296836      20.59805090       0.00000000       0.00000000      -0.10206629      -6.54647390
Al       1.55530394      20.65296836      22.49561374       0.00000000       0.00000000       0.10206629      -5.64590157
N        1.55530394      18.85705806      23.09756354       0.00000000      -0.00000000      -0.10206629      -6.54647390
Al       1.55530394      18.85705806      24.99512638       0.00000000      -0.00000000       0.10206629      -5.64590157
N        1.55530394      20.65296836      25.59707618       0.00000000       0.00000000      -0.10206629      -6.54647390
Al       1.55530394      20.65296836      27.49463902       0.00000000       0.00000000       0.10206629      -5.64590157
N        1.55530394      18.85705806      28.09658881       0.00000000      -0.00000000      -0.10206629      -6.54647390
Al       1.55530394      18.85705806      29.99415166       0.00000000      -0.00000000       0.10206629      -5.64590157
N        1.55530394      20.65296836      30.59610145       0.00000000       0.00000000      -0.10206629      -6.54647390
Al       1.55530394      20.65296836      32.49366430       0.00000000       0.00000000       0.10206629      -5.64590157
N        1.55530394      18.85705806      33.09561409       0.00000000      -0.00000000      -0.10206629      -6.54647390
Al       1.55530394      18.85705806      34.99317694       0.00000000      -0.00000000       0.10206629      -5.64590157
N        1.55530394      20.65296836      35.59512673       0.00000000       0.00000000      -0.10206629      -6.54647390
Al       1.55530394      20.65296836      37.49268957       0.00000000       0.00000000       0.10206629      -5.64590157
N        1.55530394      18.85705806      38.09463937       0.00000000      -0.00000000      -0.10206629      -6.54647390
Al       1.55530394      18.85705806      39.99220221       0.00000000      -0.00000000       0.10206629      -5.64590157
N        1.55530394      20.65296836      40.59415201       0.00000000       0.00000000      -0.10206629      -6.54647390
Al       1.55530394      20.65296836      42.49171485       0.00000000       0.00000000       0.10206629      -5.64590157
N        1.55530394      18.85705806      43.09366464       0.00000000      -0.00000000      -0.10206629      -6.54647390
Al       0.00000000      21.55092350      -0.00000000       0.00000000       0.00000000       0.10206629      -5.64590157
N       -0.00000000      23.34683379       0.60194979      -0.00000000       0.00000000      -0.10206629      -6.54647390
Al      -0.00000000      23.34683379       2.49951264      -0.00000000       0.00000000       0.10206629      -5.64590157
N        0.00000000      21.55092350       3.10146243       0.00000000       0.00000000      -0.10206629      -6.54647390
Al       0.00000000      21.55092350       4.99902528      -0.00000000       0.00000000       0.10206629      -5.64590157
N       -0.00000000      23.34683379       5.60097507      -0.00000000       0.00000000      -0.10206629      -6.54647390
Al      -0.00000000      23.34683379       7.49853791       0.00000000       0.00000000       0.10206629      -5.64590157
N        0.00000000      21.55092350       8.10048771       0.00000000      -0.00000000      -0.10206629      -6.54647390
Al       0.00000000      21.55092350       9.99805055      -0.00000000       0.00000000       0.10206629      -5.64590157
N       -0.00000000      23.34683379      10.60000035       0.00000000       0.00000000      -0.10206629      -6.54647390
Al      -0.00000000      23.34683379      12.49756319      -0.00000000       0.00000000       0.10206629      -5.64590157
N        0.00000000      21.55092350      13.09951298       0.00000000      -0.00000000      -0.10206629      -6.54647390
Al       0.00000000      21.55092350      14.99707583      -0.00000000       0.00000000       0.10206629      -5.64590157
N        0.00000000      23.34683379      15.59902562       0.00000000       0.00000000      -0.10206629      -6.54647390
Al       0.00000000      23.34683379      17.49658847      -0.00000000       0.00000000       0.10206629      -5.64590157
N        0.00000000      21.55092350      18.09853826       0.00000000      -0.00000000      -0.10206629      -6.54647390
Al       0.00000000      21.55092350      19.99610111      -0.00000000       0.00000000       0.10206629      -5.64590157
N        0.00000000      23.34683379      20.59805090       0.00000000       0.00000000      -0.10206629      -6.54647390
Al       0.00000000      23.34683379      22.49561374      -0.00000000       0.00000000       0.10206629      -5.64590157
N        0.00000000      21.55092350      23.09756354       0.00000000       0.00000000      -0.10206629      -6.54647390
Al       0.00000000      21.55092350      24.99512638      -0.00000000       0.00000000       0.10206629      -5.64590157
N        0.00000000      23.34683379      25.59707618      -0.00000000       0.00000000      -0.10206629      -6.54647390
Al       0.00000000      23.34683379      27.49463902      -0.00000000       0.00000000       0.10206629      -5.64590157
N        0.00000000      21.55092350      28.09658881       0.00000000       0.00000000      -0.10206629      -6.54647390
Al       0.00000000      21.55092350      29.99415166       0.00000000      -0.00000000       0.10206629      -5.64590157
N        0.00000000      23.34683379      30.59610145      -0.00000000       0.00000000      -0.10206629      -6.54647390
Al       0.00000000      23.34683379      32.49366430       0.00000000       0.00000000       0.10206629      -5.64590157
N        0.00000000      21.55092350      33.09561409       0.00000000       0.00000000      -0.10206629      -6.54647390
Al       0.00000000      21.55092350      34.99317694       0.00000000       0.00000000       0.10206629      -5.64590157
N        0.00000000      23.34683379      35.59512673       0.00000000       0.00000000      -0.10206629      -6.54647390
Al       0.00000000      23.34683379      37.49268957       0.00000000       0.00000000       0.10206629      -5.64590157
N        0.00000000      21.55092350      38.09463937       0.00000000      -0.00000000      -0.10206629      -6.54647390
Al       0.00000000      21.55092350      39.99220221       0.00000000       0.00000000       0.10206629      -5.64590157
N        0.00000000      23.34683379      40.59415201      -0.00000000       0.00000000      -0.10206629      -6.54647390
Al       0.00000000      23.34683379      42.49171485      -0.00000000       0.00000000       0.10206629      -5.64590157
N        0.00000000      21.55092350      43.09366464       0.00000000       0.00000000      -0.10206629      -6.54647390
Al      -1.55530394      24.24478894      -0.00000000      -0.00000000      -0.00000000       0.10206629      -5.64590157
N       -1.55530394      26.04069923       0.60194979       0.00000000      -0.00000000      -0.10206629      -6.54647390
Al      -1.55530394      26.04069923       2.49951264      -0.00000000      -0.00000000       0.10206629      -5.64590157
N       -1.55530394      24.24478894       3.10146243      -0.00000000      -0.00000000      -0.10206629      -6.54647390
Al      -1.55530394      24.24478894       4.99902528      -0.00000000      -0.00000000       0.10206629      -5.64590157
N       -1.55530394      26.04069923       5.60097507      -0.00000000      -0.00000000      -0.10206629      -6.54647390
Al      -1.55530394      26.04069923       7.49853791      -0.00000000      -0.00000000       0.10206629      -5.64590157
N       -1.55530394      24.24478894       8.10048771       0.00000000      -0.00000000      -0.10206629      -6.54647390
Al      -1.55530394      24.24478894       9.99805055      -0.00000000      -0.00000000       0.10206629      -5.64590157
N       -1.55530394      26.04069923      10.60000035      -0.00000000       0.00000000      -0.10206629      -6.54647390
Al      -1.55530394      26.04069923      12.49756319      -0.00000000      -0.00000000       0.10206629      -5.64590157
N       -1.55530394      24.24478894      13.09951298       0.00000000      -0.00000000      -0.10206629      -6.54647390
Al      -1.55530394      24.24478894      14.99707583      -0.00000000      -0.00000000       0.10206629      -5.64590157
N       -1.55530394      26.04069923      15.59902562      -0.00000000       0.00000000      -0.10206629      -6.54647390
Al      -1.55530394      26.04069923      17.49658847      -0.00000000      -0.00000000       0.10206629      -5.64590157
N       -1.55530394      24.24478894      18.09853826       0.00000000      -0.00000000      -0.10206629      -6.54647390
Al      -1.55530394      24.24478894      19.99610111      -0.00000000      -0.00000000       0.10206629      -5.64590157
N       -1.55530394      26.04069923      20.59805090       0.00000000       0.00000000      -0.10206629      -6.54647390
Al      -1.55530394      26.04069923      22.49561374      -0.00000000      -0.00000000       0.10206629      -5.64590157
N       -1.55530394      24.24478894      23.09756354       0.00000000       0.00000000      -0.10206629      -6.54647390
Al      -1.55530394      24.24478894      24.99512638      -0.00000000      -0.00000000       0.10206629      -5.64590157
N       -1.55530394      26.04069923      25.59707618       0.00000000      -0.00000000      -0.10206629      -6.54647390
Al      -1.55530394      26.04069923      27.49463902       0.00000000      -0.00000000       0.10206629      -5.64590157
N       -1.55530394      24.24478894      28.09658881       0.00000000      -0.00000000      -0.10206629      -6.54647390
Al      -1.55530394      24.24478894      29.99415166      -0.00000000      -0.00000000       0.10206629      -5.64590157
N       -1.55530394      26.04069923      30.59610145      -0.00000000      -0.00000000      -0.10206629      -6.54647390
Al      -1.55530394      26.04069923      32.49366430       0.00000000      -0.00000000       0.10206629      -5.64590157
N       -1.55530394      24.24478894      33.09561409      -0.00000000      -0.00000000      -0.10206629      -6.54647390
Al      -1.55530394      24.24478894      34.99317694       0.00000000      -0.00000000       0.10206629      -5.64590157
N       -1.55530394      26.04069923      35.59512673      -0.00000000      -0.00000000      -0.10206629      -6.54647390
Al      -1.55530394      26.04069923      37.49268957       0.00000000      -0.00000000       0.10206629      -5.64590157
N       -1.55530394      24.24478894      38.09463937      -0.00000000      -0.00000000      -0.10206629      -6.54647390
Al      -1.55530394      24.24478894      39.99220221       0.00000000      -0.00000000       0.10206629      -5.64590157
N       -1.55530394      26.04069923      40.59415201       0.00000000      -0.00000000      -0.10206629      -6.54647390
Al      -1.55530394      26.04069923      42.49171485      -0.00000000      -0.00000000       0.10206629      -5.64590157
N       -1.55530394      24.24478894      43.09366464      -0.00000000      -0.00000000      -0.10206629      -6.54647390
Al      -3.11060787      26.93865438      -0.00000000       0.00000000      -0.00000000       0.10206629      -5.64590157
N       -3.11060787      28.73456467       0.60194979      -0.00000000       0.00000000      -0.10206629      -6.54647390
Al      -3.11060787      28.73456467       2.49951264      -0.00000000       0.00000000       0.10206629      -5.64590157
N       -3.11060787      26.93865438       3.10146243       0.00000000      -0.00000000      -0.10206629      -6.54647390
Al      -3.11060787      26.93865438       4.99902528       0.00000000      -0.00000000       0.10206629      -5.64590157
N       -3.11060787      28.73456467       5.60097507      -0.00000000       0.00000000      -0.10206629      -6.54647390
Al      -3.11060787      28.73456467       7.49853791      -0.00000000       0.00000000       0.10206629      -5.64590157
N       -3.11060787      26.93865438       8.10048771       0.00000000       0.00000000      -0.10206629      -6.54647390
Al      -3.11060787      26.93865438       9.99805055       0.00000000      -0.00000000       0.10206629      -5.64590157
N       -3.11060787      28.73456467      10.60000035      -0.00000000       0.00000000      -0.10206629      -6.54647390
Al      -3.11060787      28.73456467      12.49756319      -0.00000000       0.00000000       0.10206629      -5.64590157
N       -3.11060787      26.93865438      13.09951298       0.00000000       0.00000000      -0.10206629      -6.54647390
Al      -3.11060787      26.93865438      14.99707583       0.00000000      -0.00000000       0.10206629      -5.64590157
N       -3.11060787      28.73456467      15.59902562      -0.00000000       0.00000000      -0.10206629      -6.54647390
Al      -3.11060787      28.73456467      17.49658847      -0.00000000       0.00000000       0.10206629      -5.64590157
N       -3.11060787      26.93865438      18.09853826       0.00000000       0.00000000      -0.10206629      -6.54647390
Al      -3.11060787      26.93865438      19.99610111      -0.00000000      -0.00000000       0.10206629      -5.64590157
N       -3.11060787      28.73456467      20.59805090      -0.00000000       0.00000000      -0.10206629      -6.54647390
Al      -3.11060787      28.73456467      22.49561374      -0.00000000       0.00000000       0.10206629      -5.64590157
N       -3.11060787      26.93865438      23.09756354       0.00000000       0.00000000      -0.10206629      -6.54647390
Al      -3.11060787      26.93865438      24.99512638      -0.00000000      -0.00000000       0.10206629      -5.64590157
N       -3.11060787      28.73456467      25.59707618      -0.00000000       0.00000000      -0.10206629      -6.54647390
Al      -3.11060787      28.73456467      27.49463902      -0.00000000       0.00000000       0.10206629      -5.64590157
N       -3.11060787      26.93865438      28.09658881       0.00000000      -0.00000000      -0.10206629      -6.54647390
Al      -3.11060787      26.93865438      29.99415166       0.00000000      -0.00000000       0.10206629      -5.64590157
N       -3.11060787      28.73456467      30.59610145      -0.00000000       0.00000000      -0.10206629      -6.54647390
Al      -3.11060787      28.73456467      32.49366430      -0.00000000       0.00000000       0.10206629      -5.64590157
N       -3.11060787      26.93865438      33.09561409      -0.00000000      -0.00000000      -0.10206629      -6.54647390
Al      -3.11060787      26.93865438      34.99317694       0.00000000      -0.00000000       0.10206629      -5.64590157
N       -3.11060787      28.73456467      35.59512673      -0.00000000       0.00000000      -0.10206629      -6.54647390
Al      -3.11060787      28.73456467      37.49268957      -0.00000000       0.00000000       0.10206629      -5.64590157
N       -3.11060787      26.93865438      38.09463937       0.00000000      -0.00000000      -0.10206629      -6.54647390
Al      -3.11060787      26.93865438      39.99220221      -0.00000000      -0.00000000       0.10206629      -5.64590157
N       -3.11060787      28.73456467      40.59415201      -0.00000000       0.00000000      -0.10206629      -6.54647390
Al      -3.11060787      28.73456467      42.49171485      -0.00000000       0.00000000       0.10206629      -5.64590157
N       -3.11060787      26.93865438      43.09366464       0.00000000      -0.00000000      -0.10206629      -6.54647390
Al      -4.66591181      29.63251982      -0.00000000       0.00000000       0.00000000       0.10206629      -5.64590157
N       -4.66591181      31.42843011       0.60194979      -0.00000000      -0.00000000      -0.10206629      -6.54647390
Al      -4.66591181      31.42843011       2.49951264      -0.00000000      -0.00000000       0.10206629      -5.64590157
N       -4.66591181      29.63251982       3.10146243       0.00000000       0.00000000      -0.10206629      -6.54647390
Al      -4.66591181      29.63251982       4.99902528       0.00000000       0.00000000       0.10206629      -5.64590157
N       -4.66591181      31.42843011       5.60097507      -0.00000000      -0.00000000      -0.10206629      -6.54647390
Al      -4.66591181      31.42843011       7.49853791      -0.00000000      -0.00000000       0.10206629      -5.64590157
N       -4.66591181      29.63251982       8.10048771       0.00000000       0.00000000      -0.10206629      -6.54647390
Al      -4.66591181      29.63251982       9.99805055       0.00000000       0.00000000       0.10206629      -5.64590157
N       -4.66591181      31.42843011      10.60000035      -0.00000000      -0.00000000      -0.10206629      -6.54647390
Al      -4.66591181      31.42843011      12.49756319      -0.00000000      -0.00000000       0.10206629      -5.64590157
N       -4.66591181      29.63251982      13.09951298       0.00000000       0.00000000      -0.10206629      -6.54647390
Al      -4.66591181      29.63251982      14.99707583       0.00000000       0.00000000       0.10206629      -5.64590157
N       -4.66591181      31.42843011      15.59902562      -0.00000000      -0.00000000      -0.10206629      -6.54647390
Al      -4.66591181      31.42843011      17.49658847      -0.00000000      -0.00000000       0.10206629      -5.64590157
N       -4.66591181      29.63251982      18.09853826       0.00000000      -0.00000000      -0.10206629      -6.54647390
Al      -4.66591181      29.63251982      19.99610111       0.00000000       0.00000000       0.10206629      -5.64590157
N       -4.66591181      31.42843011      20.59805090      -0.00000000      -0.00000000      -0.10206629      -6.54647390
Al      -4.66591181      31.42843011      22.49561374      -0.00000000      -0.00000000       0.10206629      -5.64590157
N       -4.66591181      29.63251982      23.09756354       0.00000000      -0.00000000      -0.10206629      -6.54647390
Al      -4.66591181      29.63251982      24.99512638       0.00000000       0.00000000       0.10206629      -5.64590157
N       -4.66591181      31.42843011      25.59707618      -0.00000000      -0.00000000      -0.10206629      -6.54647390
Al      -4.66591181      31.42843011      27.49463902      -0.00000000      -0.00000000       0.10206629      -5.64590157
N       -4.66591181      29.63251982      28.09658881       0.00000000       0.00000000      -0.10206629      -6.54647390
Al      -4.66591181      29.63251982      29.99415166       0.00000000       0.00000000       0.10206629      -5.64590157
N       -4.66591181      31.42843011      30.59610145      -0.00000000      -0.00000000      -0.10206629      -6.54647390
Al      -4.66591181      31.42843011      32.49366430      -0.00000000      -0.00000000       0.10206629      -5.64590157
N       -4.66591181      29.63251982      33.09561409       0.00000000       0.00000000      -0.10206629      -6.54647390
Al      -4.66591181      29.63251982      34.99317694       0.00000000       0.00000000       0.10206629      -5.64590157
N       -4.66591181      31.42843011      35.59512673      -0.00000000      -0.00000000      -0.10206629      -6.54647390
Al      -4.66591181      31.42843011      37.49268957      -0.00000000      -0.00000000       0.10206629      -5.64590157
N       -4.66591181      29.63251982      38.09463937       0.00000000       0.00000000      -0.10206629      -6.54647390
Al      -4.66591181      29.63251982      39.99220221       0.00000000       0.00000000       0.10206629      -5.64590157
N       -4.66591181      31.42843011      40.59415201      -0.00000000      -0.00000000      -0.10206629      -6.54647390
Al      -4.66591181      31.42843011      42.49171485      -0.00000000      -0.00000000       0.10206629      -5.64590157
N       -4.66591181      29.63251982      43.09366464       0.00000000       0.00000000      -0.10206629      -6.54647390
Al      -6.22121574      32.32638525      -0.00000000       0.00000000       0.00000000       0.10206629      -5.64590157
N       -6.22121574      34.12229555       0.60194979      -0.00000000      -0.00000000      -0.10206629      -6.54647390
Al      -6.22121574      34.12229555       2.49951264       0.00000000      -0.00000000       0.10206629      -5.64590157
N       -6.22121574      32.32638525       3.10146243       0.00000000       0.00000000      -0.10206629      -6.54647390
Al      -6.22121574      32.32638525       4.99902528       0.00000000       0.00000000       0.10206629      -5.64590157
N       -6.22121574      34.12229555       5.60097507       0.00000000      -0.00000000      -0.10206629      -6.54647390
Al      -6.22121574      34.12229555       7.49853791      -0.00000000      -0.00000000       0.10206629      -5.64590157
N       -6.22121574      32.32638525       8.10048771       0.00000000       0.00000000      -0.10206629      -6.54647390
Al      -6.22121574      32.32638525       9.99805055       0.00000000       0.00000000       0.10206629      -5.64590157
N       -6.22121574      34.12229555      10.60000035      -0.00000000      -0.00000000      -0.10206629      -6.54647390
Al      -6.22121574      34.12229555      12.49756319      -0.00000000       0.00000000       0.10206629      -5.64590157
N       -6.22121574      32.32638525      13.09951298       0.00000000       0.00000000      -0.10206629      -6.54647390
Al      -6.22121574      32.32638525      14.99707583       0.00000000       0.00000000       0.10206629      -5.64590157
N       -6.22121574      34.12229555      15.59902562      -0.00000000      -0.00000000      -0.10206629      -6.54647390
Al      -6.22121574      34.12229555      17.49658847       0.00000000      -0.00000000       0.10206629      -5.64590157
N       -6.22121574      32.32638525      18.09853826       0.00000000       0.00000000      -0.10206629      -6.54647390
Al      -6.22121574      32.32638525      19.99610111       0.00000000       0.00000000       0.10206629      -5.64590157
N       -6.22121574      34.12229555      20.59805090       0.00000000      -0.00000000      -0.10206629      -6.54647390
Al      -6.22121574      34.12229555      22.49561374       0.00000000      -0.00000000       0.10206629      -5.64590157
N       -6.22121574      32.32638525      23.09756354       0.00000000       0.00000000      -0.10206629      -6.54647390
Al      -6.22121574      32.32638525      24.99512638       0.00000000       0.00000000       0.10206629      -5.64590157
N       -6.22121574      34.12229555      25.59707618       0.00000000      -0.00000000      -0.10206629      -6.54647390
Al      -6.22121574      34.12229555      27.49463902       0.00000000       0.00000000       0.10206629      -5.64590157
N       -6.22121574      32.32638525      28.09658881       0.00000000       0.00000000      -0.10206629      -6.54647390
Al      -6.22121574      32.32638525      29.99415166       0.00000000       0.00000000       0.10206629      -5.64590157
N       -6.22121574      34.12229555      30.59610145       0.00000000      -0.00000000      -0.10206629      -6.54647390
Al      -6.22121574      34.12229555      32.49366430      -0.00000000      -0.00000000       0.10206629      -5.64590157
N       -6.22121574      32.32638525      33.09561409       0.00000000       0.00000000      -0.10206629      -6.54647390
Al      -6.22121574      32.32638525      34.99317694       0.00000000       0.00000000       0.10206629      -5.64590157
N       -6.22121574      34.12229555      35.59512673      -0.00000000      -0.00000000      -0.10206629      -6.54647390
Al      -6.22121574      34.12229555      37.49268957      -0.00000000      -0.00000000       0.10206629      -5.64590157
N       -6.22121574      32.32638525      38.09463937       0.00000000       0.00000000      -0.10206629      -6.54647390
Al      -6.22121574      32.32638525      39.99220221       0.00000000       0.00000000       0.10206629      -5.64590157
N       -6.22121574      34.12229555      40.59415201       0.00000000      -0.00000000      -0.10206629      -6.54647390
Al      -6.22121574      34.12229555      42.49171485       0.00000000       0.00000000       0.10206629      -5.64590157
N       -6.22121574      32.32638525      43.09366464       0.00000000       0.00000000      -0.10206629      -6.54647390
Al      -7.77651968      35.02025069      -0.00000000       0.00000000       0.00000000       0.10206629      -5.64590157
N       -7.77651968      36.81616098       0.60194979      -0.00000000      -0.00000000      -0.10206629      -6.54647390
Al      -7.77651968      36.81616098       2.49951264      -0.00000000      -0.00000000       0.10206629      -5.64590157
N       -7.77651968      35.02025069       3.10146243      -0.00000000       0.00000000      -0.10206629      -6.54647390
Al      -7.77651968      35.02025069       4.99902528      -0.00000000       0.00000000       0.10206629      -5.64590157
N       -7.77651968      36.81616098       5.60097507      -0.00000000      -0.00000000      -0.10206629      -6.54647390
Al      -7.77651968      36.81616098       7.49853791      -0.00000000      -0.00000000       0.10206629      -5.64590157
N       -7.77651968      35.02025069       8.10048771       0.00000000       0.00000000      -0.10206629      -6.54647390
Al      -7.77651968      35.02025069       9.99805055      -0.00000000       0.00000000       0.10206629      -5.64590157
N       -7.77651968      36.81616098      10.60000035      -0.00000000      -0.00000000      -0.10206629      -6.54647390
Al      -7.77651968      36.81616098      12.49756319      -0.00000000      -0.00000000       0.10206629      -5.64590157
N       -7.77651968      35.02025069      13.09951298      -0.00000000       0.00000000      -0.10206629      -6.54647390
Al      -7.77651968      35.02025069      14.99707583      -0.00000000       0.00000000       0.10206629      -5.64590157
N       -7.77651968      36.81616098      15.59902562      -0.00000000      -0.00000000      -0.10206629      -6.54647390
Al      -7.77651968      36.81616098      17.49658847      -0.00000000      -0.00000000       0.10206629      -5.64590157
N       -7.77651968      35.02025069      18.09853826      -0.00000000       0.00000000      -0.10206629      -6.54647390
Al      -7.77651968      35.02025069      19.99610111       0.00000000       0.00000000       0.10206629      -5.64590157
N       -7.77651968      36.81616098      20.59805090      -0.00000000      -0.00000000      -0.10206629      -6.54647390
Al      -7.77651968      36.81616098      22.49561374      -0.00000000      -0.00000000       0.10206629      -5.64590157
N       -7.77651968      35.02025069      23.09756354      -0.00000000       0.00000000      -0.10206629      -6.54647390
Al      -7.77651968      35.02025069      24.99512638       0.00000000       0.00000000       0.10206629      -5.64590157
N       -7.77651968      36.81616098      25.59707618      -0.00000000      -0.00000000      -0.10206629      -6.54647390
Al      -7.77651968      36.81616098      27.49463902      -0.00000000      -0.00000000       0.10206629      -5.64590157
N       -7.77651968      35.02025069      28.09658881       0.00000000       0.00000000      -0.10206629      -6.54647390
Al      -7.77651968      35.02025069      29.99415166      -0.00000000       0.00000000       0.10206629      -5.64590157
N       -7.77651968      36.81616098      30.59610145      -0.00000000      -0.00000000      -0.10206629      -6.54647390
Al      -7.77651968      36.81616098      32.49366430      -0.00000000      -0.00000000       0.10206629      -5.64590157
N       -7.77651968      35.02025069      33.09561409       0.00000000       0.00000000      -0.10206629      -6.54647390
Al      -7.77651968      35.02025069      34.99317694      -0.00000000       0.00000000       0.10206629      -5.64590157
N       -7.77651968      36.81616098      35.59512673      -0.00000000      -0.00000000      -0.10206629      -6.54647390
Al      -7.77651968      36.81616098      37.49268957      -0.00000000      -0.00000000       0.10206629      -5.64590157
N       -7.77651968      35.02025069      38.09463937       0.00000000       0.00000000      -0.10206629      -6.54647390
Al      -7.77651968      35.02025069      39.99220221      -0.00000000       0.00000000       0.10206629      -5.64590157
N       -7.77651968      36.81616098      40.59415201      -0.00000000      -0.00000000      -0.10206629      -6.54647390
Al      -7.77651968      36.81616098      42.49171485      -0.00000000      -0.00000000       0.10206629      -5.64590157
N       -7.77651968      35.02025069      43.09366464      -0.00000000       0.00000000      -0.10206629      -6.54647390
Al      -9.33182361      37.71411613      -0.00000000       0.00000000      -0.00000000       0.10206629      -5.64590157
N       -9.33182361      39.51002642       0.60194979       0.00000000       0.00000000      -0.10206629      -6.54647390
Al      -9.33182361      39.51002642       2.49951264       0.00000000       0.00000000       0.10206629      -5.64590157
N       -9.33182361      37.71411613       3.10146243       0.00000000      -0.00000000      -0.10206629      -6.54647390
Al      -9.33182361      37.71411613       4.99902528       0.00000000      -0.00000000       0.10206629      -5.64590157
N       -9.33182361      39.51002642       5.60097507       0.00000000       0.00000000      -0.10206629      -6.54647390
Al      -9.33182361      39.51002642       7.49853791       0.00000000       0.00000000       0.10206629      -5.64590157
N       -9.33182361      37.71411613       8.10048771       0.00000000      -0.00000000      -0.10206629      -6.54647390
Al      -9.33182361      37.71411613       9.99805055       0.00000000      -0.00000000       0.10206629      -5.64590157
N       -9.33182361      39.51002642      10.60000035       0.00000000       0.00000000      -0.10206629      -6.54647390
Al      -9.33182361      39.51002642      12.49756319       0.00000000       0.00000000       0.10206629      -5.64590157
N       -9.33182361      37.71411613      13.09951298       0.00000000      -0.00000000      -0.10206629      -6.54647390
Al      -9.33182361      37.71411613      14.99707583       0.00000000      -0.00000000       0.10206629      -5.64590157
N       -9.33182361      39.51002642      15.59902562       0.00000000       0.00000000      -0.10206629      -6.54647390
Al      -9.33182361      39.51002642      17.49658847       0.00000000       0.00000000       0.10206629      -5.64590157
N       -9.33182361      37.71411613      18.09853826       0.00000000      -0.00000000      -0.10206629      -6.54647390
Al      -9.33182361      37.71411613      19.99610111       0.00000000      -0.00000000       0.10206629      -5.64590157
N       -9.33182361      39.51002642      20.59805090       0.00000000       0.00000000      -0.10206629      -6.54647390
Al      -9.33182361      39.51002642      22.49561374       0.00000000       0.00000000       0.10206629      -5.64590157
N       -9.33182361      37.71411613      23.09756354       0.00000000      -0.00000000      -0.10206629      -6.54647390
Al      -9.33182361      37.71411613      24.99512638       0.00000000      -0.00000000       0.10206629      -5.64590157
N       -9.33182361      39.51002642      25.59707618       0.00000000       0.00000000      -0.10206629      -6.54647390
Al      -9.33182361      39.51002642      27.49463902       0.00000000       0.00000000       0.10206629      -5.64590157
N       -9.33182361      37.71411613      28.09658881       0.00000000      -0.00000000      -0.10206629      -6.54647390
Al      -9.33182361      37.71411613      29.99415166       0.00000000      -0.00000000       0.10206629      -5.64590157
N       -9.33182361      39.51002642      30.59610145       0.00000000       0.00000000      -0.10206629      -6.54647390
Al      -9.33182361      39.51002642      32.49366430       0.00000000       0.00000000       0.10206629      -5.64590157
N       -9.33182361      37.71411613      33.09561409       0.00000000      -0.00000000      -0.10206629      -6.54647390
Al      -9.33182361      37.71411613      34.99317694       0.00000000      -0.00000000       0.10206629      -5.64590157
N       -9.33182361      39.51002642      35.59512673       0.00000000       0.00000000      -0.10206629      -6.54647390
Al      -9.33182361      39.51002642      37.49268957       0.00000000       0.00000000       0.10206629      -5.64590157
N       -9.33182361      37.71411613      38.09463937       0.00000000      -0.00000000      -0.10206629      -6.54647390
Al      -9.33182361      37.71411613      39.99220221       0.00000000      -0.00000000       0.10206629      -5.64590157
N       -9.33182361      39.51002642      40.59415201       0.00000000       0.00000000      -0.10206629      -6.54647390
Al      -9.33182361      39.51002642      42.49171485       0.00000000       0.00000000       0.10206629      -5.64590157
N       -9.33182361      37.71411613      43.09366464       0.00000000      -0.00000000      -0.10206629      -6.54647390
Al      15.55303936      -0.00000000       0.00000000      -0.00000000      -0.00000000       0.10206629      -5.64590157
N       15.55303936       1.79591029       0.60194979       0.00000000      -0.00000000      -0.10206629      -6.54647390
Al      15.55303936       1.79591029       2.49951264       0.00000000      -0.00000000       0.10206629      -5.64590157
N       15.55303936      -0.00000000       3.10146243      -0.00000000      -0.00000000      -0.10206629      -6.54647390
Al      15.55303936      -0.00000000       4.99902528      -0.00000000      -0.00000000       0.10206629      -5.64590157
N       15.55303936       1.79591029       5.60097507      -0.00000000      -0.00000000      -0.10206629      -6.54647390
Al      15.55303936       1.79591029       7.49853791       0.00000000      -0.00000000       0.10206629      -5.64590157
N       15.55303936      -0.00000000       8.10048771      -0.00000000      -0.00000000      -0.10206629      -6.54647390
Al      15.55303936      -0.00000000       9.99805055      -0.00000000      -0.00000000       0.10206629      -5.64590157
N       15.55303936       1.79591029      10.60000035      -0.00000000      -0.00000000      -0.10206629      -6.54647390
Al      15.55303936       1.79591029      12.49756319       0.00000000      -0.00000000       0.10206629      -5.64590157
N       15.55303936      -0.00000000      13.09951298      -0.00000000      -0.00000000      -0.10206629      -6.54647390
Al      15.55303936      -0.00000000      14.99707583      -0.00000000      -0.00000000       0.10206629      -5.64590157
N       15.55303936       1.79591029      15.59902562      -0.00000000      -0.00000000      -0.10206629      -6.54647390
Al      15.55303936       1.79591029      17.49658847       0.00000000      -0.00000000       0.10206629      -5.64590157
N       15.55303936      -0.00000000      18.09853826      -0.00000000      -0.00000000      -0.10206629      -6.54647390
Al      15.55303936      -0.00000000      19.99610111      -0.00000000      -0.00000000       0.10206629      -5.64590157
N       15.55303936       1.79591029      20.59805090       0.00000000      -0.00000000      -0.10206629      -6.54647390
Al      15.55303936       1.79591029      22.49561374       0.00000000      -0.00000000       0.10206629      -5.64590157
N       15.55303936      -0.00000000      23.09756354      -0.00000000      -0.00000000      -0.10206629      -6.54647390
Al      15.55303936      -0.00000000      24.99512638      -0.00000000      -0.00000000       0.10206629      -5.64590157
N       15.55303936       1.79591029      25.59707618       0.00000000      -0.00000000      -0.10206629      -6.54647390
Al      15.55303936       1.79591029      27.49463902       0.00000000      -0.00000000       0.10206629      -5.64590157
N       15.55303936      -0.00000000      28.09658881      -0.00000000      -0.00000000      -0.10206629      -6.54647390
Al      15.55303936      -0.00000000      29.99415166      -0.00000000      -0.00000000       0.10206629      -5.64590157
N       15.55303936       1.79591029      30.59610145       0.00000000      -0.00000000      -0.10206629      -6.54647390
Al      15.55303936       1.79591029      32.49366430       0.00000000      -0.00000000       0.10206629      -5.64590157
N       15.55303936      -0.00000000      33.09561409      -0.00000000      -0.00000000      -0.10206629      -6.54647390
Al      15.55303936      -0.00000000      34.99317694      -0.00000000      -0.00000000       0.10206629      -5.64590157
N       15.55303936       1.79591029      35.59512673       0.00000000      -0.00000000      -0.10206629      -6.54647390
Al      15.55303936       1.79591029      37.49268957      -0.00000000      -0.00000000       0.10206629      -5.64590157
N       15.55303936      -0.00000000      38.09463937      -0.00000000      -0.00000000      -0.10206629      -6.54647390
Al      15.55303936      -0.00000000      39.99220221      -0.00000000      -0.00000000       0.10206629      -5.64590157
N       15.55303936       1.79591029      40.59415201      -0.00000000      -0.00000000      -0.10206629      -6.54647390
Al      15.55303936       1.79591029      42.49171485      -0.00000000      -0.00000000       0.10206629      -5.64590157
N       15.55303936      -0.00000000      43.09366464      -0.00000000      -0.00000000      -0.10206629      -6.54647390
Al      13.99773542       2.69386544       0.00000000       0.00000000      -0.00000000       0.10206629      -5.64590157
N       13.99773542       4.48977573       0.60194979      -0.00000000      -0.00000000      -0.10206629      -6.54647390
Al      13.99773542       4.48977573       2.49951264       0.00000000       0.00000000       0.10206629      -5.64590157
N       13.99773542       2.69386544       3.10146243      -0.00000000       0.00000000      -0.10206629      -6.54647390
Al      13.99773542       2.69386544       4.99902528       0.00000000      -0.00000000       0.10206629      -5.64590157
N       13.99773542       4.48977573       5.60097507       0.00000000      -0.00000000      -0.10206629      -6.54647390
Al      13.99773542       4.48977573       7.49853791      -0.00000000       0.00000000       0.10206629      -5.64590157
N       13.99773542       2.69386544       8.10048771       0.00000000       0.00000000      -0.10206629      -6.54647390
Al      13.99773542       2.69386544       9.99805055       0.00000000       0.00000000       0.10206629      -5.64590157
N       13.99773542       4.48977573      10.60000035      -0.00000000       0.00000000      -0.10206629      -6.54647390
Al      13.99773542       4.48977573      12.49756319      -0.00000000       0.00000000       0.10206629      -5.64590157
N       13.99773542       2.69386544      13.09951298      -0.00000000       0.00000000      -0.10206629      -6.54647390
Al      13.99773542       2.69386544      14.99707583       0.00000000      -0.00000000       0.10206629      -5.64590157
N       13.99773542       4.48977573      15.59902562      -0.00000000       0.00000000      -0.10206629      -6.54647390
Al      13.99773542       4.48977573      17.49658847      -0.00000000       0.00000000       0.10206629      -5.64590157
N       13.99773542       2.69386544      18.09853826       0.00000000       0.00000000      -0.10206629      -6.54647390
Al      13.99773542       2.69386544      19.99610111       0.00000000       0.00000000       0.10206629      -5.64590157
N       13.99773542       4.48977573      20.59805090      -0.00000000       0.00000000      -0.10206629      -6.54647390
Al      13.99773542       4.48977573      22.49561374      -0.00000000       0.00000000       0.10206629      -5.64590157
N       13.99773542       2.69386544      23.09756354       0.00000000       0.00000000      -0.10206629      -6.54647390
Al      13.99773542       2.69386544      24.99512638       0.00000000      -0.00000000       0.10206629      -5.64590157
N       13.99773542       4.48977573      25.59707618       0.00000000       0.00000000      -0.10206629      -6.54647390
Al      13.99773542       4.48977573      27.49463902       0.00000000       0.00000000       0.10206629      -5.64590157
N       13.99773542       2.69386544      28.09658881       0.00000000       0.00000000      -0.10206629      -6.54647390
Al      13.99773542       2.69386544      29.99415166       0.00000000       0.00000000       0.10206629      -5.64590157
N       13.99773542       4.48977573      30.59610145       0.00000000       0.00000000      -0.10206629      -6.54647390
Al      13.99773542       4.48977573      32.49366430       0.00000000       0.00000000       0.10206629      -5.64590157
N       13.99773542       2.69386544      33.09561409       0.00000000       0.00000000      -0.10206629      -6.54647390
Al      13.99773542       2.69386544      34.99317694       0.00000000       0.00000000       0.10206629      -5.64590157
N       13.99773542       4.48977573      35.59512673       0.00000000       0.00000000      -0.10206629      -6.54647390
Al      13.99773542       4.48977573      37.49268957       0.00000000      -0.00000000       0.10206629      -5.64590157
N       13.99773542       2.69386544      38.09463937      -0.00000000       0.00000000      -0.10206629      -6.54647390
Al      13.99773542       2.69386544      39.99220221       0.00000000       0.00000000       0.10206629      -5.64590157
N       13.99773542       4.48977573      40.59415201       0.00000000      -0.00000000      -0.10206629      -6.54647390
Al      13.99773542       4.48977573      42.49171485       0.00000000      -0.00000000       0.10206629      -5.64590157
N       13.99773542       2.69386544      43.09366464      -0.00000000       0.00000000      -0.10206629      -6.54647390
Al      12.44243149       5.38773088       0.00000000       0.00000000      -0.00000000       0.10206629      -5.64590157
N       12.44243149       7.18364117       0.60194979      -0.00000000      -0.00000000      -0.10206629      -6.54647390
Al      12.44243149       7.18364117       2.49951264      -0.00000000      -0.00000000       0.10206629      -5.64590157
N       12.44243149       5.38773088       3.10146243      -0.00000000      -0.00000000      -0.10206629      -6.54647390
Al      12.44243149       5.38773088       4.99902528       0.00000000      -0.00000000       0.10206629      -5.64590157
N       12.44243149       7.18364117       5.60097507      -0.00000000      -0.00000000      -0.10206629      -6.54647390
Al      12.44243149       7.18364117       7.49853791      -0.00000000      -0.00000000       0.10206629      -5.64590157
N       12.44243149       5.38773088       8.10048771       0.00000000      -0.00000000      -0.10206629      -6.54647390
Al      12.44243149       5.38773088       9.99805055       0.00000000      -0.00000000       0.10206629      -5.64590157
N       12.44243149       7.18364117      10.60000035      -0.00000000      -0.00000000      -0.10206629      -6.54647390
Al      12.44243149       7.18364117      12.49756319      -0.00000000      -0.00000000       0.10206629      -5.64590157
N       12.44243149       5.38773088      13.09951298       0.00000000      -0.00000000      -0.10206629      -6.54647390
Al      12.44243149       5.38773088      14.99707583      -0.00000000      -0.00000000       0.10206629      -5.64590157
N       12.44243149       7.18364117      15.59902562      -0.00000000      -0.00000000      -0.10206629      -6.54647390
Al      12.44243149       7.18364117      17.49658847      -0.00000000      -0.00000000       0.10206629      -5.64590157
N       12.44243149       5.38773088      18.09853826       0.00000000      -0.00000000      -0.10206629      -6.54647390
Al      12.44243149       5.38773088      19.99610111       0.00000000      -0.00000000       0.10206629      -5.64590157
N       12.44243149       7.18364117      20.59805090      -0.00000000      -0.00000000      -0.10206629      -6.54647390
Al      12.44243149       7.18364117      22.49561374      -0.00000000      -0.00000000       0.10206629      -5.64590157
N       12.44243149       5.38773088      23.09756354       0.00000000      -0.00000000      -0.10206629      -6.54647390
Al      12.44243149       5.38773088      24.99512638       0.00000000      -0.00000000       0.10206629      -5.64590157
N       12.44243149       7.18364117      25.59707618      -0.00000000       0.00000000      -0.10206629      -6.54647390
Al      12.44243149       7.18364117      27.49463902      -0.00000000      -0.00000000       0.10206629      -5.64590157
N       12.44243149       5.38773088      28.09658881       0.00000000      -0.00000000      -0.10206629      -6.54647390
Al      12.44243149       5.38773088      29.99415166       0.00000000      -0.00000000       0.10206629      -5.64590157
N       12.44243149       7.18364117      30.59610145      -0.00000000      -0.00000000      -0.10206629      -6.54647390
Al      12.44243149       7.18364117      32.49366430      -0.00000000       0.00000000       0.10206629      -5.64590157
N       12.44243149       5.38773088      33.09561409       0.00000000      -0.00000000      -0.10206629      -6.54647390
Al      12.44243149       5.38773088      34.99317694       0.00000000      -0.00000000       0.10206629      -5.64590157
N       12.44243149       7.18364117      35.59512673      -0.00000000      -0.00000000      -0.10206629      -6.54647390
Al      12.44243149       7.18364117      37.49268957      -0.00000000      -0.00000000       0.10206629      -5.64590157
N       12.44243149       5.38773088      38.09463937      -0.00000000      -0.00000000      -0.10206629      -6.54647390
Al      12.44243149       5.38773088      39.99220221      -0.00000000      -0.00000000       0.10206629      -5.64590157
N       12.44243149       7.18364117      40.59415201      -0.00000000      -0.00000000      -0.10206629      -6.54647390
Al      12.44243149       7.18364117      42.49171485      -0.00000000      -0.00000000       0.10206629      -5.64590157
N       12.44243149       5.38773088      43.09366464      -0.00000000      -0.00000000      -0.10206629      -6.54647390
Al      10.88712755       8.08159631       0.00000000       0.00000000       0.00000000       0.10206629      -5.64590157
N       10.88712755       9.87750661       0.60194979      -0.00000000       0.00000000      -0.10206629      -6.54647390
Al      10.88712755       9.87750661       2.49951264      -0.00000000       0.00000000       0.10206629      -5.64590157
N       10.88712755       8.08159631       3.10146243       0.00000000      -0.00000000      -0.10206629      -6.54647390
Al      10.88712755       8.08159631       4.99902528       0.00000000      -0.00000000       0.10206629      -5.64590157
N       10.88712755       9.87750661       5.60097507      -0.00000000       0.00000000      -0.10206629      -6.54647390
Al      10.88712755       9.87750661       7.49853791      -0.00000000       0.00000000       0.10206629      -5.64590157
N       10.88712755       8.08159631       8.10048771       0.00000000      -0.00000000      -0.10206629      -6.54647390
Al      10.88712755       8.08159631       9.99805055       0.00000000      -0.00000000       0.10206629      -5.64590157
N       10.88712755       9.87750661      10.60000035      -0.00000000       0.00000000      -0.10206629      -6.54647390
Al      10.88712755       9.87750661      12.49756319      -0.00000000       0.00000000       0.10206629      -5.64590157
N       10.88712755       8.08159631      13.09951298       0.00000000      -0.00000000      -0.10206629      -6.54647390
Al      10.88712755       8.08159631      14.99707583       0.00000000       0.00000000       0.10206629      -5.64590157
N       10.88712755       9.87750661      15.59902562      -0.00000000       0.00000000      -0.10206629      -6.54647390
Al      10.88712755       9.87750661      17.49658847      -0.00000000       0.00000000       0.10206629      -5.64590157
N       10.88712755       8.08159631      18.09853826       0.00000000      -0.00000000      -0.10206629      -6.54647390
Al      10.88712755       8.08159631      19.99610111       0.00000000       0.00000000       0.10206629      -5.64590157
N       10.88712755       9.87750661      20.59805090      -0.00000000       0.00000000      -0.10206629      -6.54647390
Al      10.88712755       9.87750661      22.49561374      -0.00000000       0.00000000       0.10206629      -5.64590157
N       10.88712755       8.08159631      23.09756354       0.00000000      -0.00000000      -0.10206629      -6.54647390
Al      10.88712755       8.08159631      24.99512638       0.00000000       0.00000000       0.10206629      -5.64590157
N       10.88712755       9.87750661      25.59707618      -0.00000000       0.00000000      -0.10206629      -6.54647390
Al      10.88712755       9.87750661      27.49463902      -0.00000000       0.00000000       0.10206629      -5.64590157
N       10.88712755       8.08159631      28.09658881       0.00000000      -0.00000000      -0.10206629      -6.54647390
Al      10.88712755       8.08159631      29.99415166       0.00000000       0.00000000       0.10206629      -5.64590157
N       10.88712755       9.87750661      30.59610145      -0.00000000       0.00000000      -0.10206629      -6.54647390
Al      10.88712755       9.87750661      32.49366430      -0.00000000       0.00000000       0.10206629      -5.64590157
N       10.88712755       8.08159631      33.09561409       0.00000000      -0.00000000      -0.10206629      -6.54647390
Al      10.88712755       8.08159631      34.99317694       0.00000000       0.00000000       0.10206629      -5.64590157
N       10.88712755       9.87750661      35.59512673      -0.00000000       0.00000000      -0.10206629      -6.54647390
Al      10.88712755       9.87750661      37.49268957      -0.00000000       0.00000000       0.10206629      -5.64590157
N       10.88712755       8.08159631      38.09463937       0.00000000      -0.00000000      -0.10206629      -6.54647390
Al      10.88712755       8.08159631      39.99220221       0.00000000      -0.00000000       0.10206629      -5.64590157
N       10.88712755       9.87750661      40.59415201      -0.00000000       0.00000000      -0.10206629      -6.54647390
Al      10.88712755       9.87750661      42.49171485      -0.00000000       0.00000000       0.10206629      -5.64590157
N       10.88712755       8.08159631      43.09366464       0.00000000      -0.00000000      -0.10206629      -6.54647390
Al       9.33182361      10.77546175       0.00000000       0.00000000      -0.00000000       0.10206629      -5.64590157
N        9.33182361      12.57137204       0.60194979       0.00000000      -0.00000000      -0.10206629      -6.54647390
Al       9.33182361      12.57137204       2.49951264       0.00000000      -0.00000000       0.10206629      -5.64590157
N        9.33182361      10.77546175       3.10146243      -0.00000000      -0.00000000      -0.10206629      -6.54647390
Al       9.33182361      10.77546175       4.99902528      -0.00000000      -0.00000000       0.10206629      -5.64590157
N        9.33182361      12.57137204       5.60097507       0.00000000      -0.00000000      -0.10206629      -6.54647390
Al       9.33182361      12.57137204       7.49853791       0.00000000      -0.00000000       0.10206629      -5.64590157
N        9.33182361      10.77546175       8.10048771      -0.00000000      -0.00000000      -0.10206629      -6.54647390
Al       9.33182361      10.77546175       9.99805055      -0.00000000      -0.00000000       0.10206629      -5.64590157
N        9.33182361      12.57137204      10.60000035       0.00000000      -0.00000000      -0.10206629      -6.54647390
Al       9.33182361      12.57137204      12.49756319       0.00000000      -0.00000000       0.10206629      -5.64590157
N        9.33182361      10.77546175      13.09951298      -0.00000000      -0.00000000      -0.10206629      -6.54647390
Al       9.33182361      10.77546175      14.99707583      -0.00000000      -0.00000000       0.10206629      -5.64590157
N        9.33182361      12.57137204      15.59902562       0.00000000      -0.00000000      -0.10206629      -6.54647390
Al       9.33182361      12.57137204      17.49658847       0.00000000      -0.00000000       0.10206629      -5.64590157
N        9.33182361      10.77546175      18.09853826      -0.00000000      -0.00000000      -0.10206629      -6.54647390
Al       9.33182361      10.77546175      19.99610111       0.00000000      -0.00000000       0.10206629      -5.64590157
N        9.33182361      12.57137204      20.59805090       0.00000000      -0.00000000      -0.10206629      -6.54647390
Al       9.33182361      12.57137204      22.49561374       0.00000000      -0.00000000       0.10206629      -5.64590157
N        9.33182361      10.77546175      23.09756354      -0.00000000      -0.00000000      -0.10206629      -6.54647390
Al       9.33182361      10.77546175      24.99512638       0.00000000      -0.00000000       0.10206629      -5.64590157
N        9.33182361      12.57137204      25.59707618       0.00000000      -0.00000000      -0.10206629      -6.54647390
Al       9.33182361      12.57137204      27.49463902       0.00000000      -0.00000000       0.10206629      -5.64590157
N        9.33182361      10.77546175      28.09658881       0.00000000      -0.00000000      -0.10206629      -6.54647390
Al       9.33182361      10.77546175      29.99415166      -0.00000000      -0.00000000       0.10206629      -5.64590157
N        9.33182361      12.57137204      30.59610145       0.00000000      -0.00000000      -0.10206629      -6.54647390
Al       9.33182361      12.57137204      32.49366430       0.00000000      -0.00000000       0.10206629      -5.64590157
N        9.33182361      10.77546175      33.09561409      -0.00000000      -0.00000000      -0.10206629      -6.54647390
Al       9.33182361      10.77546175      34.99317694      -0.00000000      -0.00000000       0.10206629      -5.64590157
N        9.33182361      12.57137204      35.59512673       0.00000000      -0.00000000      -0.10206629      -6.54647390
Al       9.33182361      12.57137204      37.49268957       0.00000000      -0.00000000       0.10206629      -5.64590157
N        9.33182361      10.77546175      38.09463937      -0.00000000      -0.00000000      -0.10206629      -6.54647390
Al       9.33182361      10.77546175      39.99220221       0.00000000       0.00000000       0.10206629      -5.64590157
N        9.33182361      12.57137204      40.59415201       0.00000000      -0.00000000      -0.10206629      -6.54647390
Al       9.33182361      12.57137204      42.49171485       0.00000000      -0.00000000       0.10206629      -5.64590157
N        9.33182361      10.77546175      43.09366464       0.00000000      -0.00000000      -0.10206629      -6.54647390
Al       7.77651968      13.46932719      -0.00000000      -0.00000000       0.00000000       0.10206629      -5.64590157
N        7.77651968      15.26523748       0.60194979       0.00000000       0.00000000      -0.10206629      -6.54647390
Al       7.77651968      15.26523748       2.49951264      -0.00000000      -0.00000000       0.10206629      -5.64590157
N        7.77651968      13.46932719       3.10146243      -0.00000000       0.00000000      -0.10206629      -6.54647390
Al       7.77651968      13.46932719       4.99902528      -0.00000000       0.00000000       0.10206629      -5.64590157
N        7.77651968      15.26523748       5.60097507       0.00000000       0.00000000      -0.10206629      -6.54647390
Al       7.77651968      15.26523748       7.49853791       0.00000000       0.00000000       0.10206629      -5.64590157
N        7.77651968      13.46932719       8.10048771      -0.00000000       0.00000000      -0.10206629      -6.54647390
Al       7.77651968      13.46932719       9.99805055      -0.00000000      -0.00000000       0.10206629      -5.64590157
N        7.77651968      15.26523748      10.60000035       0.00000000       0.00000000      -0.10206629      -6.54647390
Al       7.77651968      15.26523748      12.49756319       0.00000000       0.00000000       0.10206629      -5.64590157
N        7.77651968      13.46932719      13.09951298      -0.00000000      -0.00000000      -0.10206629      -6.54647390
Al       7.77651968      13.46932719      14.99707583      -0.00000000      -0.00000000       0.10206629      -5.64590157
N        7.77651968      15.26523748      15.59902562       0.00000000       0.00000000      -0.10206629      -6.54647390
Al       7.77651968      15.26523748      17.49658847       0.00000000      -0.00000000       0.10206629      -5.64590157
N        7.77651968      13.46932719      18.09853826      -0.00000000       0.00000000      -0.10206629      -6.54647390
Al       7.77651968      13.46932719      19.99610111      -0.00000000      -0.00000000       0.10206629      -5.64590157
N        7.77651968      15.26523748      20.59805090      -0.00000000       0.00000000      -0.10206629      -6.54647390
Al       7.77651968      15.26523748      22.49561374       0.00000000      -0.00000000       0.10206629      -5.64590157
N        7.77651968      13.46932719      23.09756354      -0.00000000       0.00000000      -0.10206629      -6.54647390
Al       7.77651968      13.46932719      24.99512638      -0.00000000      -0.00000000       0.10206629      -5.64590157
N        7.77651968      15.26523748      25.59707618      -0.00000000       0.00000000      -0.10206629      -6.54647390
Al       7.77651968      15.26523748      27.49463902      -0.00000000       0.00000000       0.10206629      -5.64590157
N        7.77651968      13.46932719      28.09658881      -0.00000000       0.00000000      -0.10206629      -6.54647390
Al       7.77651968      13.46932719      29.99415166      -0.00000000       0.00000000       0.10206629      -5.64590157
N        7.77651968      15.26523748      30.59610145       0.00000000       0.00000000      -0.10206629      -6.54647390
Al       7.77651968      15.26523748      32.49366430       0.00000000       0.00000000       0.10206629      -5.64590157
N        7.77651968      13.46932719      33.09561409      -0.00000000      -0.00000000      -0.10206629      -6.54647390
Al       7.77651968      13.46932719      34.99317694      -0.00000000      -0.00000000       0.10206629      -5.64590157
N        7.77651968      15.26523748      35.59512673       0.00000000       0.00000000      -0.10206629      -6.54647390
Al       7.77651968      15.26523748      37.49268957      -0.00000000       0.00000000       0.10206629      -5.64590157
N        7.77651968      13.46932719      38.09463937      -0.00000000      -0.00000000      -0.10206629      -6.54647390
Al       7.77651968      13.46932719      39.99220221      -0.00000000      -0.00000000       0.10206629      -5.64590157
N        7.77651968      15.26523748      40.59415201      -0.00000000       0.00000000      -0.10206629      -6.54647390
Al       7.77651968      15.26523748      42.49171485      -0.00000000      -0.00000000       0.10206629      -5.64590157
N        7.77651968      13.46932719      43.09366464      -0.00000000       0.00000000      -0.10206629      -6.54647390
Al       6.22121574      16.16319263      -0.00000000       0.00000000       0.00000000       0.10206629      -5.64590157
N        6.22121574      17.95910292       0.60194979       0.00000000      -0.00000000      -0.10206629      -6.54647390
Al       6.22121574      17.95910292       2.49951264       0.00000000      -0.00000000       0.10206629      -5.64590157
N        6.22121574      16.16319263       3.10146243       0.00000000       0.00000000      -0.10206629      -6.54647390
Al       6.22121574      16.16319263       4.99902528       0.00000000       0.00000000       0.10206629      -5.64590157
N        6.22121574      17.95910292       5.60097507       0.00000000      -0.00000000      -0.10206629      -6.54647390
Al       6.22121574      17.95910292       7.49853791       0.00000000      -0.00000000       0.10206629      -5.64590157
N        6.22121574      16.16319263       8.10048771       0.00000000       0.00000000      -0.10206629      -6.54647390
Al       6.22121574      16.16319263       9.99805055       0.00000000       0.00000000       0.10206629      -5.64590157
N        6.22121574      17.95910292      10.60000035       0.00000000      -0.00000000      -0.10206629      -6.54647390
Al       6.22121574      17.95910292      12.49756319       0.00000000      -0.00000000       0.10206629      -5.64590157
N        6.22121574      16.16319263      13.09951298       0.00000000       0.00000000      -0.10206629      -6.54647390
Al       6.22121574      16.16319263      14.99707583       0.00000000       0.00000000       0.10206629      -5.64590157
N        6.22121574      17.95910292      15.59902562       0.00000000      -0.00000000      -0.10206629      -6.54647390
Al       6.22121574      17.95910292      17.49658847       0.00000000      -0.00000000       0.10206629      -5.64590157
N        6.22121574      16.16319263      18.09853826       0.00000000       0.00000000      -0.10206629      -6.54647390
Al       6.22121574      16.16319263      19.99610111       0.00000000       0.00000000       0.10206629      -5.64590157
N        6.22121574      17.95910292      20.59805090       0.00000000      -0.00000000      -0.10206629      -6.54647390
Al       6.22121574      17.95910292      22.49561374       0.00000000      -0.00000000       0.10206629      -5.64590157
N        6.22121574      16.16319263      23.09756354       0.00000000       0.00000000      -0.10206629      -6.54647390
Al       6.22121574      16.16319263      24.99512638       0.00000000       0.00000000       0.10206629      -5.64590157
N        6.22121574      17.95910292      25.59707618       0.00000000      -0.00000000      -0.10206629      -6.54647390
Al       6.22121574      17.95910292      27.49463902       0.00000000      -0.00000000       0.10206629      -5.64590157
N        6.22121574      16.16319263      28.09658881       0.00000000       0.00000000      -0.10206629      -6.54647390
Al       6.22121574      16.16319263      29.99415166       0.00000000       0.00000000       0.10206629      -5.64590157
N        6.22121574      17.95910292      30.59610145       0.00000000      -0.00000000      -0.10206629      -6.54647390
Al       6.22121574      17.95910292      32.49366430       0.00000000      -0.00000000       0.10206629      -5.64590157
N        6.22121574      16.16319263      33.09561409       0.00000000       0.00000000      -0.10206629      -6.54647390
Al       6.22121574      16.16319263      34.99317694       0.00000000       0.00000000       0.10206629      -5.64590157
N        6.22121574      17.95910292      35.59512673       0.00000000      -0.00000000      -0.10206629      -6.54647390
Al       6.22121574      17.95910292      37.49268957       0.00000000      -0.00000000       0.10206629      -5.64590157
N        6.22121574      16.16319263      38.09463937       0.00000000       0.00000000      -0.10206629      -6.54647390
Al       6.22121574      16.16319263      39.99220221      -0.00000000       0.00000000       0.10206629      -5.64590157
N        6.22121574      17.95910292      40.59415201       0.00000000      -0.00000000      -0.10206629      -6.54647390
Al       6.22121574      17.95910292      42.49171485      -0.00000000      -0.00000000       0.10206629      -5.64590157
N        6.22121574      16.16319263      43.09366464      -0.00000000       0.00000000      -0.10206629      -6.54647390
Al       4.66591181      18.85705806      -0.00000000      -0.00000000      -0.00000000       0.10206629      -5.64590157
N        4.66591181      20.65296836       0.60194979       0.00000000       0.00000000      -0.10206629      -6.54647390
Al       4.66591181      20.65296836       2.49951264       0.00000000       0.00000000       0.10206629      -5.64590157
N        4.66591181      18.85705806       3.10146243      -0.00000000      -0.00000000      -0.10206629      -6.54647390
Al       4.66591181      18.85705806       4.99902528      -0.00000000      -0.00000000       0.10206629      -5.64590157
N        4.66591181      20.65296836       5.60097507       0.00000000       0.00000000      -0.10206629      -6.54647390
Al       4.66591181      20.65296836       7.49853791       0.00000000       0.00000000       0.10206629      -5.64590157
N        4.66591181      18.85705806       8.10048771      -0.00000000      -0.00000000      -0.10206629      -6.54647390
Al       4.66591181      18.85705806       9.99805055      -0.00000000      -0.00000000       0.10206629      -5.64590157
N        4.66591181      20.65296836      10.60000035       0.00000000       0.00000000      -0.10206629      -6.54647390
Al       4.66591181      20.65296836      12.49756319       0.00000000       0.00000000       0.10206629      -5.64590157
N        4.66591181      18.85705806      13.09951298      -0.00000000      -0.00000000      -0.10206629      -6.54647390
Al       4.66591181      18.85705806      14.99707583      -0.00000000      -0.00000000       0.10206629      -5.64590157
N        4.66591181      20.65296836      15.59902562       0.00000000       0.00000000      -0.10206629      -6.54647390
Al       4.66591181      20.65296836      17.49658847       0.00000000       0.00000000       0.10206629      -5.64590157
N        4.66591181      18.85705806      18.09853826      -0.00000000      -0.00000000      -0.10206629      -6.54647390
Al       4.66591181      18.85705806      19.99610111      -0.00000000      -0.00000000       0.10206629      -5.64590157
N        4.66591181      20.65296836      20.59805090       0.00000000       0.00000000      -0.10206629      -6.54647390
Al       4.66591181      20.65296836      22.49561374       0.00000000       0.00000000       0.10206629      -5.64590157
N        4.66591181      18.85705806      23.09756354      -0.00000000      -0.00000000      -0.10206629      -6.54647390
Al       4.66591181      18.85705806      24.99512638      -0.00000000      -0.00000000       0.10206629      -5.64590157
N        4.66591181      20.65296836      25.59707618       0.00000000       0.00000000      -0.10206629      -6.54647390
Al       4.66591181      20.65296836      27.49463902       0.00000000       0.00000000       0.10206629      -5.64590157
N        4.66591181      18.85705806      28.09658881      -0.00000000      -0.00000000      -0.10206629      -6.54647390
Al       4.66591181      18.85705806      29.99415166      -0.00000000      -0.00000000       0.10206629      -5.64590157
N        4.66591181      20.65296836      30.59610145       0.00000000       0.00000000      -0.10206629      -6.54647390
Al       4.66591181      20.65296836      32.49366430       0.00000000       0.00000000       0.10206629      -5.64590157
N        4.66591181      18.85705806      33.09561409      -0.00000000      -0.00000000      -0.10206629      -6.54647390
Al       4.66591181      18.85705806      34.99317694      -0.00000000      -0.00000000       0.10206629      -5.64590157
N        4.66591181      20.65296836      35.59512673       0.00000000       0.00000000      -0.10206629      -6.54647390
Al       4.66591181      20.65296836      37.49268957       0.00000000       0.00000000       0.10206629      -5.64590157
N        4.66591181      18.85705806      38.09463937      -0.00000000      -0.00000000      -0.10206629      -6.54647390
Al       4.66591181      18.85705806      39.99220221      -0.00000000      -0.00000000       0.10206629      -5.64590157
N        4.66591181      20.65296836      40.59415201       0.00000000       0.00000000      -0.10206629      -6.54647390
Al       4.66591181      20.65296836      42.49171485       0.00000000       0.00000000       0.10206629      -5.64590157
N        4.66591181      18.85705806      43.09366464      -0.00000000      -0.00000000      -0.10206629      -6.54647390
Al       3.11060787      21.55092350      -0.00000000      -0.00000000      -0.00000000       0.10206629      -5.64590157
N        3.11060787      23.34683379       0.60194979       0.00000000       0.00000000      -0.10206629      -6.54647390
Al       3.11060787      23.34683379       2.49951264       0.00000000       0.00000000       0.10206629      -5.64590157
N        3.11060787      21.55092350       3.10146243      -0.00000000      -0.00000000      -0.10206629      -6.54647390
Al       3.11060787      21.55092350       4.99902528       0.00000000       0.00000000       0.10206629      -5.64590157
N        3.11060787      23.34683379       5.60097507       0.00000000       0.00000000      -0.10206629      -6.54647390
Al       3.11060787      23.34683379       7.49853791       0.00000000       0.00000000       0.10206629      -5.64590157
N        3.11060787      21.55092350       8.10048771      -0.00000000      -0.00000000      -0.10206629      -6.54647390
Al       3.11060787      21.55092350       9.99805055       0.00000000       0.00000000       0.10206629      -5.64590157
N        3.11060787      23.34683379      10.60000035       0.00000000       0.00000000      -0.10206629      -6.54647390
Al       3.11060787      23.34683379      12.49756319       0.00000000       0.00000000       0.10206629      -5.64590157
N        3.11060787      21.55092350      13.09951298      -0.00000000      -0.00000000      -0.10206629      -6.54647390
Al       3.11060787      21.55092350      14.99707583      -0.00000000       0.00000000       0.10206629      -5.64590157
N        3.11060787      23.34683379      15.59902562       0.00000000       0.00000000      -0.10206629      -6.54647390
Al       3.11060787      23.34683379      17.49658847       0.00000000       0.00000000       0.10206629      -5.64590157
N        3.11060787      21.55092350      18.09853826      -0.00000000      -0.00000000      -0.10206629      -6.54647390
Al       3.11060787      21.55092350      19.99610111      -0.00000000       0.00000000       0.10206629      -5.64590157
N        3.11060787      23.34683379      20.59805090       0.00000000       0.00000000      -0.10206629      -6.54647390
Al       3.11060787      23.34683379      22.49561374       0.00000000       0.00000000       0.10206629      -5.64590157
N        3.11060787      21.55092350      23.09756354      -0.00000000      -0.00000000      -0.10206629      -6.54647390
Al       3.11060787      21.55092350      24.99512638      -0.00000000       0.00000000       0.10206629      -5.64590157
N        3.11060787      23.34683379      25.59707618       0.00000000       0.00000000      -0.10206629      -6.54647390
Al       3.11060787      23.34683379      27.49463902       0.00000000       0.00000000       0.10206629      -5.64590157
N        3.11060787      21.55092350      28.09658881      -0.00000000      -0.00000000      -0.10206629      -6.54647390
Al       3.11060787      21.55092350      29.99415166      -0.00000000       0.00000000       0.10206629      -5.64590157
N        3.11060787      23.34683379      30.59610145       0.00000000       0.00000000      -0.10206629      -6.54647390
Al       3.11060787      23.34683379      32.49366430       0.00000000       0.00000000       0.10206629      -5.64590157
N        3.11060787      21.55092350      33.09561409      -0.00000000       0.00000000      -0.10206629      -6.54647390
Al       3.11060787      21.55092350      34.99317694      -0.00000000       0.00000000       0.10206629      -5.64590157
N        3.11060787      23.34683379      35.59512673       0.00000000       0.00000000      -0.10206629      -6.54647390
Al       3.11060787      23.34683379      37.49268957       0.00000000       0.00000000       0.10206629      -5.64590157
N        3.11060787      21.55092350      38.09463937      -0.00000000      -0.00000000      -0.10206629      -6.54647390
Al       3.11060787      21.55092350      39.99220221      -0.00000000      -0.00000000       0.10206629      -5.64590157
N        3.11060787      23.34683379      40.59415201       0.00000000       0.00000000      -0.10206629      -6.54647390
Al       3.11060787      23.34683379      42.49171485       0.00000000       0.00000000       0.10206629      -5.64590157
N        3.11060787      21.55092350      43.09366464      -0.00000000      -0.00000000      -0.10206629      -6.54647390
Al       1.55530394      24.24478894      -0.00000000      -0.00000000      -0.00000000       0.10206629      -5.64590157
N        1.55530394      26.04069923       0.60194979       0.00000000      -0.00000000      -0.10206629      -6.54647390
Al       1.55530394      26.04069923       2.49951264       0.00000000      -0.00000000       0.10206629      -5.64590157
N        1.55530394      24.24478894       3.10146243      -0.00000000      -0.00000000      -0.10206629      -6.54647390
Al       1.55530394      24.24478894       4.99902528       0.00000000      -0.00000000       0.10206629      -5.64590157
N        1.55530394      26.04069923       5.60097507       0.00000000       0.00000000      -0.10206629      -6.54647390
Al       1.55530394      26.04069923       7.49853791       0.00000000      -0.00000000       0.10206629      -5.64590157
N        1.55530394      24.24478894       8.10048771      -0.00000000      -0.00000000      -0.10206629      -6.54647390
Al       1.55530394      24.24478894       9.99805055      -0.00000000      -0.00000000       0.10206629      -5.64590157
N        1.55530394      26.04069923      10.60000035       0.00000000       0.00000000      -0.10206629      -6.54647390
Al       1.55530394      26.04069923      12.49756319       0.00000000      -0.00000000       0.10206629      -5.64590157
N        1.55530394      24.24478894      13.09951298      -0.00000000      -0.00000000      -0.10206629      -6.54647390
Al       1.55530394      24.24478894      14.99707583      -0.00000000      -0.00000000       0.10206629      -5.64590157
N        1.55530394      26.04069923      15.59902562       0.00000000       0.00000000      -0.10206629      -6.54647390
Al       1.55530394      26.04069923      17.49658847       0.00000000      -0.00000000       0.10206629      -5.64590157
N        1.55530394      24.24478894      18.09853826      -0.00000000      -0.00000000      -0.10206629      -6.54647390
Al       1.55530394      24.24478894      19.99610111      -0.00000000      -0.00000000       0.10206629      -5.64590157
N        1.55530394      26.04069923      20.59805090       0.00000000       0.00000000      -0.10206629      -6.54647390
Al       1.55530394      26.04069923      22.49561374       0.00000000      -0.00000000       0.10206629      -5.64590157
N        1.55530394      24.24478894      23.09756354      -0.00000000       0.00000000      -0.10206629      -6.54647390
Al       1.55530394      24.24478894      24.99512638      -0.00000000      -0.00000000       0.10206629      -5.64590157
N        1.55530394      26.04069923      25.59707618       0.00000000      -0.00000000      -0.10206629      -6.54647390
Al       1.55530394      26.04069923      27.49463902       0.00000000      -0.00000000       0.10206629      -5.64590157
N        1.55530394      24.24478894      28.09658881      -0.00000000      -0.00000000      -0.10206629      -6.54647390
Al       1.55530394      24.24478894      29.99415166      -0.00000000      -0.00000000       0.10206629      -5.64590157
N        1.55530394      26.04069923      30.59610145       0.00000000      -0.00000000      -0.10206629      -6.54647390
Al       1.55530394      26.04069923      32.49366430       0.00000000      -0.00000000       0.10206629      -5.64590157
N        1.55530394      24.24478894      33.09561409      -0.00000000      -0.00000000      -0.10206629      -6.54647390
Al       1.55530394      24.24478894      34.99317694      -0.00000000      -0.00000000       0.10206629      -5.64590157
N        1.55530394      26.04069923      35.59512673       0.00000000       0.00000000      -0.10206629      -6.54647390
Al       1.55530394      26.04069923      37.49268957       0.00000000      -0.00000000       0.10206629      -5.64590157
N        1.55530394      24.24478894      38.09463937      -0.00000000      -0.00000000      -0.10206629      -6.54647390
Al       1.55530394      24.24478894      39.99220221       0.00000000      -0.00000000       0.10206629      -5.64590157
N        1.55530394      26.04069923      40.59415201       0.00000000       0.00000000      -0.10206629      -6.54647390
Al       1.55530394      26.04069923      42.49171485       0.00000000      -0.00000000       0.10206629      -5.64590157
N        1.55530394      24.24478894      43.09366464      -0.00000000      -0.00000000      -0.10206629      -6.54647390
Al      -0.00000000      26.93865438      -0.00000000      -0.00000000      -0.00000000       0.10206629      -5.64590157
N       -0.00000000      28.73456467       0.60194979       0.00000000       0.00000000      -0.10206629      -6.54647390
Al      -0.00000000      28.73456467       2.49951264       0.00000000       0.00000000       0.10206629      -5.64590157
N       -0.00000000      26.93865438       3.10146243       0.00000000      -0.00000000      -0.10206629      -6.54647390
Al      -0.00000000      26.93865438       4.99902528       0.00000000       0.00000000       0.10206629      -5.64590157
N       -0.00000000      28.73456467       5.60097507       0.00000000       0.00000000      -0.10206629      -6.54647390
Al      -0.00000000      28.73456467       7.49853791       0.00000000       0.00000000       0.10206629      -5.64590157
N       -0.00000000      26.93865438       8.10048771       0.00000000       0.00000000      -0.10206629      -6.54647390
Al      -0.00000000      26.93865438       9.99805055       0.00000000      -0.00000000       0.10206629      -5.64590157
N       -0.00000000      28.73456467      10.60000035       0.00000000       0.00000000      -0.10206629      -6.54647390
Al      -0.00000000      28.73456467      12.49756319      -0.00000000       0.00000000       0.10206629      -5.64590157
N       -0.00000000      26.93865438      13.09951298       0.00000000       0.00000000      -0.10206629      -6.54647390
Al      -0.00000000      26.93865438      14.99707583      -0.00000000      -0.00000000       0.10206629      -5.64590157
N       -0.00000000      28.73456467      15.59902562       0.00000000       0.00000000      -0.10206629      -6.54647390
Al      -0.00000000      28.73456467      17.49658847      -0.00000000       0.00000000       0.10206629      -5.64590157
N       -0.00000000      26.93865438      18.09853826       0.00000000       0.00000000      -0.10206629      -6.54647390
Al      -0.00000000      26.93865438      19.99610111       0.00000000      -0.00000000       0.10206629      -5.64590157
N       -0.00000000      28.73456467      20.59805090      -0.00000000       0.00000000      -0.10206629      -6.54647390
Al      -0.00000000      28.73456467      22.49561374       0.00000000       0.00000000       0.10206629      -5.64590157
N       -0.00000000      26.93865438      23.09756354       0.00000000      -0.00000000      -0.10206629      -6.54647390
Al      -0.00000000      26.93865438      24.99512638       0.00000000      -0.00000000       0.10206629      -5.64590157
N       -0.00000000      28.73456467      25.59707618       0.00000000       0.00000000      -0.10206629      -6.54647390
Al      -0.00000000      28.73456467      27.49463902       0.00000000       0.00000000       0.10206629      -5.64590157
N       -0.00000000      26.93865438      28.09658881       0.00000000      -0.00000000      -0.10206629      -6.54647390
Al      -0.00000000      26.93865438      29.99415166       0.00000000      -0.00000000       0.10206629      -5.64590157
N       -0.00000000      28.73456467      30.59610145       0.00000000       0.00000000      -0.10206629      -6.54647390
Al      -0.00000000      28.73456467      32.49366430       0.00000000       0.00000000       0.10206629      -5.64590157
N       -0.00000000      26.93865438      33.09561409      -0.00000000      -0.00000000      -0.10206629      -6.54647390
Al      -0.00000000      26.93865438      34.99317694      -0.00000000      -0.00000000       0.10206629      -5.64590157
N       -0.00000000      28.73456467      35.59512673       0.00000000       0.00000000      -0.10206629      -6.54647390
Al      -0.00000000      28.73456467      37.49268957      -0.00000000       0.00000000       0.10206629      -5.64590157
N       -0.00000000      26.93865438      38.09463937       0.00000000      -0.00000000      -0.10206629      -6.54647390
Al       0.00000000      26.93865438      39.99220221       0.00000000      -0.00000000       0.10206629      -5.64590157
N       -0.00000000      28.73456467      40.59415201       0.00000000       0.00000000      -0.10206629      -6.54647390
Al      -0.00000000      28.73456467      42.49171485       0.00000000       0.00000000       0.10206629      -5.64590157
N        0.00000000      26.93865438      43.09366464      -0.00000000      -0.00000000      -0.10206629      -6.54647390
Al      -1.55530394      29.63251982      -0.00000000       0.00000000       0.00000000       0.10206629      -5.64590157
N       -1.55530394      31.42843011       0.60194979       0.00000000      -0.00000000      -0.10206629      -6.54647390
Al      -1.55530394      31.42843011       2.49951264       0.00000000      -0.00000000       0.10206629      -5.64590157
N       -1.55530394      29.63251982       3.10146243       0.00000000       0.00000000      -0.10206629      -6.54647390
Al      -1.55530394      29.63251982       4.99902528       0.00000000       0.00000000       0.10206629      -5.64590157
N       -1.55530394      31.42843011       5.60097507       0.00000000      -0.00000000      -0.10206629      -6.54647390
Al      -1.55530394      31.42843011       7.49853791       0.00000000      -0.00000000       0.10206629      -5.64590157
N       -1.55530394      29.63251982       8.10048771       0.00000000       0.00000000      -0.10206629      -6.54647390
Al      -1.55530394      29.63251982       9.99805055       0.00000000       0.00000000       0.10206629      -5.64590157
N       -1.55530394      31.42843011      10.60000035      -0.00000000      -0.00000000      -0.10206629      -6.54647390
Al      -1.55530394      31.42843011      12.49756319      -0.00000000      -0.00000000       0.10206629      -5.64590157
N       -1.55530394      29.63251982      13.09951298       0.00000000       0.00000000      -0.10206629      -6.54647390
Al      -1.55530394      29.63251982      14.99707583       0.00000000       0.00000000       0.10206629      -5.64590157
N       -1.55530394      31.42843011      15.59902562      -0.00000000      -0.00000000      -0.10206629      -6.54647390
Al      -1.55530394      31.42843011      17.49658847      -0.00000000      -0.00000000       0.10206629      -5.64590157
N       -1.55530394      29.63251982      18.09853826       0.00000000      -0.00000000      -0.10206629      -6.54647390
Al      -1.55530394      29.63251982      19.99610111       0.00000000       0.00000000       0.10206629      -5.64590157
N       -1.55530394      31.42843011      20.59805090      -0.00000000      -0.00000000      -0.10206629      -6.54647390
Al      -1.55530394      31.42843011      22.49561374      -0.00000000      -0.00000000       0.10206629      -5.64590157
N       -1.55530394      29.63251982      23.09756354       0.00000000       0.00000000      -0.10206629      -6.54647390
Al      -1.55530394      29.63251982      24.99512638       0.00000000       0.00000000       0.10206629      -5.64590157
N       -1.55530394      31.42843011      25.59707618      -0.00000000      -0.00000000      -0.10206629      -6.54647390
Al      -1.55530394      31.42843011      27.49463902      -0.00000000      -0.00000000       0.10206629      -5.64590157
N       -1.55530394      29.63251982      28.09658881       0.00000000       0.00000000      -0.10206629      -6.54647390
Al      -1.55530394      29.63251982      29.99415166       0.00000000       0.00000000       0.10206629      -5.64590157
N       -1.55530394      31.42843011      30.59610145      -0.00000000      -0.00000000      -0.10206629      -6.54647390
Al      -1.55530394      31.42843011      32.49366430      -0.00000000      -0.00000000       0.10206629      -5.64590157
N       -1.55530394      29.63251982      33.09561409       0.00000000       0.00000000      -0.10206629      -6.54647390
Al      -1.55530394      29.63251982      34.99317694       0.00000000       0.00000000       0.10206629      -5.64590157
N       -1.55530394      31.42843011      35.59512673      -0.00000000      -0.00000000      -0.10206629      -6.54647390
Al      -1.55530394      31.42843011      37.49268957      -0.00000000      -0.00000000       0.10206629      -5.64590157
N       -1.55530394      29.63251982      38.09463937       0.00000000       0.00000000      -0.10206629      -6.54647390
Al      -1.55530394      29.63251982      39.99220221       0.00000000       0.00000000       0.10206629      -5.64590157
N       -1.55530394      31.42843011      40.59415201      -0.00000000      -0.00000000      -0.10206629      -6.54647390
Al      -1.55530394      31.42843011      42.49171485      -0.00000000      -0.00000000       0.10206629      -5.64590157
N       -1.55530394      29.63251982      43.09366464       0.00000000       0.00000000      -0.10206629      -6.54647390
Al      -3.11060787      32.32638525      -0.00000000       0.00000000       0.00000000       0.10206629      -5.64590157
N       -3.11060787      34.12229555       0.60194979       0.00000000      -0.00000000      -0.10206629      -6.54647390
Al      -3.11060787      34.12229555       2.49951264       0.00000000       0.00000000       0.10206629      -5.64590157
N       -3.11060787      32.32638525       3.10146243       0.00000000       0.00000000      -0.10206629      -6.54647390
Al      -3.11060787      32.32638525       4.99902528       0.00000000       0.00000000       0.10206629      -5.64590157
N       -3.11060787      34.12229555       5.60097507       0.00000000      -0.00000000      -0.10206629      -6.54647390
Al      -3.11060787      34.12229555       7.49853791       0.00000000       0.00000000       0.10206629      -5.64590157
N       -3.11060787      32.32638525       8.10048771       0.00000000       0.00000000      -0.10206629      -6.54647390
Al      -3.11060787      32.32638525       9.99805055       0.00000000       0.00000000       0.10206629      -5.64590157
N       -3.11060787      34.12229555      10.60000035       0.00000000      -0.00000000      -0.10206629      -6.54647390
Al      -3.11060787      34.12229555      12.49756319       0.00000000       0.00000000       0.10206629      -5.64590157
N       -3.11060787      32.32638525      13.09951298       0.00000000       0.00000000      -0.10206629      -6.54647390
Al      -3.11060787      32.32638525      14.99707583       0.00000000       0.00000000       0.10206629      -5.64590157
N       -3.11060787      34.12229555      15.59902562       0.00000000      -0.00000000      -0.10206629      -6.54647390
Al      -3.11060787      34.12229555      17.49658847       0.00000000       0.00000000       0.10206629      -5.64590157
N       -3.11060787      32.32638525      18.09853826       0.00000000       0.00000000      -0.10206629      -6.54647390
Al      -3.11060787      32.32638525      19.99610111       0.00000000       0.00000000       0.10206629      -5.64590157
N       -3.11060787      34.12229555      20.59805090       0.00000000      -0.00000000      -0.10206629      -6.54647390
Al      -3.11060787      34.12229555      22.49561374       0.00000000       0.00000000       0.10206629      -5.64590157
N       -3.11060787      32.32638525      23.09756354       0.00000000       0.00000000      -0.10206629      -6.54647390
Al      -3.11060787      32.32638525      24.99512638       0.00000000       0.00000000       0.10206629      -5.64590157
N       -3.11060787      34.12229555      25.59707618       0.00000000      -0.00000000      -0.10206629      -6.54647390
Al      -3.11060787      34.12229555      27.49463902       0.00000000       0.00000000       0.10206629      -5.64590157
N       -3.11060787      32.32638525      28.09658881       0.00000000       0.00000000      -0.10206629      -6.54647390
Al      -3.11060787      32.32638525      29.99415166       0.00000000       0.00000000       0.10206629      -5.64590157
N       -3.11060787      34.12229555      30.59610145       0.00000000      -0.00000000      -0.10206629      -6.54647390
Al      -3.11060787      34.12229555      32.49366430       0.00000000       0.00000000       0.10206629      -5.64590157
N       -3.11060787      32.32638525      33.09561409       0.00000000       0.00000000      -0.10206629      -6.54647390
Al      -3.11060787      32.32638525      34.99317694       0.00000000       0.00000000       0.10206629      -5.64590157
N       -3.11060787      34.12229555      35.59512673       0.00000000      -0.00000000      -0.10206629      -6.54647390
Al      -3.11060787      34.12229555      37.49268957       0.00000000       0.00000000       0.10206629      -5.64590157
N       -3.11060787      32.32638525      38.09463937       0.00000000       0.00000000      -0.10206629      -6.54647390
Al      -3.11060787      32.32638525      39.99220221       0.00000000       0.00000000       0.10206629      -5.64590157
N       -3.11060787      34.12229555      40.59415201       0.00000000      -0.00000000      -0.10206629      -6.54647390
Al      -3.11060787      34.12229555      42.49171485       0.00000000       0.00000000       0.10206629      -5.64590157
N       -3.11060787      32.32638525      43.09366464       0.00000000       0.00000000      -0.10206629      -6.54647390
Al      -4.66591181      35.02025069      -0.00000000       0.00000000       0.00000000       0.10206629      -5.64590157
N       -4.66591181      36.81616098       0.60194979      -0.00000000      -0.00000000      -0.10206629      -6.54647390
Al      -4.66591181      36.81616098       2.49951264      -0.00000000      -0.00000000       0.10206629      -5.64590157
N       -4.66591181      35.02025069       3.10146243      -0.00000000       0.00000000      -0.10206629      -6.54647390
Al      -4.66591181      35.02025069       4.99902528      -0.00000000       0.00000000       0.10206629      -5.64590157
N       -4.66591181      36.81616098       5.60097507      -0.00000000      -0.00000000      -0.10206629      -6.54647390
Al      -4.66591181      36.81616098       7.49853791      -0.00000000      -0.00000000       0.10206629      -5.64590157
N       -4.66591181      35.02025069       8.10048771      -0.00000000       0.00000000      -0.10206629      -6.54647390
Al      -4.66591181      35.02025069       9.99805055      -0.00000000       0.00000000       0.10206629      -5.64590157
N       -4.66591181      36.81616098      10.60000035      -0.00000000      -0.00000000      -0.10206629      -6.54647390
Al      -4.66591181      36.81616098      12.49756319      -0.00000000      -0.00000000       0.10206629      -5.64590157
N       -4.66591181      35.02025069      13.09951298      -0.00000000       0.00000000      -0.10206629      -6.54647390
Al      -4.66591181      35.02025069      14.99707583      -0.00000000       0.00000000       0.10206629      -5.64590157
N       -4.66591181      36.81616098      15.59902562      -0.00000000      -0.00000000      -0.10206629      -6.54647390
Al      -4.66591181      36.81616098      17.49658847      -0.00000000      -0.00000000       0.10206629      -5.64590157
N       -4.66591181      35.02025069      18.09853826       0.00000000       0.00000000      -0.10206629      -6.54647390
Al      -4.66591181      35.02025069      19.99610111      -0.00000000       0.00000000       0.10206629      -5.64590157
N       -4.66591181      36.81616098      20.59805090      -0.00000000      -0.00000000      -0.10206629      -6.54647390
Al      -4.66591181      36.81616098      22.49561374      -0.00000000      -0.00000000       0.10206629      -5.64590157
N       -4.66591181      35.02025069      23.09756354      -0.00000000       0.00000000      -0.10206629      -6.54647390
Al      -4.66591181      35.02025069      24.99512638      -0.00000000       0.00000000       0.10206629      -5.64590157
N       -4.66591181      36.81616098      25.59707618      -0.00000000      -0.00000000      -0.10206629      -6.54647390
Al      -4.66591181      36.81616098      27.49463902      -0.00000000      -0.00000000       0.10206629      -5.64590157
N       -4.66591181      35.02025069      28.09658881      -0.00000000       0.00000000      -0.10206629      -6.54647390
Al      -4.66591181      35.02025069      29.99415166       0.00000000       0.00000000       0.10206629      -5.64590157
N       -4.66591181      36.81616098      30.59610145       0.00000000      -0.00000000      -0.10206629      -6.54647390
Al      -4.66591181      36.81616098      32.49366430      -0.00000000      -0.00000000       0.10206629      -5.64590157
N       -4.66591181      35.02025069      33.09561409       0.00000000       0.00000000      -0.10206629      -6.54647390
Al      -4.66591181      35.02025069      34.99317694      -0.00000000       0.00000000       0.10206629      -5.64590157
N       -4.66591181      36.81616098      35.59512673      -0.00000000      -0.00000000      -0.10206629      -6.54647390
Al      -4.66591181      36.81616098      37.49268957       0.00000000      -0.00000000       0.10206629      -5.64590157
N       -4.66591181      35.02025069      38.09463937       0.00000000       0.00000000      -0.10206629      -6.54647390
Al      -4.66591181      35.02025069      39.99220221      -0.00000000       0.00000000       0.10206629      -5.64590157
N       -4.66591181      36.81616098      40.59415201      -0.00000000      -0.00000000      -0.10206629      -6.54647390
Al      -4.66591181      36.81616098      42.49171485      -0.00000000      -0.00000000       0.10206629      -5.64590157
N       -4.66591181      35.02025069      43.09366464      -0.00000000       0.00000000      -0.10206629      -6.54647390
Al      -6.22121574      37.71411613      -0.00000000       0.00000000      -0.00000000       0.10206629      -5.64590157
N       -6.22121574      39.51002642       0.60194979       0.00000000       0.00000000      -0.10206629      -6.54647390
Al      -6.22121574      39.51002642       2.49951264       0.00000000       0.00000000       0.10206629      -5.64590157
N       -6.22121574      37.71411613       3.10146243       0.00000000      -0.00000000      -0.10206629      -6.54647390
Al      -6.22121574      37.71411613       4.99902528       0.00000000      -0.00000000       0.10206629      -5.64590157
N       -6.22121574      39.51002642       5.60097507       0.00000000       0.00000000      -0.10206629      -6.54647390
Al      -6.22121574      39.51002642       7.49853791       0.00000000       0.00000000       0.10206629      -5.64590157
N       -6.22121574      37.71411613       8.10048771       0.00000000      -0.00000000      -0.10206629      -6.54647390
Al      -6.22121574      37.71411613       9.99805055       0.00000000      -0.00000000       0.10206629      -5.64590157
N       -6.22121574      39.51002642      10.60000035       0.00000000       0.00000000      -0.10206629      -6.54647390
Al      -6.22121574      39.51002642      12.49756319       0.00000000       0.00000000       0.10206629      -5.64590157
N       -6.22121574      37.71411613      13.09951298       0.00000000      -0.00000000      -0.10206629      -6.54647390
Al      -6.22121574      37.71411613      14.99707583       0.00000000      -0.00000000       0.10206629      -5.64590157
N       -6.22121574      39.51002642      15.59902562       0.00000000       0.00000000      -0.10206629      -6.54647390
Al      -6.22121574      39.51002642      17.49658847       0.00000000       0.00000000       0.10206629      -5.64590157
N       -6.22121574      37.71411613      18.09853826       0.00000000      -0.00000000      -0.10206629      -6.54647390
Al      -6.22121574      37.71411613      19.99610111       0.00000000      -0.00000000       0.10206629      -5.64590157
N       -6.22121574      39.51002642      20.59805090       0.00000000       0.00000000      -0.10206629      -6.54647390
Al      -6.22121574      39.51002642      22.49561374       0.00000000       0.00000000       0.10206629      -5.64590157
N       -6.22121574      37.71411613      23.09756354       0.00000000      -0.00000000      -0.10206629      -6.54647390
Al      -6.22121574      37.71411613      24.99512638       0.00000000      -0.00000000       0.10206629      -5.64590157
N       -6.22121574      39.51002642      25.59707618       0.00000000       0.00000000      -0.10206629      -6.54647390
Al      -6.22121574      39.51002642      27.49463902       0.00000000       0.00000000       0.10206629      -5.64590157
N       -6.22121574      37.71411613      28.09658881       0.00000000      -0.00000000      -0.10206629      -6.54647390
Al      -6.22121574      37.71411613      29.99415166       0.00000000      -0.00000000       0.10206629      -5.64590157
N       -6.22121574      39.51002642      30.59610145       0.00000000       0.00000000      -0.10206629      -6.54647390
Al      -6.22121574      39.51002642      32.49366430       0.00000000       0.00000000       0.10206629      -5.64590157
N       -6.22121574      37.71411613      33.09561409       0.00000000      -0.00000000      -0.10206629      -6.54647390
Al      -6.22121574      37.71411613      34.99317694       0.00000000      -0.00000000       0.10206629      -5.64590157
N       -6.22121574      39.51002642      35.59512673       0.00000000       0.00000000      -0.10206629      -6.54647390
Al      -6.22121574      39.51002642      37.49268957       0.00000000       0.00000000       0.10206629      -5.64590157
N       -6.22121574      37.71411613      38.09463937       0.00000000      -0.00000000      -0.10206629      -6.54647390
Al      -6.22121574      37.71411613      39.99220221       0.00000000      -0.00000000       0.10206629      -5.64590157
N       -6.22121574      39.51002642      40.59415201       0.00000000       0.00000000      -0.10206629      -6.54647390
Al      -6.22121574      39.51002642      42.49171485       0.00000000       0.00000000       0.10206629      -5.64590157
N       -6.22121574      37.71411613      43.09366464       0.00000000      -0.00000000      -0.10206629      -6.54647390
Al      18.66364723      -0.00000000       0.00000000      -0.00000000      -0.00000000       0.10206629      -5.64590157
N       18.66364723       1.79591029       0.60194979      -0.00000000      -0.00000000      -0.10206629      -6.54647390
Al      18.66364723       1.79591029       2.49951264       0.00000000      -0.00000000       0.10206629      -5.64590157
N       18.66364723      -0.00000000       3.10146243      -0.00000000      -0.00000000      -0.10206629      -6.54647390
Al      18.66364723      -0.00000000       4.99902528      -0.00000000      -0.00000000       0.10206629      -5.64590157
N       18.66364723       1.79591029       5.60097507      -0.00000000      -0.00000000      -0.10206629      -6.54647390
Al      18.66364723       1.79591029       7.49853791       0.00000000      -0.00000000       0.10206629      -5.64590157
N       18.66364723      -0.00000000       8.10048771      -0.00000000      -0.00000000      -0.10206629      -6.54647390
Al      18.66364723      -0.00000000       9.99805055      -0.00000000      -0.00000000       0.10206629      -5.64590157
N       18.66364723       1.79591029      10.60000035      -0.00000000      -0.00000000      -0.10206629      -6.54647390
Al      18.66364723       1.79591029      12.49756319       0.00000000      -0.00000000       0.10206629      -5.64590157
N       18.66364723      -0.00000000      13.09951298      -0.00000000      -0.00000000      -0.10206629      -6.54647390
Al      18.66364723      -0.00000000      14.99707583      -0.00000000      -0.00000000       0.10206629      -5.64590157
N       18.66364723       1.79591029      15.59902562      -0.00000000      -0.00000000      -0.10206629      -6.54647390
Al      18.66364723       1.79591029      17.49658847       0.00000000      -0.00000000       0.10206629      -5.64590157
N       18.66364723      -0.00000000      18.09853826      -0.00000000      -0.00000000      -0.10206629      -6.54647390
Al      18.66364723      -0.00000000      19.99610111      -0.00000000      -0.00000000       0.10206629      -5.64590157
N       18.66364723       1.79591029      20.59805090      -0.00000000      -0.00000000      -0.10206629      -6.54647390
Al      18.66364723       1.79591029      22.49561374       0.00000000      -0.00000000       0.10206629      -5.64590157
N       18.66364723      -0.00000000      23.09756354      -0.00000000      -0.00000000      -0.10206629      -6.54647390
Al      18.66364723      -0.00000000      24.99512638      -0.00000000      -0.00000000       0.10206629      -5.64590157
N       18.66364723       1.79591029      25.59707618       0.00000000      -0.00000000      -0.10206629      -6.54647390
Al      18.66364723       1.79591029      27.49463902       0.00000000      -0.00000000       0.10206629      -5.64590157
N       18.66364723      -0.00000000      28.09658881      -0.00000000      -0.00000000      -0.10206629      -6.54647390
Al      18.66364723      -0.00000000      29.99415166      -0.00000000      -0.00000000       0.10206629      -5.64590157
N       18.66364723       1.79591029      30.59610145      -0.00000000      -0.00000000      -0.10206629      -6.54647390
Al      18.66364723       1.79591029      32.49366430       0.00000000      -0.00000000       0.10206629      -5.64590157
N       18.66364723      -0.00000000      33.09561409      -0.00000000      -0.00000000      -0.10206629      -6.54647390
Al      18.66364723      -0.00000000      34.99317694      -0.00000000      -0.00000000       0.10206629      -5.64590157
N       18.66364723       1.79591029      35.59512673       0.00000000      -0.00000000      -0.10206629      -6.54647390
Al      18.66364723       1.79591029      37.49268957      -0.00000000       0.00000000       0.10206629      -5.64590157
N       18.66364723      -0.00000000      38.09463937      -0.00000000      -0.00000000      -0.10206629      -6.54647390
Al      18.66364723      -0.00000000      39.99220221      -0.00000000      -0.00000000       0.10206629      -5.64590157
N       18.66364723       1.79591029      40.59415201      -0.00000000      -0.00000000      -0.10206629      -6.54647390
Al      18.66364723       1.79591029      42.49171485      -0.00000000      -0.00000000       0.10206629      -5.64590157
N       18.66364723      -0.00000000      43.09366464      -0.00000000      -0.00000000      -0.10206629      -6.54647390
Al      17.10834329       2.69386544       0.00000000      -0.00000000      -0.00000000       0.10206629      -5.64590157
N       17.10834329       4.48977573       0.60194979       0.00000000      -0.00000000      -0.10206629      -6.54647390
Al      17.10834329       4.48977573       2.49951264       0.00000000      -0.00000000       0.10206629      -5.64590157
N       17.10834329       2.69386544       3.10146243      -0.00000000       0.00000000      -0.10206629      -6.54647390
Al      17.10834329       2.69386544       4.99902528      -0.00000000      -0.00000000       0.10206629      -5.64590157
N       17.10834329       4.48977573       5.60097507       0.00000000       0.00000000      -0.10206629      -6.54647390
Al      17.10834329       4.48977573       7.49853791       0.00000000      -0.00000000       0.10206629      -5.64590157
N       17.10834329       2.69386544       8.10048771      -0.00000000       0.00000000      -0.10206629      -6.54647390
Al      17.10834329       2.69386544       9.99805055      -0.00000000      -0.00000000       0.10206629      -5.64590157
N       17.10834329       4.48977573      10.60000035       0.00000000      -0.00000000      -0.10206629      -6.54647390
Al      17.10834329       4.48977573      12.49756319       0.00000000      -0.00000000       0.10206629      -5.64590157
N       17.10834329       2.69386544      13.09951298      -0.00000000      -0.00000000      -0.10206629      -6.54647390
Al      17.10834329       2.69386544      14.99707583      -0.00000000      -0.00000000       0.10206629      -5.64590157
N       17.10834329       4.48977573      15.59902562       0.00000000      -0.00000000      -0.10206629      -6.54647390
Al      17.10834329       4.48977573      17.49658847       0.00000000      -0.00000000       0.10206629      -5.64590157
N       17.10834329       2.69386544      18.09853826      -0.00000000       0.00000000      -0.10206629      -6.54647390
Al      17.10834329       2.69386544      19.99610111      -0.00000000       0.00000000       0.10206629      -5.64590157
N       17.10834329       4.48977573      20.59805090       0.00000000      -0.00000000      -0.10206629      -6.54647390
Al      17.10834329       4.48977573      22.49561374       0.00000000       0.00000000       0.10206629      -5.64590157
N       17.10834329       2.69386544      23.09756354      -0.00000000       0.00000000      -0.10206629      -6.54647390
Al      17.10834329       2.69386544      24.99512638      -0.00000000      -0.00000000       0.10206629      -5.64590157
N       17.10834329       4.48977573      25.59707618       0.00000000       0.00000000      -0.10206629      -6.54647390
Al      17.10834329       4.48977573      27.49463902       0.00000000      -0.00000000       0.10206629      -5.64590157
N       17.10834329       2.69386544      28.09658881      -0.00000000       0.00000000      -0.10206629      -6.54647390
Al      17.10834329       2.69386544      29.99415166      -0.00000000       0.00000000       0.10206629      -5.64590157
N       17.10834329       4.48977573      30.59610145       0.00000000      -0.00000000      -0.10206629      -6.54647390
Al      17.10834329       4.48977573      32.49366430       0.00000000      -0.00000000       0.10206629      -5.64590157
N       17.10834329       2.69386544      33.09561409      -0.00000000       0.00000000      -0.10206629      -6.54647390
Al      17.10834329       2.69386544      34.99317694      -0.00000000       0.00000000       0.10206629      -5.64590157
N       17.10834329       4.48977573      35.59512673       0.00000000      -0.00000000      -0.10206629      -6.54647390
Al      17.10834329       4.48977573      37.49268957       0.00000000      -0.00000000       0.10206629      -5.64590157
N       17.10834329       2.69386544      38.09463937       0.00000000       0.00000000      -0.10206629      -6.54647390
Al      17.10834329       2.69386544      39.99220221       0.00000000      -0.00000000       0.10206629      -5.64590157
N       17.10834329       4.48977573      40.59415201       0.00000000      -0.00000000      -0.10206629      -6.54647390
Al      17.10834329       4.48977573      42.49171485       0.00000000      -0.00000000       0.10206629      -5.64590157
N       17.10834329       2.69386544      43.09366464       0.00000000      -0.00000000      -0.10206629      -6.54647390
Al      15.55303936       5.38773088       0.00000000      -0.00000000      -0.00000000       0.10206629      -5.64590157
N       15.55303936       7.18364117       0.60194979       0.00000000      -0.00000000      -0.10206629      -6.54647390
Al      15.55303936       7.18364117       2.49951264       0.00000000       0.00000000       0.10206629      -5.64590157
N       15.55303936       5.38773088       3.10146243      -0.00000000      -0.00000000      -0.10206629      -6.54647390
Al      15.55303936       5.38773088       4.99902528      -0.00000000      -0.00000000       0.10206629      -5.64590157
N       15.55303936       7.18364117       5.60097507       0.00000000      -0.00000000      -0.10206629      -6.54647390
Al      15.55303936       7.18364117       7.49853791       0.00000000       0.00000000       0.10206629      -5.64590157
N       15.55303936       5.38773088       8.10048771      -0.00000000      -0.00000000      -0.10206629      -6.54647390
Al      15.55303936       5.38773088       9.99805055      -0.00000000      -0.00000000       0.10206629      -5.64590157
N       15.55303936       7.18364117      10.60000035       0.00000000       0.00000000      -0.10206629      -6.54647390
Al      15.55303936       7.18364117      12.49756319       0.00000000      -0.00000000       0.10206629      -5.64590157
N       15.55303936       5.38773088      13.09951298      -0.00000000      -0.00000000      -0.10206629      -6.54647390
Al      15.55303936       5.38773088      14.99707583      -0.00000000      -0.00000000       0.10206629      -5.64590157
N       15.55303936       7.18364117      15.59902562       0.00000000      -0.00000000      -0.10206629      -6.54647390
Al      15.55303936       7.18364117      17.49658847       0.00000000       0.00000000       0.10206629      -5.64590157
N       15.55303936       5.38773088      18.09853826      -0.00000000      -0.00000000      -0.10206629      -6.54647390
Al      15.55303936       5.38773088      19.99610111      -0.00000000      -0.00000000       0.10206629      -5.64590157
N       15.55303936       7.18364117      20.59805090      -0.00000000       0.00000000      -0.10206629      -6.54647390
Al      15.55303936       7.18364117      22.49561374       0.00000000       0.00000000       0.10206629      -5.64590157
N       15.55303936       5.38773088      23.09756354      -0.00000000       0.00000000      -0.10206629      -6.54647390
Al      15.55303936       5.38773088      24.99512638      -0.00000000       0.00000000       0.10206629      -5.64590157
N       15.55303936       7.18364117      25.59707618       0.00000000       0.00000000      -0.10206629      -6.54647390
Al      15.55303936       7.18364117      27.49463902       0.00000000       0.00000000       0.10206629      -5.64590157
N       15.55303936       5.38773088      28.09658881      -0.00000000       0.00000000      -0.10206629      -6.54647390
Al      15.55303936       5.38773088      29.99415166      -0.00000000       0.00000000       0.10206629      -5.64590157
N       15.55303936       7.18364117      30.59610145       0.00000000      -0.00000000      -0.10206629      -6.54647390
Al      15.55303936       7.18364117      32.49366430       0.00000000       0.00000000       0.10206629      -5.64590157
N       15.55303936       5.38773088      33.09561409      -0.00000000       0.00000000      -0.10206629      -6.54647390
Al      15.55303936       5.38773088      34.99317694      -0.00000000       0.00000000       0.10206629      -5.64590157
N       15.55303936       7.18364117      35.59512673       0.00000000       0.00000000      -0.10206629      -6.54647390
Al      15.55303936       7.18364117      37.49268957       0.00000000      -0.00000000       0.10206629      -5.64590157
N       15.55303936       5.38773088      38.09463937      -0.00000000       0.00000000      -0.10206629      -6.54647390
Al      15.55303936       5.38773088      39.99220221      -0.00000000      -0.00000000       0.10206629      -5.64590157
N       15.55303936       7.18364117      40.59415201      -0.00000000       0.00000000      -0.10206629      -6.54647390
Al      15.55303936       7.18364117      42.49171485       0.00000000       0.00000000       0.10206629      -5.64590157
N       15.55303936       5.38773088      43.09366464      -0.00000000      -0.00000000      -0.10206629      -6.54647390
Al      13.99773542       8.08159631       0.00000000       0.00000000       0.00000000       0.10206629      -5.64590157
N       13.99773542       9.87750661       0.60194979       0.00000000       0.00000000      -0.10206629      -6.54647390
Al      13.99773542       9.87750661       2.49951264       0.00000000       0.00000000       0.10206629      -5.64590157
N       13.99773542       8.08159631       3.10146243       0.00000000       0.00000000      -0.10206629      -6.54647390
Al      13.99773542       8.08159631       4.99902528       0.00000000       0.00000000       0.10206629      -5.64590157
N       13.99773542       9.87750661       5.60097507       0.00000000       0.00000000      -0.10206629      -6.54647390
Al      13.99773542       9.87750661       7.49853791       0.00000000       0.00000000       0.10206629      -5.64590157
N       13.99773542       8.08159631       8.10048771       0.00000000       0.00000000      -0.10206629      -6.54647390
Al      13.99773542       8.08159631       9.99805055       0.00000000       0.00000000       0.10206629      -5.64590157
N       13.99773542       9.87750661      10.60000035       0.00000000       0.00000000      -0.10206629      -6.54647390
Al      13.99773542       9.87750661      12.49756319       0.00000000       0.00000000       0.10206629      -5.64590157
N       13.99773542       8.08159631      13.09951298       0.00000000       0.00000000      -0.10206629      -6.54647390
Al      13.99773542       8.08159631      14.99707583       0.00000000       0.00000000       0.10206629      -5.64590157
N       13.99773542       9.87750661      15.59902562       0.00000000       0.00000000      -0.10206629      -6.54647390
Al      13.99773542       9.87750661      17.49658847       0.00000000       0.00000000       0.10206629      -5.64590157
N       13.99773542       8.08159631      18.09853826       0.00000000       0.00000000      -0.10206629      -6.54647390
Al      13.99773542       8.08159631      19.99610111       0.00000000       0.00000000       0.10206629      -5.64590157
N       13.99773542       9.87750661      20.59805090       0.00000000       0.00000000      -0.10206629      -6.54647390
Al      13.99773542       9.87750661      22.49561374       0.00000000       0.00000000       0.10206629      -5.64590157
N       13.99773542       8.08159631      23.09756354       0.00000000       0.00000000      -0.10206629      -6.54647390
Al      13.99773542       8.08159631      24.99512638       0.00000000       0.00000000       0.10206629      -5.64590157
N       13.99773542       9.87750661      25.59707618       0.00000000       0.00000000      -0.10206629      -6.54647390
Al      13.99773542       9.87750661      27.49463902       0.00000000       0.00000000       0.10206629      -5.64590157
N       13.99773542       8.08159631      28.09658881       0.00000000       0.00000000      -0.10206629      -6.54647390
Al      13.99773542       8.08159631      29.99415166       0.00000000       0.00000000       0.10206629      -5.64590157
N       13.99773542       9.87750661      30.59610145       0.00000000       0.00000000      -0.10206629      -6.54647390
Al      13.99773542       9.87750661      32.49366430       0.00000000       0.00000000       0.10206629      -5.64590157
N       13.99773542       8.08159631      33.09561409       0.00000000       0.00000000      -0.10206629      -6.54647390
Al      13.99773542       8.08159631      34.99317694       0.00000000       0.00000000       0.10206629      -5.64590157
N       13.99773542       9.87750661      35.59512673       0.00000000       0.00000000      -0.10206629      -6.54647390
Al      13.99773542       9.87750661      37.49268957       0.00000000       0.00000000       0.10206629      -5.64590157
N       13.99773542       8.08159631      38.09463937       0.00000000       0.00000000      -0.10206629      -6.54647390
Al      13.99773542       8.08159631      39.99220221       0.00000000       0.00000000       0.10206629      -5.64590157
N       13.99773542       9.87750661      40.59415201       0.00000000       0.00000000      -0.10206629      -6.54647390
Al      13.99773542       9.87750661      42.49171485       0.00000000       0.00000000       0.10206629      -5.64590157
N       13.99773542       8.08159631      43.09366464       0.00000000       0.00000000      -0.10206629      -6.54647390
Al      12.44243149      10.77546175       0.00000000      -0.00000000       0.00000000       0.10206629      -5.64590157
N       12.44243149      12.57137204       0.60194979      -0.00000000      -0.00000000      -0.10206629      -6.54647390
Al      12.44243149      12.57137204       2.49951264       0.00000000      -0.00000000       0.10206629      -5.64590157
N       12.44243149      10.77546175       3.10146243      -0.00000000       0.00000000      -0.10206629      -6.54647390
Al      12.44243149      10.77546175       4.99902528      -0.00000000       0.00000000       0.10206629      -5.64590157
N       12.44243149      12.57137204       5.60097507      -0.00000000      -0.00000000      -0.10206629      -6.54647390
Al      12.44243149      12.57137204       7.49853791      -0.00000000      -0.00000000       0.10206629      -5.64590157
N       12.44243149      10.77546175       8.10048771      -0.00000000       0.00000000      -0.10206629      -6.54647390
Al      12.44243149      10.77546175       9.99805055      -0.00000000       0.00000000       0.10206629      -5.64590157
N       12.44243149      12.57137204      10.60000035      -0.00000000      -0.00000000      -0.10206629      -6.54647390
Al      12.44243149      12.57137204      12.49756319      -0.00000000      -0.00000000       0.10206629      -5.64590157
N       12.44243149      10.77546175      13.09951298      -0.00000000       0.00000000      -0.10206629      -6.54647390
Al      12.44243149      10.77546175      14.99707583      -0.00000000      -0.00000000       0.10206629      -5.64590157
N       12.44243149      12.57137204      15.59902562      -0.00000000      -0.00000000      -0.10206629      -6.54647390
Al      12.44243149      12.57137204      17.49658847      -0.00000000      -0.00000000       0.10206629      -5.64590157
N       12.44243149      10.77546175      18.09853826      -0.00000000       0.00000000      -0.10206629      -6.54647390
Al      12.44243149      10.77546175      19.99610111      -0.00000000       0.00000000       0.10206629      -5.64590157
N       12.44243149      12.57137204      20.59805090      -0.00000000      -0.00000000      -0.10206629      -6.54647390
Al      12.44243149      12.57137204      22.49561374      -0.00000000      -0.00000000       0.10206629      -5.64590157
N       12.44243149      10.77546175      23.09756354      -0.00000000       0.00000000      -0.10206629      -6.54647390
Al      12.44243149      10.77546175      24.99512638      -0.00000000       0.00000000       0.10206629      -5.64590157
N       12.44243149      12.57137204      25.59707618      -0.00000000       0.00000000      -0.10206629      -6.54647390
Al      12.44243149      12.57137204      27.49463902      -0.00000000      -0.00000000       0.10206629      -5.64590157
N       12.44243149      10.77546175      28.09658881      -0.00000000       0.00000000      -0.10206629      -6.54647390
Al      12.44243149      10.77546175      29.99415166      -0.00000000      -0.00000000       0.10206629      -5.64590157
N       12.44243149      12.57137204      30.59610145      -0.00000000      -0.00000000      -0.10206629      -6.54647390
Al      12.44243149      12.57137204      32.49366430      -0.00000000      -0.00000000       0.10206629      -5.64590157
N       12.44243149      10.77546175      33.09561409      -0.00000000       0.00000000      -0.10206629      -6.54647390
Al      12.44243149      10.77546175      34.99317694      -0.00000000       0.00000000       0.10206629      -5.64590157
N       12.44243149      12.57137204      35.59512673      -0.00000000       0.00000000      -0.10206629      -6.54647390
Al      12.44243149      12.57137204      37.49268957      -0.00000000      -0.00000000       0.10206629      -5.64590157
N       12.44243149      10.77546175      38.09463937      -0.00000000       0.00000000      -0.10206629      -6.54647390
Al      12.44243149      10.77546175      39.99220221      -0.00000000       0.00000000       0.10206629      -5.64590157
N       12.44243149      12.57137204      40.59415201      -0.00000000      -0.00000000      -0.10206629      -6.54647390
Al      12.44243149      12.57137204      42.49171485      -0.00000000      -0.00000000       0.10206629      -5.64590157
N       12.44243149      10.77546175      43.09366464      -0.00000000       0.00000000      -0.10206629      -6.54647390
Al      10.88712755      13.46932719       0.00000000       0.00000000      -0.00000000       0.10206629      -5.64590157
N       10.88712755      15.26523748       0.60194979       0.00000000      -0.00000000      -0.10206629      -6.54647390
Al      10.88712755      15.26523748       2.49951264       0.00000000      -0.00000000       0.10206629      -5.64590157
N       10.88712755      13.46932719       3.10146243      -0.00000000      -0.00000000      -0.10206629      -6.54647390
Al      10.88712755      13.46932719       4.99902528       0.00000000      -0.00000000       0.10206629      -5.64590157
N       10.88712755      15.26523748       5.60097507       0.00000000      -0.00000000      -0.10206629      -6.54647390
Al      10.88712755      15.26523748       7.49853791       0.00000000      -0.00000000       0.10206629      -5.64590157
N       10.88712755      13.46932719       8.10048771      -0.00000000      -0.00000000      -0.10206629      -6.54647390
Al      10.88712755      13.46932719       9.99805055      -0.00000000      -0.00000000       0.10206629      -5.64590157
N       10.88712755      15.26523748      10.60000035       0.00000000      -0.00000000      -0.10206629      -6.54647390
Al      10.88712755      15.26523748      12.49756319       0.00000000       0.00000000       0.10206629      -5.64590157
N       10.88712755      13.46932719      13.09951298       0.00000000      -0.00000000      -0.10206629      -6.54647390
Al      10.88712755      13.46932719      14.99707583      -0.00000000      -0.00000000       0.10206629      -5.64590157
N       10.88712755      15.26523748      15.59902562       0.00000000      -0.00000000      -0.10206629      -6.54647390
Al      10.88712755      15.26523748      17.49658847       0.00000000      -0.00000000       0.10206629      -5.64590157
N       10.88712755      13.46932719      18.09853826       0.00000000      -0.00000000      -0.10206629      -6.54647390
Al      10.88712755      13.46932719      19.99610111      -0.00000000      -0.00000000       0.10206629      -5.64590157
N       10.88712755      15.26523748      20.59805090       0.00000000      -0.00000000      -0.10206629      -6.54647390
Al      10.88712755      15.26523748      22.49561374       0.00000000      -0.00000000       0.10206629      -5.64590157
N       10.88712755      13.46932719      23.09756354      -0.00000000       0.00000000      -0.10206629      -6.54647390
Al      10.88712755      13.46932719      24.99512638       0.00000000      -0.00000000       0.10206629      -5.64590157
N       10.88712755      15.26523748      25.59707618       0.00000000       0.00000000      -0.10206629      -6.54647390
Al      10.88712755      15.26523748      27.49463902       0.00000000      -0.00000000       0.10206629      -5.64590157
N       10.88712755      13.46932719      28.09658881       0.00000000      -0.00000000      -0.10206629      -6.54647390
Al      10.88712755      13.46932719      29.99415166      -0.00000000      -0.00000000       0.10206629      -5.64590157
N       10.88712755      15.26523748      30.59610145       0.00000000      -0.00000000      -0.10206629      -6.54647390
Al      10.88712755      15.26523748      32.49366430       0.00000000       0.00000000       0.10206629      -5.64590157
N       10.88712755      13.46932719      33.09561409       0.00000000      -0.00000000      -0.10206629      -6.54647390
Al      10.88712755      13.46932719      34.99317694      -0.00000000      -0.00000000       0.10206629      -5.64590157
N       10.88712755      15.26523748      35.59512673       0.00000000      -0.00000000      -0.10206629      -6.54647390
Al      10.88712755      15.26523748      37.49268957       0.00000000      -0.00000000       0.10206629      -5.64590157
N       10.88712755      13.46932719      38.09463937       0.00000000      -0.00000000      -0.10206629      -6.54647390
Al      10.88712755      13.46932719      39.99220221      -0.00000000      -0.00000000       0.10206629      -5.64590157
N       10.88712755      15.26523748      40.59415201       0.00000000      -0.00000000      -0.10206629      -6.54647390
Al      10.88712755      15.26523748      42.49171485       0.00000000      -0.00000000       0.10206629      -5.64590157
N       10.88712755      13.46932719      43.09366464       0.00000000      -0.00000000      -0.10206629      -6.54647390
Al       9.33182361      16.16319263      -0.00000000      -0.00000000       0.00000000       0.10206629      -5.64590157
N        9.33182361      17.95910292       0.60194979       0.00000000      -0.00000000      -0.10206629      -6.54647390
Al       9.33182361      17.95910292       2.49951264       0.00000000      -0.00000000       0.10206629      -5.64590157
N        9.33182361      16.16319263       3.10146243      -0.00000000       0.00000000      -0.10206629      -6.54647390
Al       9.33182361      16.16319263       4.99902528      -0.00000000       0.00000000       0.10206629      -5.64590157
N        9.33182361      17.95910292       5.60097507       0.00000000      -0.00000000      -0.10206629      -6.54647390
Al       9.33182361      17.95910292       7.49853791      -0.00000000      -0.00000000       0.10206629      -5.64590157
N        9.33182361      16.16319263       8.10048771      -0.00000000       0.00000000      -0.10206629      -6.54647390
Al       9.33182361      16.16319263       9.99805055      -0.00000000       0.00000000       0.10206629      -5.64590157
N        9.33182361      17.95910292      10.60000035       0.00000000      -0.00000000      -0.10206629      -6.54647390
Al       9.33182361      17.95910292      12.49756319      -0.00000000      -0.00000000       0.10206629      -5.64590157
N        9.33182361      16.16319263      13.09951298      -0.00000000       0.00000000      -0.10206629      -6.54647390
Al       9.33182361      16.16319263      14.99707583      -0.00000000       0.00000000       0.10206629      -5.64590157
N        9.33182361      17.95910292      15.59902562       0.00000000      -0.00000000      -0.10206629      -6.54647390
Al       9.33182361      17.95910292      17.49658847      -0.00000000      -0.00000000       0.10206629      -5.64590157
N        9.33182361      16.16319263      18.09853826      -0.00000000       0.00000000      -0.10206629      -6.54647390
Al       9.33182361      16.16319263      19.99610111      -0.00000000       0.00000000       0.10206629      -5.64590157
N        9.33182361      17.95910292      20.59805090      -0.00000000      -0.00000000      -0.10206629      -6.54647390
Al       9.33182361      17.95910292      22.49561374      -0.00000000      -0.00000000       0.10206629      -5.64590157
N        9.33182361      16.16319263      23.09756354      -0.00000000       0.00000000      -0.10206629      -6.54647390
Al       9.33182361      16.16319263      24.99512638      -0.00000000       0.00000000       0.10206629      -5.64590157
N        9.33182361      17.95910292      25.59707618       0.00000000      -0.00000000      -0.10206629      -6.54647390
Al       9.33182361      17.95910292      27.49463902      -0.00000000      -0.00000000       0.10206629      -5.64590157
N        9.33182361      16.16319263      28.09658881      -0.00000000       0.00000000      -0.10206629      -6.54647390
Al       9.33182361      16.16319263      29.99415166      -0.00000000       0.00000000       0.10206629      -5.64590157
N        9.33182361      17.95910292      30.59610145       0.00000000      -0.00000000      -0.10206629      -6.54647390
Al       9.33182361      17.95910292      32.49366430      -0.00000000      -0.00000000       0.10206629      -5.64590157
N        9.33182361      16.16319263      33.09561409      -0.00000000       0.00000000      -0.10206629      -6.54647390
Al       9.33182361      16.16319263      34.99317694      -0.00000000       0.00000000       0.10206629      -5.64590157
N        9.33182361      17.95910292      35.59512673      -0.00000000      -0.00000000      -0.10206629      -6.54647390
Al       9.33182361      17.95910292      37.49268957      -0.00000000      -0.00000000       0.10206629      -5.64590157
N        9.33182361      16.16319263      38.09463937      -0.00000000       0.00000000      -0.10206629      -6.54647390
Al       9.33182361      16.16319263      39.99220221       0.00000000       0.00000000       0.10206629      -5.64590157
N        9.33182361      17.95910292      40.59415201       0.00000000      -0.00000000      -0.10206629      -6.54647390
Al       9.33182361      17.95910292      42.49171485       0.00000000      -0.00000000       0.10206629      -5.64590157
N        9.33182361      16.16319263      43.09366464       0.00000000       0.00000000      -0.10206629      -6.54647390
Al       7.77651968      18.85705806      -0.00000000      -0.00000000      -0.00000000       0.10206629      -5.64590157
N        7.77651968      20.65296836       0.60194979       0.00000000       0.00000000      -0.10206629      -6.54647390
Al       7.77651968      20.65296836       2.49951264       0.00000000       0.00000000       0.10206629      -5.64590157
N        7.77651968      18.85705806       3.10146243      -0.00000000      -0.00000000      -0.10206629      -6.54647390
Al       7.77651968      18.85705806       4.99902528      -0.00000000      -0.00000000       0.10206629      -5.64590157
N        7.77651968      20.65296836       5.60097507       0.00000000       0.00000000      -0.10206629      -6.54647390
Al       7.77651968      20.65296836       7.49853791       0.00000000       0.00000000       0.10206629      -5.64590157
N        7.77651968      18.85705806       8.10048771      -0.00000000      -0.00000000      -0.10206629      -6.54647390
Al       7.77651968      18.85705806       9.99805055      -0.00000000      -0.00000000       0.10206629      -5.64590157
N        7.77651968      20.65296836      10.60000035       0.00000000       0.00000000      -0.10206629      -6.54647390
Al       7.77651968      20.65296836      12.49756319       0.00000000       0.00000000       0.10206629      -5.64590157
N        7.77651968      18.85705806      13.09951298      -0.00000000      -0.00000000      -0.10206629      -6.54647390
Al       7.77651968      18.85705806      14.99707583      -0.00000000      -0.00000000       0.10206629      -5.64590157
N        7.77651968      20.65296836      15.59902562       0.00000000       0.00000000      -0.10206629      -6.54647390
Al       7.77651968      20.65296836      17.49658847       0.00000000       0.00000000       0.10206629      -5.64590157
N        7.77651968      18.85705806      18.09853826      -0.00000000      -0.00000000      -0.10206629      -6.54647390
Al       7.77651968      18.85705806      19.99610111      -0.00000000      -0.00000000       0.10206629      -5.64590157
N        7.77651968      20.65296836      20.59805090       0.00000000       0.00000000      -0.10206629      -6.54647390
Al       7.77651968      20.65296836      22.49561374       0.00000000       0.00000000       0.10206629      -5.64590157
N        7.77651968      18.85705806      23.09756354      -0.00000000      -0.00000000      -0.10206629      -6.54647390
Al       7.77651968      18.85705806      24.99512638      -0.00000000      -0.00000000       0.10206629      -5.64590157
N        7.77651968      20.65296836      25.59707618       0.00000000       0.00000000      -0.10206629      -6.54647390
Al       7.77651968      20.65296836      27.49463902       0.00000000       0.00000000       0.10206629      -5.64590157
N        7.77651968      18.85705806      28.09658881      -0.00000000      -0.00000000      -0.10206629      -6.54647390
Al       7.77651968      18.85705806      29.99415166      -0.00000000      -0.00000000       0.10206629      -5.64590157
N        7.77651968      20.65296836      30.59610145       0.00000000       0.00000000      -0.10206629      -6.54647390
Al       7.77651968      20.65296836      32.49366430       0.00000000       0.00000000       0.10206629      -5.64590157
N        7.77651968      18.85705806      33.09561409      -0.00000000      -0.00000000      -0.10206629      -6.54647390
Al       7.77651968      18.85705806      34.99317694      -0.00000000      -0.00000000       0.10206629      -5.64590157
N        7.77651968      20.65296836      35.59512673       0.00000000       0.00000000      -0.10206629      -6.54647390
Al       7.77651968      20.65296836      37.49268957       0.00000000       0.00000000       0.10206629      -5.64590157
N        7.77651968      18.85705806      38.09463937      -0.00000000      -0.00000000      -0.10206629      -6.54647390
Al       7.77651968      18.85705806      39.99220221      -0.00000000      -0.00000000       0.10206629      -5.64590157
N        7.77651968      20.65296836      40.59415201       0.00000000       0.00000000      -0.10206629      -6.54647390
Al       7.77651968      20.65296836      42.49171485       0.00000000       0.00000000       0.10206629      -5.64590157
N        7.77651968      18.85705806      43.09366464       0.00000000      -0.00000000      -0.10206629      -6.54647390
Al       6.22121574      21.55092350      -0.00000000      -0.00000000      -0.00000000       0.10206629      -5.64590157
N        6.22121574      23.34683379       0.60194979      -0.00000000       0.00000000      -0.10206629      -6.54647390
Al       6.22121574      23.34683379       2.49951264      -0.00000000       0.00000000       0.10206629      -5.64590157
N        6.22121574      21.55092350       3.10146243      -0.00000000      -0.00000000      -0.10206629      -6.54647390
Al       6.22121574      21.55092350       4.99902528      -0.00000000       0.00000000       0.10206629      -5.64590157
N        6.22121574      23.34683379       5.60097507      -0.00000000       0.00000000      -0.10206629      -6.54647390
Al       6.22121574      23.34683379       7.49853791       0.00000000       0.00000000       0.10206629      -5.64590157
N        6.22121574      21.55092350       8.10048771      -0.00000000      -0.00000000      -0.10206629      -6.54647390
Al       6.22121574      21.55092350       9.99805055      -0.00000000       0.00000000       0.10206629      -5.64590157
N        6.22121574      23.34683379      10.60000035      -0.00000000       0.00000000      -0.10206629      -6.54647390
Al       6.22121574      23.34683379      12.49756319       0.00000000       0.00000000       0.10206629      -5.64590157
N        6.22121574      21.55092350      13.09951298      -0.00000000      -0.00000000      -0.10206629      -6.54647390
Al       6.22121574      21.55092350      14.99707583      -0.00000000       0.00000000       0.10206629      -5.64590157
N        6.22121574      23.34683379      15.59902562      -0.00000000       0.00000000      -0.10206629      -6.54647390
Al       6.22121574      23.34683379      17.49658847      -0.00000000       0.00000000       0.10206629      -5.64590157
N        6.22121574      21.55092350      18.09853826      -0.00000000      -0.00000000      -0.10206629      -6.54647390
Al       6.22121574      21.55092350      19.99610111      -0.00000000      -0.00000000       0.10206629      -5.64590157
N        6.22121574      23.34683379      20.59805090      -0.00000000       0.00000000      -0.10206629      -6.54647390
Al       6.22121574      23.34683379      22.49561374       0.00000000       0.00000000       0.10206629      -5.64590157
N        6.22121574      21.55092350      23.09756354      -0.00000000      -0.00000000      -0.10206629      -6.54647390
Al       6.22121574      21.55092350      24.99512638      -0.00000000      -0.00000000       0.10206629      -5.64590157
N        6.22121574      23.34683379      25.59707618      -0.00000000       0.00000000      -0.10206629      -6.54647390
Al       6.22121574      23.34683379      27.49463902      -0.00000000       0.00000000       0.10206629      -5.64590157
N        6.22121574      21.55092350      28.09658881      -0.00000000      -0.00000000      -0.10206629      -6.54647390
Al       6.22121574      21.55092350      29.99415166      -0.00000000       0.00000000       0.10206629      -5.64590157
N        6.22121574      23.34683379      30.59610145      -0.00000000       0.00000000      -0.10206629      -6.54647390
Al       6.22121574      23.34683379      32.49366430      -0.00000000       0.00000000       0.10206629      -5.64590157
N        6.22121574      21.55092350      33.09561409      -0.00000000       0.00000000      -0.10206629      -6.54647390
Al       6.22121574      21.55092350      34.99317694      -0.00000000      -0.00000000       0.10206629      -5.64590157
N        6.22121574      23.34683379      35.59512673      -0.00000000       0.00000000      -0.10206629      -6.54647390
Al       6.22121574      23.34683379      37.49268957      -0.00000000       0.00000000       0.10206629      -5.64590157
N        6.22121574      21.55092350      38.09463937      -0.00000000      -0.00000000      -0.10206629      -6.54647390
Al       6.22121574      21.55092350      39.99220221      -0.00000000      -0.00000000       0.10206629      -5.64590157
N        6.22121574      23.34683379      40.59415201       0.00000000       0.00000000      -0.10206629      -6.54647390
Al       6.22121574      23.34683379      42.49171485       0.00000000       0.00000000       0.10206629      -5.64590157
N        6.22121574      21.55092350      43.09366464      -0.00000000       0.00000000      -0.10206629      -6.54647390
Al       4.66591181      24.24478894      -0.00000000       0.00000000      -0.00000000       0.10206629      -5.64590157
N        4.66591181      26.04069923       0.60194979       0.00000000      -0.00000000      -0.10206629      -6.54647390
Al       4.66591181      26.04069923       2.49951264       0.00000000      -0.00000000       0.10206629      -5.64590157
N        4.66591181      24.24478894       3.10146243       0.00000000      -0.00000000      -0.10206629      -6.54647390
Al       4.66591181      24.24478894       4.99902528       0.00000000      -0.00000000       0.10206629      -5.64590157
N        4.66591181      26.04069923       5.60097507       0.00000000      -0.00000000      -0.10206629      -6.54647390
Al       4.66591181      26.04069923       7.49853791       0.00000000      -0.00000000       0.10206629      -5.64590157
N        4.66591181      24.24478894       8.10048771       0.00000000      -0.00000000      -0.10206629      -6.54647390
Al       4.66591181      24.24478894       9.99805055       0.00000000      -0.00000000       0.10206629      -5.64590157
N        4.66591181      26.04069923      10.60000035       0.00000000       0.00000000      -0.10206629      -6.54647390
Al       4.66591181      26.04069923      12.49756319       0.00000000      -0.00000000       0.10206629      -5.64590157
N        4.66591181      24.24478894      13.09951298      -0.00000000      -0.00000000      -0.10206629      -6.54647390
Al       4.66591181      24.24478894      14.99707583       0.00000000      -0.00000000       0.10206629      -5.64590157
N        4.66591181      26.04069923      15.59902562       0.00000000       0.00000000      -0.10206629      -6.54647390
Al       4.66591181      26.04069923      17.49658847       0.00000000      -0.00000000       0.10206629      -5.64590157
N        4.66591181      24.24478894      18.09853826      -0.00000000      -0.00000000      -0.10206629      -6.54647390
Al       4.66591181      24.24478894      19.99610111       0.00000000      -0.00000000       0.10206629      -5.64590157
N        4.66591181      26.04069923      20.59805090       0.00000000      -0.00000000      -0.10206629      -6.54647390
Al       4.66591181      26.04069923      22.49561374       0.00000000      -0.00000000       0.10206629      -5.64590157
N        4.66591181      24.24478894      23.09756354       0.00000000      -0.00000000      -0.10206629      -6.54647390
Al       4.66591181      24.24478894      24.99512638       0.00000000      -0.00000000       0.10206629      -5.64590157
N        4.66591181      26.04069923      25.59707618       0.00000000      -0.00000000      -0.10206629      -6.54647390
Al       4.66591181      26.04069923      27.49463902       0.00000000      -0.00000000       0.10206629      -5.64590157
N        4.66591181      24.24478894      28.09658881       0.00000000      -0.00000000      -0.10206629      -6.54647390
Al       4.66591181      24.24478894      29.99415166       0.00000000      -0.00000000       0.10206629      -5.64590157
N        4.66591181      26.04069923      30.59610145       0.00000000      -0.00000000      -0.10206629      -6.54647390
Al       4.66591181      26.04069923      32.49366430       0.00000000      -0.00000000       0.10206629      -5.64590157
N        4.66591181      24.24478894      33.09561409       0.00000000      -0.00000000      -0.10206629      -6.54647390
Al       4.66591181      24.24478894      34.99317694       0.00000000      -0.00000000       0.10206629      -5.64590157
N        4.66591181      26.04069923      35.59512673       0.00000000      -0.00000000      -0.10206629      -6.54647390
Al       4.66591181      26.04069923      37.49268957       0.00000000      -0.00000000       0.10206629      -5.64590157
N        4.66591181      24.24478894      38.09463937       0.00000000      -0.00000000      -0.10206629      -6.54647390
Al       4.66591181      24.24478894      39.99220221      -0.00000000      -0.00000000       0.10206629      -5.64590157
N        4.66591181      26.04069923      40.59415201       0.00000000      -0.00000000      -0.10206629      -6.54647390
Al       4.66591181      26.04069923      42.49171485       0.00000000      -0.00000000       0.10206629      -5.64590157
N        4.66591181      24.24478894      43.09366464      -0.00000000      -0.00000000      -0.10206629      -6.54647390
Al       3.11060787      26.93865438      -0.00000000      -0.00000000      -0.00000000       0.10206629      -5.64590157
N        3.11060787      28.73456467       0.60194979      -0.00000000       0.00000000      -0.10206629      -6.54647390
Al       3.11060787      28.73456467       2.49951264      -0.00000000       0.00000000       0.10206629      -5.64590157
N        3.11060787      26.93865438       3.10146243      -0.00000000       0.00000000      -0.10206629      -6.54647390
Al       3.11060787      26.93865438       4.99902528      -0.00000000      -0.00000000       0.10206629      -5.64590157
N        3.11060787      28.73456467       5.60097507      -0.00000000       0.00000000      -0.10206629      -6.54647390
Al       3.11060787      28.73456467       7.49853791      -0.00000000       0.00000000       0.10206629      -5.64590157
N        3.11060787      26.93865438       8.10048771      -0.00000000       0.00000000      -0.10206629      -6.54647390
Al       3.11060787      26.93865438       9.99805055      -0.00000000      -0.00000000       0.10206629      -5.64590157
N        3.11060787      28.73456467      10.60000035      -0.00000000       0.00000000      -0.10206629      -6.54647390
Al       3.11060787      28.73456467      12.49756319      -0.00000000       0.00000000       0.10206629      -5.64590157
N        3.11060787      26.93865438      13.09951298      -0.00000000       0.00000000      -0.10206629      -6.54647390
Al       3.11060787      26.93865438      14.99707583      -0.00000000      -0.00000000       0.10206629      -5.64590157
N        3.11060787      28.73456467      15.59902562      -0.00000000       0.00000000      -0.10206629      -6.54647390
Al       3.11060787      28.73456467      17.49658847      -0.00000000       0.00000000       0.10206629      -5.64590157
N        3.11060787      26.93865438      18.09853826      -0.00000000       0.00000000      -0.10206629      -6.54647390
Al       3.11060787      26.93865438      19.99610111      -0.00000000      -0.00000000       0.10206629      -5.64590157
N        3.11060787      28.73456467      20.59805090      -0.00000000       0.00000000      -0.10206629      -6.54647390
Al       3.11060787      28.73456467      22.49561374      -0.00000000       0.00000000       0.10206629      -5.64590157
N        3.11060787      26.93865438      23.09756354      -0.00000000      -0.00000000      -0.10206629      -6.54647390
Al       3.11060787      26.93865438      24.99512638      -0.00000000      -0.00000000       0.10206629      -5.64590157
N        3.11060787      28.73456467      25.59707618      -0.00000000       0.00000000      -0.10206629      -6.54647390
Al       3.11060787      28.73456467      27.49463902      -0.00000000       0.00000000       0.10206629      -5.64590157
N        3.11060787      26.93865438      28.09658881      -0.00000000      -0.00000000      -0.10206629      -6.54647390
Al       3.11060787      26.93865438      29.99415166      -0.00000000      -0.00000000       0.10206629      -5.64590157
N        3.11060787      28.73456467      30.59610145      -0.00000000       0.00000000      -0.10206629      -6.54647390
Al       3.11060787      28.73456467      32.49366430      -0.00000000       0.00000000       0.10206629      -5.64590157
N        3.11060787      26.93865438      33.09561409      -0.00000000      -0.00000000      -0.10206629      -6.54647390
Al       3.11060787      26.93865438      34.99317694      -0.00000000      -0.00000000       0.10206629      -5.64590157
N        3.11060787      28.73456467      35.59512673      -0.00000000       0.00000000      -0.10206629      -6.54647390
Al       3.11060787      28.73456467      37.49268957      -0.00000000       0.00000000       0.10206629      -5.64590157
N        3.11060787      26.93865438      38.09463937      -0.00000000      -0.00000000      -0.10206629      -6.54647390
Al       3.11060787      26.93865438      39.99220221      -0.00000000      -0.00000000       0.10206629      -5.64590157
N        3.11060787      28.73456467      40.59415201      -0.00000000       0.00000000      -0.10206629      -6.54647390
Al       3.11060787      28.73456467      42.49171485      -0.00000000       0.00000000       0.10206629      -5.64590157
N        3.11060787      26.93865438      43.09366464      -0.00000000       0.00000000      -0.10206629      -6.54647390
Al       1.55530394      29.63251982      -0.00000000       0.00000000       0.00000000       0.10206629      -5.64590157
N        1.55530394      31.42843011       0.60194979       0.00000000      -0.00000000      -0.10206629      -6.54647390
Al       1.55530394      31.42843011       2.49951264       0.00000000      -0.00000000       0.10206629      -5.64590157
N        1.55530394      29.63251982       3.10146243      -0.00000000       0.00000000      -0.10206629      -6.54647390
Al       1.55530394      29.63251982       4.99902528      -0.00000000       0.00000000       0.10206629      -5.64590157
N        1.55530394      31.42843011       5.60097507      -0.00000000      -0.00000000      -0.10206629      -6.54647390
Al       1.55530394      31.42843011       7.49853791       0.00000000      -0.00000000       0.10206629      -5.64590157
N        1.55530394      29.63251982       8.10048771      -0.00000000      -0.00000000      -0.10206629      -6.54647390
Al       1.55530394      29.63251982       9.99805055      -0.00000000       0.00000000       0.10206629      -5.64590157
N        1.55530394      31.42843011      10.60000035      -0.00000000      -0.00000000      -0.10206629      -6.54647390
Al       1.55530394      31.42843011      12.49756319       0.00000000      -0.00000000       0.10206629      -5.64590157
N        1.55530394      29.63251982      13.09951298      -0.00000000      -0.00000000      -0.10206629      -6.54647390
Al       1.55530394      29.63251982      14.99707583      -0.00000000       0.00000000       0.10206629      -5.64590157
N        1.55530394      31.42843011      15.59902562       0.00000000      -0.00000000      -0.10206629      -6.54647390
Al       1.55530394      31.42843011      17.49658847       0.00000000      -0.00000000       0.10206629      -5.64590157
N        1.55530394      29.63251982      18.09853826      -0.00000000      -0.00000000      -0.10206629      -6.54647390
Al       1.55530394      29.63251982      19.99610111      -0.00000000       0.00000000       0.10206629      -5.64590157
N        1.55530394      31.42843011      20.59805090      -0.00000000      -0.00000000      -0.10206629      -6.54647390
Al       1.55530394      31.42843011      22.49561374       0.00000000      -0.00000000       0.10206629      -5.64590157
N        1.55530394      29.63251982      23.09756354      -0.00000000      -0.00000000      -0.10206629      -6.54647390
Al       1.55530394      29.63251982      24.99512638       0.00000000       0.00000000       0.10206629      -5.64590157
N        1.55530394      31.42843011      25.59707618       0.00000000      -0.00000000      -0.10206629      -6.54647390
Al       1.55530394      31.42843011      27.49463902       0.00000000      -0.00000000       0.10206629      -5.64590157
N        1.55530394      29.63251982      28.09658881      -0.00000000       0.00000000      -0.10206629      -6.54647390
Al       1.55530394      29.63251982      29.99415166       0.00000000       0.00000000       0.10206629      -5.64590157
N        1.55530394      31.42843011      30.59610145      -0.00000000      -0.00000000      -0.10206629      -6.54647390
Al       1.55530394      31.42843011      32.49366430       0.00000000      -0.00000000       0.10206629      -5.64590157
N        1.55530394      29.63251982      33.09561409      -0.00000000      -0.00000000      -0.10206629      -6.54647390
Al       1.55530394      29.63251982      34.99317694      -0.00000000       0.00000000       0.10206629      -5.64590157
N        1.55530394      31.42843011      35.59512673       0.00000000      -0.00000000      -0.10206629      -6.54647390
Al       1.55530394      31.42843011      37.49268957       0.00000000      -0.00000000       0.10206629      -5.64590157
N        1.55530394      29.63251982      38.09463937       0.00000000       0.00000000      -0.10206629      -6.54647390
Al       1.55530394      29.63251982      39.99220221       0.00000000       0.00000000       0.10206629      -5.64590157
N        1.55530394      31.42843011      40.59415201       0.00000000      -0.00000000      -0.10206629      -6.54647390
Al       1.55530394      31.42843011      42.49171485       0.00000000      -0.00000000       0.10206629      -5.64590157
N        1.55530394      29.63251982      43.09366464       0.00000000       0.00000000      -0.10206629      -6.54647390
Al       0.00000000      32.32638525      -0.00000000       0.00000000       0.00000000       0.10206629      -5.64590157
N        0.00000000      34.12229555       0.60194979       0.00000000      -0.00000000      -0.10206629      -6.54647390
Al       0.00000000      34.12229555       2.49951264       0.00000000      -0.00000000       0.10206629      -5.64590157
N        0.00000000      32.32638525       3.10146243       0.00000000       0.00000000      -0.10206629      -6.54647390
Al       0.00000000      32.32638525       4.99902528       0.00000000       0.00000000       0.10206629      -5.64590157
N        0.00000000      34.12229555       5.60097507       0.00000000      -0.00000000      -0.10206629      -6.54647390
Al       0.00000000      34.12229555       7.49853791       0.00000000      -0.00000000       0.10206629      -5.64590157
N        0.00000000      32.32638525       8.10048771       0.00000000       0.00000000      -0.10206629      -6.54647390
Al       0.00000000      32.32638525       9.99805055       0.00000000       0.00000000       0.10206629      -5.64590157
N        0.00000000      34.12229555      10.60000035       0.00000000      -0.00000000      -0.10206629      -6.54647390
Al       0.00000000      34.12229555      12.49756319       0.00000000       0.00000000       0.10206629      -5.64590157
N        0.00000000      32.32638525      13.09951298       0.00000000       0.00000000      -0.10206629      -6.54647390
Al       0.00000000      32.32638525      14.99707583       0.00000000       0.00000000       0.10206629      -5.64590157
N        0.00000000      34.12229555      15.59902562       0.00000000      -0.00000000      -0.10206629      -6.54647390
Al       0.00000000      34.12229555      17.49658847       0.00000000       0.00000000       0.10206629      -5.64590157
N        0.00000000      32.32638525      18.09853826       0.00000000       0.00000000      -0.10206629      -6.54647390
Al       0.00000000      32.32638525      19.99610111       0.00000000       0.00000000       0.10206629      -5.64590157
N        0.00000000      34.12229555      20.59805090       0.00000000      -0.00000000      -0.10206629      -6.54647390
Al       0.00000000      34.12229555      22.49561374       0.00000000       0.00000000       0.10206629      -5.64590157
N        0.00000000      32.32638525      23.09756354       0.00000000       0.00000000      -0.10206629      -6.54647390
Al       0.00000000      32.32638525      24.99512638       0.00000000       0.00000000       0.10206629      -5.64590157
N        0.00000000      34.12229555      25.59707618       0.00000000      -0.00000000      -0.10206629      -6.54647390
Al       0.00000000      34.12229555      27.49463902       0.00000000       0.00000000       0.10206629      -5.64590157
N        0.00000000      32.32638525      28.09658881       0.00000000       0.00000000      -0.10206629      -6.54647390
Al       0.00000000      32.32638525      29.99415166       0.00000000       0.00000000       0.10206629      -5.64590157
N        0.00000000      34.12229555      30.59610145       0.00000000      -0.00000000      -0.10206629      -6.54647390
Al       0.00000000      34.12229555      32.49366430       0.00000000       0.00000000       0.10206629      -5.64590157
N        0.00000000      32.32638525      33.09561409       0.00000000       0.00000000      -0.10206629      -6.54647390
Al       0.00000000      32.32638525      34.99317694       0.00000000       0.00000000       0.10206629      -5.64590157
N        0.00000000      34.12229555      35.59512673       0.00000000      -0.00000000      -0.10206629      -6.54647390
Al       0.00000000      34.12229555      37.49268957       0.00000000       0.00000000       0.10206629      -5.64590157
N        0.00000000      32.32638525      38.09463937      -0.00000000       0.00000000      -0.10206629      -6.54647390
Al       0.00000000      32.32638525      39.99220221      -0.00000000       0.00000000       0.10206629      -5.64590157
N        0.00000000      34.12229555      40.59415201       0.00000000      -0.00000000      -0.10206629      -6.54647390
Al       0.00000000      34.12229555      42.49171485       0.00000000       0.00000000       0.10206629      -5.64590157
N        0.00000000      32.32638525      43.09366464      -0.00000000       0.00000000      -0.10206629      -6.54647390
Al      -1.55530394      35.02025069      -0.00000000      -0.00000000       0.00000000       0.10206629      -5.64590157
N       -1.55530394      36.81616098       0.60194979       0.00000000      -0.00000000      -0.10206629      -6.54647390
Al      -1.55530394      36.81616098       2.49951264       0.00000000      -0.00000000       0.10206629      -5.64590157
N       -1.55530394      35.02025069       3.10146243      -0.00000000       0.00000000      -0.10206629      -6.54647390
Al      -1.55530394      35.02025069       4.99902528      -0.00000000       0.00000000       0.10206629      -5.64590157
N       -1.55530394      36.81616098       5.60097507       0.00000000      -0.00000000      -0.10206629      -6.54647390
Al      -1.55530394      36.81616098       7.49853791       0.00000000      -0.00000000       0.10206629      -5.64590157
N       -1.55530394      35.02025069       8.10048771      -0.00000000       0.00000000      -0.10206629      -6.54647390
Al      -1.55530394      35.02025069       9.99805055      -0.00000000       0.00000000       0.10206629      -5.64590157
N       -1.55530394      36.81616098      10.60000035       0.00000000      -0.00000000      -0.10206629      -6.54647390
Al      -1.55530394      36.81616098      12.49756319       0.00000000      -0.00000000       0.10206629      -5.64590157
N       -1.55530394      35.02025069      13.09951298      -0.00000000      -0.00000000      -0.10206629      -6.54647390
Al      -1.55530394      35.02025069      14.99707583      -0.00000000       0.00000000       0.10206629      -5.64590157
N       -1.55530394      36.81616098      15.59902562       0.00000000      -0.00000000      -0.10206629      -6.54647390
Al      -1.55530394      36.81616098      17.49658847       0.00000000      -0.00000000       0.10206629      -5.64590157
N       -1.55530394      35.02025069      18.09853826      -0.00000000       0.00000000      -0.10206629      -6.54647390
Al      -1.55530394      35.02025069      19.99610111      -0.00000000       0.00000000       0.10206629      -5.64590157
N       -1.55530394      36.81616098      20.59805090       0.00000000      -0.00000000      -0.10206629      -6.54647390
Al      -1.55530394      36.81616098      22.49561374       0.00000000      -0.00000000       0.10206629      -5.64590157
N       -1.55530394      35.02025069      23.09756354      -0.00000000       0.00000000      -0.10206629      -6.54647390
Al      -1.55530394      35.02025069      24.99512638      -0.00000000       0.00000000       0.10206629      -5.64590157
N       -1.55530394      36.81616098      25.59707618       0.00000000      -0.00000000      -0.10206629      -6.54647390
Al      -1.55530394      36.81616098      27.49463902       0.00000000      -0.00000000       0.10206629      -5.64590157
N       -1.55530394      35.02025069      28.09658881      -0.00000000       0.00000000      -0.10206629      -6.54647390
Al      -1.55530394      35.02025069      29.99415166      -0.00000000       0.00000000       0.10206629      -5.64590157
N       -1.55530394      36.81616098      30.59610145       0.00000000      -0.00000000      -0.10206629      -6.54647390
Al      -1.55530394      36.81616098      32.49366430       0.00000000      -0.00000000       0.10206629      -5.64590157
N       -1.55530394      35.02025069      33.09561409      -0.00000000      -0.00000000      -0.10206629      -6.54647390
Al      -1.55530394      35.02025069      34.99317694      -0.00000000      -0.00000000       0.10206629      -5.64590157
N       -1.55530394      36.81616098      35.59512673       0.00000000      -0.00000000      -0.10206629      -6.54647390
Al      -1.55530394      36.81616098      37.49268957       0.00000000      -0.00000000       0.10206629      -5.64590157
N       -1.55530394      35.02025069      38.09463937      -0.00000000      -0.00000000      -0.10206629      -6.54647390
Al      -1.55530394      35.02025069      39.99220221      -0.00000000       0.00000000       0.10206629      -5.64590157
N       -1.55530394      36.81616098      40.59415201       0.00000000      -0.00000000      -0.10206629      -6.54647390
Al      -1.55530394      36.81616098      42.49171485       0.00000000      -0.00000000       0.10206629      -5.64590157
N       -1.55530394      35.02025069      43.09366464      -0.00000000       0.00000000      -0.10206629      -6.54647390
Al      -3.11060787      37.71411613      -0.00000000      -0.00000000      -0.00000000       0.10206629      -5.64590157
N       -3.11060787      39.51002642       0.60194979       0.00000000       0.00000000      -0.10206629      -6.54647390
Al      -3.11060787      39.51002642       2.49951264       0.00000000       0.00000000       0.10206629      -5.64590157
N       -3.11060787      37.71411613       3.10146243      -0.00000000      -0.00000000      -0.10206629      -6.54647390
Al      -3.11060787      37.71411613       4.99902528      -0.00000000      -0.00000000       0.10206629      -5.64590157
N       -3.11060787      39.51002642       5.60097507       0.00000000       0.00000000      -0.10206629      -6.54647390
Al      -3.11060787      39.51002642       7.49853791       0.00000000       0.00000000       0.10206629      -5.64590157
N       -3.11060787      37.71411613       8.10048771      -0.00000000      -0.00000000      -0.10206629      -6.54647390
Al      -3.11060787      37.71411613       9.99805055      -0.00000000      -0.00000000       0.10206629      -5.64590157
N       -3.11060787      39.51002642      10.60000035       0.00000000       0.00000000      -0.10206629      -6.54647390
Al      -3.11060787      39.51002642      12.49756319       0.00000000       0.00000000       0.10206629      -5.64590157
N       -3.11060787      37.71411613      13.09951298      -0.00000000      -0.00000000      -0.10206629      -6.54647390
Al      -3.11060787      37.71411613      14.99707583      -0.00000000      -0.00000000       0.10206629      -5.64590157
N       -3.11060787      39.51002642      15.59902562       0.00000000       0.00000000      -0.10206629      -6.54647390
Al      -3.11060787      39.51002642      17.49658847       0.00000000       0.00000000       0.10206629      -5.64590157
N       -3.11060787      37.71411613      18.09853826      -0.00000000      -0.00000000      -0.10206629      -6.54647390
Al      -3.11060787      37.71411613      19.99610111      -0.00000000      -0.00000000       0.10206629      -5.64590157
N       -3.11060787      39.51002642      20.59805090       0.00000000       0.00000000      -0.10206629      -6.54647390
Al      -3.11060787      39.51002642      22.49561374       0.00000000       0.00000000       0.10206629      -5.64590157
N       -3.11060787      37.71411613      23.09756354      -0.00000000      -0.00000000      -0.10206629      -6.54647390
Al      -3.11060787      37.71411613      24.99512638      -0.00000000      -0.00000000       0.10206629      -5.64590157
N       -3.11060787      39.51002642      25.59707618       0.00000000       0.00000000      -0.10206629      -6.54647390
Al      -3.11060787      39.51002642      27.49463902       0.00000000       0.00000000       0.10206629      -5.64590157
N       -3.11060787      37.71411613      28.09658881      -0.00000000      -0.00000000      -0.10206629      -6.54647390
Al      -3.11060787      37.71411613      29.99415166      -0.00000000      -0.00000000       0.10206629      -5.64590157
N       -3.11060787      39.51002642      30.59610145       0.00000000       0.00000000      -0.10206629      -6.54647390
Al      -3.11060787      39.51002642      32.49366430       0.00000000       0.00000000       0.10206629      -5.64590157
N       -3.11060787      37.71411613      33.09561409      -0.00000000      -0.00000000      -0.10206629      -6.54647390
Al      -3.11060787      37.71411613      34.99317694      -0.00000000      -0.00000000       0.10206629      -5.64590157
N       -3.11060787      39.51002642      35.59512673       0.00000000       0.00000000      -0.10206629      -6.54647390
Al      -3.11060787      39.51002642      37.49268957       0.00000000       0.00000000       0.10206629      -5.64590157
N       -3.11060787      37.71411613      38.09463937      -0.00000000      -0.00000000      -0.10206629      -6.54647390
Al      -3.11060787      37.71411613      39.99220221       0.00000000      -0.00000000       0.10206629      -5.64590157
N       -3.11060787      39.51002642      40.59415201       0.00000000       0.00000000      -0.10206629      -6.54647390
Al      -3.11060787      39.51002642      42.49171485       0.00000000       0.00000000       0.10206629      -5.64590157
N       -3.11060787      37.71411613      43.09366464       0.00000000      -0.00000000      -0.10206629      -6.54647390
Al      21.77425510      -0.00000000       0.00000000      -0.00000000      -0.00000000       0.10206629      -5.64590157
N       21.77425510       1.79591029       0.60194979      -0.00000000      -0.00000000      -0.10206629      -6.54647390
Al      21.77425510       1.79591029       2.49951264      -0.00000000       0.00000000       0.10206629      -5.64590157
N       21.77425510      -0.00000000       3.10146243      -0.00000000      -0.00000000      -0.10206629      -6.54647390
Al      21.77425510      -0.00000000       4.99902528      -0.00000000      -0.00000000       0.10206629      -5.64590157
N       21.77425510       1.79591029       5.60097507      -0.00000000       0.00000000      -0.10206629      -6.54647390
Al      21.77425510       1.79591029       7.49853791      -0.00000000       0.00000000       0.10206629      -5.64590157
N       21.77425510      -0.00000000       8.10048771      -0.00000000      -0.00000000      -0.10206629      -6.54647390
Al      21.77425510      -0.00000000       9.99805055      -0.00000000      -0.00000000       0.10206629      -5.64590157
N       21.77425510       1.79591029      10.60000035      -0.00000000       0.00000000      -0.10206629      -6.54647390
Al      21.77425510       1.79591029      12.49756319      -0.00000000       0.00000000       0.10206629      -5.64590157
N       21.77425510      -0.00000000      13.09951298      -0.00000000      -0.00000000      -0.10206629      -6.54647390
Al      21.77425510      -0.00000000      14.99707583      -0.00000000      -0.00000000       0.10206629      -5.64590157
N       21.77425510       1.79591029      15.59902562      -0.00000000       0.00000000      -0.10206629      -6.54647390
Al      21.77425510       1.79591029      17.49658847      -0.00000000       0.00000000       0.10206629      -5.64590157
N       21.77425510      -0.00000000      18.09853826      -0.00000000      -0.00000000      -0.10206629      -6.54647390
Al      21.77425510      -0.00000000      19.99610111      -0.00000000      -0.00000000       0.10206629      -5.64590157
N       21.77425510       1.79591029      20.59805090      -0.00000000       0.00000000      -0.10206629      -6.54647390
Al      21.77425510       1.79591029      22.49561374      -0.00000000       0.00000000       0.10206629      -5.64590157
N       21.77425510      -0.00000000      23.09756354      -0.00000000      -0.00000000      -0.10206629      -6.54647390
Al      21.77425510      -0.00000000      24.99512638      -0.00000000      -0.00000000       0.10206629      -5.64590157
N       21.77425510       1.79591029      25.59707618      -0.00000000      -0.00000000      -0.10206629      -6.54647390
Al      21.77425510       1.79591029      27.49463902      -0.00000000       0.00000000       0.10206629      -5.64590157
N       21.77425510      -0.00000000      28.09658881      -0.00000000      -0.00000000      -0.10206629      -6.54647390
Al      21.77425510      -0.00000000      29.99415166      -0.00000000      -0.00000000       0.10206629      -5.64590157
N       21.77425510       1.79591029      30.59610145      -0.00000000      -0.00000000      -0.10206629      -6.54647390
Al      21.77425510       1.79591029      32.49366430      -0.00000000       0.00000000       0.10206629      -5.64590157
N       21.77425510      -0.00000000      33.09561409      -0.00000000      -0.00000000      -0.10206629      -6.54647390
Al      21.77425510      -0.00000000      34.99317694      -0.00000000      -0.00000000       0.10206629      -5.64590157
N       21.77425510       1.79591029      35.59512673      -0.00000000       0.00000000      -0.10206629      -6.54647390
Al      21.77425510       1.79591029      37.49268957      -0.00000000       0.00000000       0.10206629      -5.64590157
N       21.77425510      -0.00000000      38.09463937      -0.00000000      -0.00000000      -0.10206629      -6.54647390
Al      21.77425510      -0.00000000      39.99220221      -0.00000000      -0.00000000       0.10206629      -5.64590157
N       21.77425510       1.79591029      40.59415201      -0.00000000       0.00000000      -0.10206629      -6.54647390
Al      21.77425510       1.79591029      42.49171485      -0.00000000      -0.00000000       0.10206629      -5.64590157
N       21.77425510      -0.00000000      43.09366464      -0.00000000      -0.00000000      -0.10206629      -6.54647390
Al      20.21895116       2.69386544       0.00000000       0.00000000      -0.00000000       0.10206629      -5.64590157
N       20.21895116       4.48977573       0.60194979       0.00000000       0.00000000      -0.10206629      -6.54647390
Al      20.21895116       4.48977573       2.49951264       0.00000000       0.00000000       0.10206629      -5.64590157
N       20.21895116       2.69386544       3.10146243       0.00000000      -0.00000000      -0.10206629      -6.54647390
Al      20.21895116       2.69386544       4.99902528       0.00000000      -0.00000000       0.10206629      -5.64590157
N       20.21895116       4.48977573       5.60097507       0.00000000       0.00000000      -0.10206629      -6.54647390
Al      20.21895116       4.48977573       7.49853791       0.00000000       0.00000000       0.10206629      -5.64590157
N       20.21895116       2.69386544       8.10048771       0.00000000      -0.00000000      -0.10206629      -6.54647390
Al      20.21895116       2.69386544       9.99805055       0.00000000      -0.00000000       0.10206629      -5.64590157
N       20.21895116       4.48977573      10.60000035       0.00000000      -0.00000000      -0.10206629      -6.54647390
Al      20.21895116       4.48977573      12.49756319       0.00000000       0.00000000       0.10206629      -5.64590157
N       20.21895116       2.69386544      13.09951298       0.00000000      -0.00000000      -0.10206629      -6.54647390
Al      20.21895116       2.69386544      14.99707583       0.00000000      -0.00000000       0.10206629      -5.64590157
N       20.21895116       4.48977573      15.59902562       0.00000000       0.00000000      -0.10206629      -6.54647390
Al      20.21895116       4.48977573      17.49658847       0.00000000       0.00000000       0.10206629      -5.64590157
N       20.21895116       2.69386544      18.09853826       0.00000000      -0.00000000      -0.10206629      -6.54647390
Al      20.21895116       2.69386544      19.99610111       0.00000000      -0.00000000       0.10206629      -5.64590157
N       20.21895116       4.48977573      20.59805090       0.00000000       0.00000000      -0.10206629      -6.54647390
Al      20.21895116       4.48977573      22.49561374       0.00000000       0.00000000       0.10206629      -5.64590157
N       20.21895116       2.69386544      23.09756354       0.00000000      -0.00000000      -0.10206629      -6.54647390
Al      20.21895116       2.69386544      24.99512638       0.00000000      -0.00000000       0.10206629      -5.64590157
N       20.21895116       4.48977573      25.59707618       0.00000000       0.00000000      -0.10206629      -6.54647390
Al      20.21895116       4.48977573      27.49463902       0.00000000      -0.00000000       0.10206629      -5.64590157
N       20.21895116       2.69386544      28.09658881       0.00000000      -0.00000000      -0.10206629      -6.54647390
Al      20.21895116       2.69386544      29.99415166       0.00000000       0.00000000       0.10206629      -5.64590157
N       20.21895116       4.48977573      30.59610145       0.00000000      -0.00000000      -0.10206629      -6.54647390
Al      20.21895116       4.48977573      32.49366430       0.00000000       0.00000000       0.10206629      -5.64590157
N       20.21895116       2.69386544      33.09561409       0.00000000      -0.00000000      -0.10206629      -6.54647390
Al      20.21895116       2.69386544      34.99317694       0.00000000       0.00000000       0.10206629      -5.64590157
N       20.21895116       4.48977573      35.59512673       0.00000000      -0.00000000      -0.10206629      -6.54647390
Al      20.21895116       4.48977573      37.49268957       0.00000000       0.00000000       0.10206629      -5.64590157
N       20.21895116       2.69386544      38.09463937       0.00000000      -0.00000000      -0.10206629      -6.54647390
Al      20.21895116       2.69386544      39.99220221       0.00000000      -0.00000000       0.10206629      -5.64590157
N       20.21895116       4.48977573      40.59415201       0.00000000      -0.00000000      -0.10206629      -6.54647390
Al      20.21895116       4.48977573      42.49171485       0.00000000      -0.00000000       0.10206629      -5.64590157
N       20.21895116       2.69386544      43.09366464       0.00000000      -0.00000000      -0.10206629      -6.54647390
Al      18.66364723       5.38773088       0.00000000      -0.00000000       0.00000000       0.10206629      -5.64590157
N       18.66364723       7.18364117       0.60194979       0.00000000       0.00000000      -0.10206629      -6.54647390
Al      18.66364723       7.18364117       2.49951264       0.00000000       0.00000000       0.10206629      -5.64590157
N       18.66364723       5.38773088       3.10146243      -0.00000000       0.00000000      -0.10206629      -6.54647390
Al      18.66364723       5.38773088       4.99902528      -0.00000000       0.00000000       0.10206629      -5.64590157
N       18.66364723       7.18364117       5.60097507       0.00000000      -0.00000000      -0.10206629      -6.54647390
Al      18.66364723       7.18364117       7.49853791       0.00000000       0.00000000       0.10206629      -5.64590157
N       18.66364723       5.38773088       8.10048771      -0.00000000      -0.00000000      -0.10206629      -6.54647390
Al      18.66364723       5.38773088       9.99805055       0.00000000       0.00000000       0.10206629      -5.64590157
N       18.66364723       7.18364117      10.60000035       0.00000000       0.00000000      -0.10206629      -6.54647390
Al      18.66364723       7.18364117      12.49756319       0.00000000       0.00000000       0.10206629      -5.64590157
N       18.66364723       5.38773088      13.09951298      -0.00000000      -0.00000000      -0.10206629      -6.54647390
Al      18.66364723       5.38773088      14.99707583      -0.00000000      -0.00000000       0.10206629      -5.64590157
N       18.66364723       7.18364117      15.59902562       0.00000000       0.00000000      -0.10206629      -6.54647390
Al      18.66364723       7.18364117      17.49658847       0.00000000       0.00000000       0.10206629      -5.64590157
N       18.66364723       5.38773088      18.09853826      -0.00000000      -0.00000000      -0.10206629      -6.54647390
Al      18.66364723       5.38773088      19.99610111      -0.00000000       0.00000000       0.10206629      -5.64590157
N       18.66364723       7.18364117      20.59805090       0.00000000       0.00000000      -0.10206629      -6.54647390
Al      18.66364723       7.18364117      22.49561374       0.00000000       0.00000000       0.10206629      -5.64590157
N       18.66364723       5.38773088      23.09756354      -0.00000000      -0.00000000      -0.10206629      -6.54647390
Al      18.66364723       5.38773088      24.99512638      -0.00000000       0.00000000       0.10206629      -5.64590157
N       18.66364723       7.18364117      25.59707618       0.00000000       0.00000000      -0.10206629      -6.54647390
Al      18.66364723       7.18364117      27.49463902       0.00000000       0.00000000       0.10206629      -5.64590157
N       18.66364723       5.38773088      28.09658881      -0.00000000       0.00000000      -0.10206629      -6.54647390
Al      18.66364723       5.38773088      29.99415166      -0.00000000       0.00000000       0.10206629      -5.64590157
N       18.66364723       7.18364117      30.59610145       0.00000000       0.00000000      -0.10206629      -6.54647390
Al      18.66364723       7.18364117      32.49366430       0.00000000      -0.00000000       0.10206629      -5.64590157
N       18.66364723       5.38773088      33.09561409      -0.00000000      -0.00000000      -0.10206629      -6.54647390
Al      18.66364723       5.38773088      34.99317694      -0.00000000       0.00000000       0.10206629      -5.64590157
N       18.66364723       7.18364117      35.59512673       0.00000000       0.00000000      -0.10206629      -6.54647390
Al      18.66364723       7.18364117      37.49268957       0.00000000       0.00000000       0.10206629      -5.64590157
N       18.66364723       5.38773088      38.09463937      -0.00000000       0.00000000      -0.10206629      -6.54647390
Al      18.66364723       5.38773088      39.99220221      -0.00000000       0.00000000       0.10206629      -5.64590157
N       18.66364723       7.18364117      40.59415201       0.00000000       0.00000000      -0.10206629      -6.54647390
Al      18.66364723       7.18364117      42.49171485       0.00000000       0.00000000       0.10206629      -5.64590157
N       18.66364723       5.38773088      43.09366464      -0.00000000      -0.00000000      -0.10206629      -6.54647390
Al      17.10834329       8.08159631       0.00000000      -0.00000000       0.00000000       0.10206629      -5.64590157
N       17.10834329       9.87750661       0.60194979       0.00000000       0.00000000      -0.10206629      -6.54647390
Al      17.10834329       9.87750661       2.49951264       0.00000000       0.00000000       0.10206629      -5.64590157
N       17.10834329       8.08159631       3.10146243      -0.00000000      -0.00000000      -0.10206629      -6.54647390
Al      17.10834329       8.08159631       4.99902528      -0.00000000       0.00000000       0.10206629      -5.64590157
N       17.10834329       9.87750661       5.60097507       0.00000000      -0.00000000      -0.10206629      -6.54647390
Al      17.10834329       9.87750661       7.49853791       0.00000000       0.00000000       0.10206629      -5.64590157
N       17.10834329       8.08159631       8.10048771      -0.00000000      -0.00000000      -0.10206629      -6.54647390
Al      17.10834329       8.08159631       9.99805055       0.00000000       0.00000000       0.10206629      -5.64590157
N       17.10834329       9.87750661      10.60000035       0.00000000       0.00000000      -0.10206629      -6.54647390
Al      17.10834329       9.87750661      12.49756319       0.00000000       0.00000000       0.10206629      -5.64590157
N       17.10834329       8.08159631      13.09951298      -0.00000000       0.00000000      -0.10206629      -6.54647390
Al      17.10834329       8.08159631      14.99707583      -0.00000000       0.00000000       0.10206629      -5.64590157
N       17.10834329       9.87750661      15.59902562       0.00000000       0.00000000      -0.10206629      -6.54647390
Al      17.10834329       9.87750661      17.49658847       0.00000000       0.00000000       0.10206629      -5.64590157
N       17.10834329       8.08159631      18.09853826      -0.00000000       0.00000000      -0.10206629      -6.54647390
Al      17.10834329       8.08159631      19.99610111      -0.00000000       0.00000000       0.10206629      -5.64590157
N       17.10834329       9.87750661      20.59805090       0.00000000       0.00000000      -0.10206629      -6.54647390
Al      17.10834329       9.87750661      22.49561374       0.00000000       0.00000000       0.10206629      -5.64590157
N       17.10834329       8.08159631      23.09756354      -0.00000000       0.00000000      -0.10206629      -6.54647390
Al      17.10834329       8.08159631      24.99512638      -0.00000000       0.00000000       0.10206629      -5.64590157
N       17.10834329       9.87750661      25.59707618       0.00000000       0.00000000      -0.10206629      -6.54647390
Al      17.10834329       9.87750661      27.49463902       0.00000000       0.00000000       0.10206629      -5.64590157
N       17.10834329       8.08159631      28.09658881      -0.00000000       0.00000000      -0.10206629      -6.54647390
Al      17.10834329       8.08159631      29.99415166      -0.00000000       0.00000000       0.10206629      -5.64590157
N       17.10834329       9.87750661      30.59610145       0.00000000      -0.00000000      -0.10206629      -6.54647390
Al      17.10834329       9.87750661      32.49366430       0.00000000       0.00000000       0.10206629      -5.64590157
N       17.10834329       8.08159631      33.09561409      -0.00000000      -0.00000000      -0.10206629      -6.54647390
Al      17.10834329       8.08159631      34.99317694      -0.00000000       0.00000000       0.10206629      -5.64590157
N       17.10834329       9.87750661      35.59512673       0.00000000       0.00000000      -0.10206629      -6.54647390
Al      17.10834329       9.87750661      37.49268957       0.00000000       0.00000000       0.10206629      -5.64590157
N       17.10834329       8.08159631      38.09463937      -0.00000000       0.00000000      -0.10206629      -6.54647390
Al      17.10834329       8.08159631      39.99220221      -0.00000000       0.00000000       0.10206629      -5.64590157
N       17.10834329       9.87750661      40.59415201       0.00000000       0.00000000      -0.10206629      -6.54647390
Al      17.10834329       9.87750661      42.49171485       0.00000000       0.00000000       0.10206629      -5.64590157
N       17.10834329       8.08159631      43.09366464      -0.00000000       0.00000000      -0.10206629      -6.54647390
Al      15.55303936      10.77546175       0.00000000      -0.00000000       0.00000000       0.10206629      -5.64590157
N       15.55303936      12.57137204       0.60194979      -0.00000000      -0.00000000      -0.10206629      -6.54647390
Al      15.55303936      12.57137204       2.49951264      -0.00000000      -0.00000000       0.10206629      -5.64590157
N       15.55303936      10.77546175       3.10146243      -0.00000000      -0.00000000      -0.10206629      -6.54647390
Al      15.55303936      10.77546175       4.99902528      -0.00000000       0.00000000       0.10206629      -5.64590157
N       15.55303936      12.57137204       5.60097507      -0.00000000      -0.00000000      -0.10206629      -6.54647390
Al      15.55303936      12.57137204       7.49853791      -0.00000000      -0.00000000       0.10206629      -5.64590157
N       15.55303936      10.77546175       8.10048771      -0.00000000       0.00000000      -0.10206629      -6.54647390
Al      15.55303936      10.77546175       9.99805055      -0.00000000      -0.00000000       0.10206629      -5.64590157
N       15.55303936      12.57137204      10.60000035      -0.00000000      -0.00000000      -0.10206629      -6.54647390
Al      15.55303936      12.57137204      12.49756319      -0.00000000      -0.00000000       0.10206629      -5.64590157
N       15.55303936      10.77546175      13.09951298      -0.00000000       0.00000000      -0.10206629      -6.54647390
Al      15.55303936      10.77546175      14.99707583      -0.00000000      -0.00000000       0.10206629      -5.64590157
N       15.55303936      12.57137204      15.59902562      -0.00000000      -0.00000000      -0.10206629      -6.54647390
Al      15.55303936      12.57137204      17.49658847      -0.00000000      -0.00000000       0.10206629      -5.64590157
N       15.55303936      10.77546175      18.09853826      -0.00000000       0.00000000      -0.10206629      -6.54647390
Al      15.55303936      10.77546175      19.99610111      -0.00000000      -0.00000000       0.10206629      -5.64590157
N       15.55303936      12.57137204      20.59805090      -0.00000000      -0.00000000      -0.10206629      -6.54647390
Al      15.55303936      12.57137204      22.49561374      -0.00000000      -0.00000000       0.10206629      -5.64590157
N       15.55303936      10.77546175      23.09756354      -0.00000000       0.00000000      -0.10206629      -6.54647390
Al      15.55303936      10.77546175      24.99512638      -0.00000000       0.00000000       0.10206629      -5.64590157
N       15.55303936      12.57137204      25.59707618      -0.00000000      -0.00000000      -0.10206629      -6.54647390
Al      15.55303936      12.57137204      27.49463902      -0.00000000      -0.00000000       0.10206629      -5.64590157
N       15.55303936      10.77546175      28.09658881      -0.00000000       0.00000000      -0.10206629      -6.54647390
Al      15.55303936      10.77546175      29.99415166      -0.00000000      -0.00000000       0.10206629      -5.64590157
N       15.55303936      12.57137204      30.59610145      -0.00000000      -0.00000000      -0.10206629      -6.54647390
Al      15.55303936      12.57137204      32.49366430      -0.00000000      -0.00000000       0.10206629      -5.64590157
N       15.55303936      10.77546175      33.09561409      -0.00000000       0.00000000      -0.10206629      -6.54647390
Al      15.55303936      10.77546175      34.99317694      -0.00000000      -0.00000000       0.10206629      -5.64590157
N       15.55303936      12.57137204      35.59512673      -0.00000000      -0.00000000      -0.10206629      -6.54647390
Al      15.55303936      12.57137204      37.49268957      -0.00000000      -0.00000000       0.10206629      -5.64590157
N       15.55303936      10.77546175      38.09463937      -0.00000000       0.00000000      -0.10206629      -6.54647390
Al      15.55303936      10.77546175      39.99220221      -0.00000000      -0.00000000       0.10206629      -5.64590157
N       15.55303936      12.57137204      40.59415201      -0.00000000      -0.00000000      -0.10206629      -6.54647390
Al      15.55303936      12.57137204      42.49171485      -0.00000000      -0.00000000       0.10206629      -5.64590157
N       15.55303936      10.77546175      43.09366464      -0.00000000       0.00000000      -0.10206629      -6.54647390
Al      13.99773542      13.46932719       0.00000000       0.00000000       0.00000000       0.10206629      -5.64590157
N       13.99773542      15.26523748       0.60194979       0.00000000      -0.00000000      -0.10206629      -6.54647390
Al      13.99773542      15.26523748       2.49951264       0.00000000      -0.00000000       0.10206629      -5.64590157
N       13.99773542      13.46932719       3.10146243      -0.00000000       0.00000000      -0.10206629      -6.54647390
Al      13.99773542      13.46932719       4.99902528       0.00000000       0.00000000       0.10206629      -5.64590157
N       13.99773542      15.26523748       5.60097507      -0.00000000      -0.00000000      -0.10206629      -6.54647390
Al      13.99773542      15.26523748       7.49853791       0.00000000      -0.00000000       0.10206629      -5.64590157
N       13.99773542      13.46932719       8.10048771       0.00000000      -0.00000000      -0.10206629      -6.54647390
Al      13.99773542      13.46932719       9.99805055       0.00000000      -0.00000000       0.10206629      -5.64590157
N       13.99773542      15.26523748      10.60000035       0.00000000      -0.00000000      -0.10206629      -6.54647390
Al      13.99773542      15.26523748      12.49756319       0.00000000      -0.00000000       0.10206629      -5.64590157
N       13.99773542      13.46932719      13.09951298       0.00000000      -0.00000000      -0.10206629      -6.54647390
Al      13.99773542      13.46932719      14.99707583       0.00000000      -0.00000000       0.10206629      -5.64590157
N       13.99773542      15.26523748      15.59902562       0.00000000      -0.00000000      -0.10206629      -6.54647390
Al      13.99773542      15.26523748      17.49658847       0.00000000      -0.00000000       0.10206629      -5.64590157
N       13.99773542      13.46932719      18.09853826       0.00000000       0.00000000      -0.10206629      -6.54647390
Al      13.99773542      13.46932719      19.99610111       0.00000000      -0.00000000       0.10206629      -5.64590157
N       13.99773542      15.26523748      20.59805090       0.00000000      -0.00000000      -0.10206629      -6.54647390
Al      13.99773542      15.26523748      22.49561374       0.00000000      -0.00000000       0.10206629      -5.64590157
N       13.99773542      13.46932719      23.09756354       0.00000000       0.00000000      -0.10206629      -6.54647390
Al      13.99773542      13.46932719      24.99512638       0.00000000      -0.00000000       0.10206629      -5.64590157
N       13.99773542      15.26523748      25.59707618       0.00000000       0.00000000      -0.10206629      -6.54647390
Al      13.99773542      15.26523748      27.49463902       0.00000000      -0.00000000       0.10206629      -5.64590157
N       13.99773542      13.46932719      28.09658881       0.00000000       0.00000000      -0.10206629      -6.54647390
Al      13.99773542      13.46932719      29.99415166       0.00000000      -0.00000000       0.10206629      -5.64590157
N       13.99773542      15.26523748      30.59610145       0.00000000      -0.00000000      -0.10206629      -6.54647390
Al      13.99773542      15.26523748      32.49366430      -0.00000000      -0.00000000       0.10206629      -5.64590157
N       13.99773542      13.46932719      33.09561409       0.00000000       0.00000000      -0.10206629      -6.54647390
Al      13.99773542      13.46932719      34.99317694       0.00000000      -0.00000000       0.10206629      -5.64590157
N       13.99773542      15.26523748      35.59512673       0.00000000      -0.00000000      -0.10206629      -6.54647390
Al      13.99773542      15.26523748      37.49268957       0.00000000      -0.00000000       0.10206629      -5.64590157
N       13.99773542      13.46932719      38.09463937       0.00000000      -0.00000000      -0.10206629      -6.54647390
Al      13.99773542      13.46932719      39.99220221       0.00000000      -0.00000000       0.10206629      -5.64590157
N       13.99773542      15.26523748      40.59415201       0.00000000      -0.00000000      -0.10206629      -6.54647390
Al      13.99773542      15.26523748      42.49171485       0.00000000      -0.00000000       0.10206629      -5.64590157
N       13.99773542      13.46932719      43.09366464       0.00000000      -0.00000000      -0.10206629      -6.54647390
Al      12.44243149      16.16319263       0.00000000      -0.00000000       0.00000000       0.10206629      -5.64590157
N       12.44243149      17.95910292       0.60194979       0.00000000      -0.00000000      -0.10206629      -6.54647390
Al      12.44243149      17.95910292       2.49951264       0.00000000      -0.00000000       0.10206629      -5.64590157
N       12.44243149      16.16319263       3.10146243      -0.00000000       0.00000000      -0.10206629      -6.54647390
Al      12.44243149      16.16319263       4.99902528      -0.00000000       0.00000000       0.10206629      -5.64590157
N       12.44243149      17.95910292       5.60097507       0.00000000      -0.00000000      -0.10206629      -6.54647390
Al      12.44243149      17.95910292       7.49853791       0.00000000      -0.00000000       0.10206629      -5.64590157
N       12.44243149      16.16319263       8.10048771      -0.00000000       0.00000000      -0.10206629      -6.54647390
Al      12.44243149      16.16319263       9.99805055      -0.00000000       0.00000000       0.10206629      -5.64590157
N       12.44243149      17.95910292      10.60000035       0.00000000      -0.00000000      -0.10206629      -6.54647390
Al      12.44243149      17.95910292      12.49756319       0.00000000      -0.00000000       0.10206629      -5.64590157
N       12.44243149      16.16319263      13.09951298      -0.00000000       0.00000000      -0.10206629      -6.54647390
Al      12.44243149      16.16319263      14.99707583      -0.00000000       0.00000000       0.10206629      -5.64590157
N       12.44243149      17.95910292      15.59902562       0.00000000      -0.00000000      -0.10206629      -6.54647390
Al      12.44243149      17.95910292      17.49658847       0.00000000      -0.00000000       0.10206629      -5.64590157
N       12.44243149      16.16319263      18.09853826      -0.00000000       0.00000000      -0.10206629      -6.54647390
Al      12.44243149      16.16319263      19.99610111      -0.00000000       0.00000000       0.10206629      -5.64590157
N       12.44243149      17.95910292      20.59805090       0.00000000      -0.00000000      -0.10206629      -6.54647390
Al      12.44243149      17.95910292      22.49561374       0.00000000      -0.00000000       0.10206629      -5.64590157
N       12.44243149      16.16319263      23.09756354      -0.00000000       0.00000000      -0.10206629      -6.54647390
Al      12.44243149      16.16319263      24.99512638      -0.00000000       0.00000000       0.10206629      -5.64590157
N       12.44243149      17.95910292      25.59707618       0.00000000      -0.00000000      -0.10206629      -6.54647390
Al      12.44243149      17.95910292      27.49463902       0.00000000      -0.00000000       0.10206629      -5.64590157
N       12.44243149      16.16319263      28.09658881      -0.00000000       0.00000000      -0.10206629      -6.54647390
Al      12.44243149      16.16319263      29.99415166      -0.00000000       0.00000000       0.10206629      -5.64590157
N       12.44243149      17.95910292      30.59610145       0.00000000      -0.00000000      -0.10206629      -6.54647390
Al      12.44243149      17.95910292      32.49366430       0.00000000      -0.00000000       0.10206629      -5.64590157
N       12.44243149      16.16319263      33.09561409      -0.00000000       0.00000000      -0.10206629      -6.54647390
Al      12.44243149      16.16319263      34.99317694      -0.00000000       0.00000000       0.10206629      -5.64590157
N       12.44243149      17.95910292      35.59512673       0.00000000      -0.00000000      -0.10206629      -6.54647390
Al      12.44243149      17.95910292      37.49268957       0.00000000      -0.00000000       0.10206629      -5.64590157
N       12.44243149      16.16319263      38.09463937      -0.00000000       0.00000000      -0.10206629      -6.54647390
Al      12.44243149      16.16319263      39.99220221      -0.00000000       0.00000000       0.10206629      -5.64590157
N       12.44243149      17.95910292      40.59415201       0.00000000      -0.00000000      -0.10206629      -6.54647390
Al      12.44243149      17.95910292      42.49171485       0.00000000      -0.00000000       0.10206629      -5.64590157
N       12.44243149      16.16319263      43.09366464      -0.00000000       0.00000000      -0.10206629      -6.54647390
Al      10.88712755      18.85705806      -0.00000000       0.00000000      -0.00000000       0.10206629      -5.64590157
N       10.88712755      20.65296836       0.60194979       0.00000000       0.00000000      -0.10206629      -6.54647390
Al      10.88712755      20.65296836       2.49951264       0.00000000       0.00000000       0.10206629      -5.64590157
N       10.88712755      18.85705806       3.10146243       0.00000000      -0.00000000      -0.10206629      -6.54647390
Al      10.88712755      18.85705806       4.99902528       0.00000000      -0.00000000       0.10206629      -5.64590157
N       10.88712755      20.65296836       5.60097507       0.00000000       0.00000000      -0.10206629      -6.54647390
Al      10.88712755      20.65296836       7.49853791       0.00000000       0.00000000       0.10206629      -5.64590157
N       10.88712755      18.85705806       8.10048771       0.00000000      -0.00000000      -0.10206629      -6.54647390
Al      10.88712755      18.85705806       9.99805055      -0.00000000      -0.00000000       0.10206629      -5.64590157
N       10.88712755      20.65296836      10.60000035       0.00000000       0.00000000      -0.10206629      -6.54647390
Al      10.88712755      20.65296836      12.49756319       0.00000000       0.00000000       0.10206629      -5.64590157
N       10.88712755      18.85705806      13.09951298       0.00000000      -0.00000000      -0.10206629      -6.54647390
Al      10.88712755      18.85705806      14.99707583       0.00000000      -0.00000000       0.10206629      -5.64590157
N       10.88712755      20.65296836      15.59902562       0.00000000       0.00000000      -0.10206629      -6.54647390
Al      10.88712755      20.65296836      17.49658847       0.00000000       0.00000000       0.10206629      -5.64590157
N       10.88712755      18.85705806      18.09853826       0.00000000      -0.00000000      -0.10206629      -6.54647390
Al      10.88712755      18.85705806      19.99610111       0.00000000      -0.00000000       0.10206629      -5.64590157
N       10.88712755      20.65296836      20.59805090       0.00000000       0.00000000      -0.10206629      -6.54647390
Al      10.88712755      20.65296836      22.49561374       0.00000000       0.00000000       0.10206629      -5.64590157
N       10.88712755      18.85705806      23.09756354       0.00000000      -0.00000000      -0.10206629      -6.54647390
Al      10.88712755      18.85705806      24.99512638       0.00000000      -0.00000000       0.10206629      -5.64590157
N       10.88712755      20.65296836      25.59707618       0.00000000       0.00000000      -0.10206629      -6.54647390
Al      10.88712755      20.65296836      27.49463902       0.00000000       0.00000000       0.10206629      -5.64590157
N       10.88712755      18.85705806      28.09658881       0.00000000      -0.00000000      -0.10206629      -6.54647390
Al      10.88712755      18.85705806      29.99415166       0.00000000      -0.00000000       0.10206629      -5.64590157
N       10.88712755      20.65296836      30.59610145       0.00000000       0.00000000      -0.10206629      -6.54647390
Al      10.88712755      20.65296836      32.49366430       0.00000000       0.00000000       0.10206629      -5.64590157
N       10.88712755      18.85705806      33.09561409       0.00000000      -0.00000000      -0.10206629      -6.54647390
Al      10.88712755      18.85705806      34.99317694       0.00000000      -0.00000000       0.10206629      -5.64590157
N       10.88712755      20.65296836      35.59512673       0.00000000       0.00000000      -0.10206629      -6.54647390
Al      10.88712755      20.65296836      37.49268957       0.00000000       0.00000000       0.10206629      -5.64590157
N       10.88712755      18.85705806      38.09463937       0.00000000      -0.00000000      -0.10206629      -6.54647390
Al      10.88712755      18.85705806      39.99220221       0.00000000      -0.00000000       0.10206629      -5.64590157
N       10.88712755      20.65296836      40.59415201       0.00000000       0.00000000      -0.10206629      -6.54647390
Al      10.88712755      20.65296836      42.49171485       0.00000000       0.00000000       0.10206629      -5.64590157
N       10.88712755      18.85705806      43.09366464       0.00000000      -0.00000000      -0.10206629      -6.54647390
Al       9.33182361      21.55092350      -0.00000000      -0.00000000      -0.00000000       0.10206629      -5.64590157
N        9.33182361      23.34683379       0.60194979       0.00000000       0.00000000      -0.10206629      -6.54647390
Al       9.33182361      23.34683379       2.49951264       0.00000000       0.00000000       0.10206629      -5.64590157
N        9.33182361      21.55092350       3.10146243      -0.00000000      -0.00000000      -0.10206629      -6.54647390
Al       9.33182361      21.55092350       4.99902528      -0.00000000       0.00000000       0.10206629      -5.64590157
N        9.33182361      23.34683379       5.60097507       0.00000000       0.00000000      -0.10206629      -6.54647390
Al       9.33182361      23.34683379       7.49853791       0.00000000       0.00000000       0.10206629      -5.64590157
N        9.33182361      21.55092350       8.10048771      -0.00000000      -0.00000000      -0.10206629      -6.54647390
Al       9.33182361      21.55092350       9.99805055      -0.00000000       0.00000000       0.10206629      -5.64590157
N        9.33182361      23.34683379      10.60000035       0.00000000       0.00000000      -0.10206629      -6.54647390
Al       9.33182361      23.34683379      12.49756319       0.00000000       0.00000000       0.10206629      -5.64590157
N        9.33182361      21.55092350      13.09951298      -0.00000000      -0.00000000      -0.10206629      -6.54647390
Al       9.33182361      21.55092350      14.99707583      -0.00000000       0.00000000       0.10206629      -5.64590157
N        9.33182361      23.34683379      15.59902562       0.00000000       0.00000000      -0.10206629      -6.54647390
Al       9.33182361      23.34683379      17.49658847       0.00000000       0.00000000       0.10206629      -5.64590157
N        9.33182361      21.55092350      18.09853826      -0.00000000       0.00000000      -0.10206629      -6.54647390
Al       9.33182361      21.55092350      19.99610111      -0.00000000       0.00000000       0.10206629      -5.64590157
N        9.33182361      23.34683379      20.59805090       0.00000000       0.00000000      -0.10206629      -6.54647390
Al       9.33182361      23.34683379      22.49561374       0.00000000       0.00000000       0.10206629      -5.64590157
N        9.33182361      21.55092350      23.09756354      -0.00000000      -0.00000000      -0.10206629      -6.54647390
Al       9.33182361      21.55092350      24.99512638      -0.00000000       0.00000000       0.10206629      -5.64590157
N        9.33182361      23.34683379      25.59707618       0.00000000       0.00000000      -0.10206629      -6.54647390
Al       9.33182361      23.34683379      27.49463902       0.00000000       0.00000000       0.10206629      -5.64590157
N        9.33182361      21.55092350      28.09658881      -0.00000000      -0.00000000      -0.10206629      -6.54647390
Al       9.33182361      21.55092350      29.99415166      -0.00000000      -0.00000000       0.10206629      -5.64590157
N        9.33182361      23.34683379      30.59610145       0.00000000       0.00000000      -0.10206629      -6.54647390
Al       9.33182361      23.34683379      32.49366430       0.00000000       0.00000000       0.10206629      -5.64590157
N        9.33182361      21.55092350      33.09561409      -0.00000000       0.00000000      -0.10206629      -6.54647390
Al       9.33182361      21.55092350      34.99317694      -0.00000000      -0.00000000       0.10206629      -5.64590157
N        9.33182361      23.34683379      35.59512673       0.00000000       0.00000000      -0.10206629      -6.54647390
Al       9.33182361      23.34683379      37.49268957       0.00000000       0.00000000       0.10206629      -5.64590157
N        9.33182361      21.55092350      38.09463937      -0.00000000      -0.00000000      -0.10206629      -6.54647390
Al       9.33182361      21.55092350      39.99220221      -0.00000000      -0.00000000       0.10206629      -5.64590157
N        9.33182361      23.34683379      40.59415201       0.00000000       0.00000000      -0.10206629      -6.54647390
Al       9.33182361      23.34683379      42.49171485       0.00000000       0.00000000       0.10206629      -5.64590157
N        9.33182361      21.55092350      43.09366464      -0.00000000       0.00000000      -0.10206629      -6.54647390
Al       7.77651968      24.24478894      -0.00000000      -0.00000000      -0.00000000       0.10206629      -5.64590157
N        7.77651968      26.04069923       0.60194979       0.00000000      -0.00000000      -0.10206629      -6.54647390
Al       7.77651968      26.04069923       2.49951264       0.00000000      -0.00000000       0.10206629      -5.64590157
N        7.77651968      24.24478894       3.10146243      -0.00000000      -0.00000000      -0.10206629      -6.54647390
Al       7.77651968      24.24478894       4.99902528      -0.00000000      -0.00000000       0.10206629      -5.64590157
N        7.77651968      26.04069923       5.60097507       0.00000000      -0.00000000      -0.10206629      -6.54647390
Al       7.77651968      26.04069923       7.49853791       0.00000000      -0.00000000       0.10206629      -5.64590157
N        7.77651968      24.24478894       8.10048771      -0.00000000      -0.00000000      -0.10206629      -6.54647390
Al       7.77651968      24.24478894       9.99805055      -0.00000000      -0.00000000       0.10206629      -5.64590157
N        7.77651968      26.04069923      10.60000035       0.00000000      -0.00000000      -0.10206629      -6.54647390
Al       7.77651968      26.04069923      12.49756319       0.00000000      -0.00000000       0.10206629      -5.64590157
N        7.77651968      24.24478894      13.09951298      -0.00000000      -0.00000000      -0.10206629      -6.54647390
Al       7.77651968      24.24478894      14.99707583      -0.00000000      -0.00000000       0.10206629      -5.64590157
N        7.77651968      26.04069923      15.59902562       0.00000000      -0.00000000      -0.10206629      -6.54647390
Al       7.77651968      26.04069923      17.49658847       0.00000000      -0.00000000       0.10206629      -5.64590157
N        7.77651968      24.24478894      18.09853826      -0.00000000      -0.00000000      -0.10206629      -6.54647390
Al       7.77651968      24.24478894      19.99610111      -0.00000000      -0.00000000       0.10206629      -5.64590157
N        7.77651968      26.04069923      20.59805090       0.00000000      -0.00000000      -0.10206629      -6.54647390
Al       7.77651968      26.04069923      22.49561374       0.00000000      -0.00000000       0.10206629      -5.64590157
N        7.77651968      24.24478894      23.09756354      -0.00000000      -0.00000000      -0.10206629      -6.54647390
Al       7.77651968      24.24478894      24.99512638      -0.00000000      -0.00000000       0.10206629      -5.64590157
N        7.77651968      26.04069923      25.59707618       0.00000000      -0.00000000      -0.10206629      -6.54647390
Al       7.77651968      26.04069923      27.49463902       0.00000000      -0.00000000       0.10206629      -5.64590157
N        7.77651968      24.24478894      28.09658881      -0.00000000      -0.00000000      -0.10206629      -6.54647390
Al       7.77651968      24.24478894      29.99415166      -0.00000000      -0.00000000       0.10206629      -5.64590157
N        7.77651968      26.04069923      30.59610145       0.00000000      -0.00000000      -0.10206629      -6.54647390
Al       7.77651968      26.04069923      32.49366430       0.00000000      -0.00000000       0.10206629      -5.64590157
N        7.77651968      24.24478894      33.09561409      -0.00000000      -0.00000000      -0.10206629      -6.54647390
Al       7.77651968      24.24478894      34.99317694      -0.00000000      -0.00000000       0.10206629      -5.64590157
N        7.77651968      26.04069923      35.59512673       0.00000000      -0.00000000      -0.10206629      -6.54647390
Al       7.77651968      26.04069923      37.49268957       0.00000000      -0.00000000       0.10206629      -5.64590157
N        7.77651968      24.24478894      38.09463937      -0.00000000      -0.00000000      -0.10206629      -6.54647390
Al       7.77651968      24.24478894      39.99220221      -0.00000000      -0.00000000       0.10206629      -5.64590157
N        7.77651968      26.04069923      40.59415201      -0.00000000      -0.00000000      -0.10206629      -6.54647390
Al       7.77651968      26.04069923      42.49171485      -0.00000000      -0.00000000       0.10206629      -5.64590157
N        7.77651968      24.24478894      43.09366464      -0.00000000      -0.00000000      -0.10206629      -6.54647390
Al       6.22121574      26.93865438      -0.00000000      -0.00000000      -0.00000000       0.10206629      -5.64590157
N        6.22121574      28.73456467       0.60194979      -0.00000000       0.00000000      -0.10206629      -6.54647390
Al       6.22121574      28.73456467       2.49951264      -0.00000000       0.00000000       0.10206629      -5.64590157
N        6.22121574      26.93865438       3.10146243      -0.00000000      -0.00000000      -0.10206629      -6.54647390
Al       6.22121574      26.93865438       4.99902528      -0.00000000      -0.00000000       0.10206629      -5.64590157
N        6.22121574      28.73456467       5.60097507      -0.00000000       0.00000000      -0.10206629      -6.54647390
Al       6.22121574      28.73456467       7.49853791      -0.00000000       0.00000000       0.10206629      -5.64590157
N        6.22121574      26.93865438       8.10048771      -0.00000000       0.00000000      -0.10206629      -6.54647390
Al       6.22121574      26.93865438       9.99805055      -0.00000000      -0.00000000       0.10206629      -5.64590157
N        6.22121574      28.73456467      10.60000035      -0.00000000       0.00000000      -0.10206629      -6.54647390
Al       6.22121574      28.73456467      12.49756319      -0.00000000       0.00000000       0.10206629      -5.64590157
N        6.22121574      26.93865438      13.09951298      -0.00000000       0.00000000      -0.10206629      -6.54647390
Al       6.22121574      26.93865438      14.99707583      -0.00000000      -0.00000000       0.10206629      -5.64590157
N        6.22121574      28.73456467      15.59902562      -0.00000000       0.00000000      -0.10206629      -6.54647390
Al       6.22121574      28.73456467      17.49658847      -0.00000000       0.00000000       0.10206629      -5.64590157
N        6.22121574      26.93865438      18.09853826      -0.00000000      -0.00000000      -0.10206629      -6.54647390
Al       6.22121574      26.93865438      19.99610111      -0.00000000      -0.00000000       0.10206629      -5.64590157
N        6.22121574      28.73456467      20.59805090      -0.00000000       0.00000000      -0.10206629      -6.54647390
Al       6.22121574      28.73456467      22.49561374      -0.00000000       0.00000000       0.10206629      -5.64590157
N        6.22121574      26.93865438      23.09756354      -0.00000000       0.00000000      -0.10206629      -6.54647390
Al       6.22121574      26.93865438      24.99512638      -0.00000000      -0.00000000       0.10206629      -5.64590157
N        6.22121574      28.73456467      25.59707618      -0.00000000       0.00000000      -0.10206629      -6.54647390
Al       6.22121574      28.73456467      27.49463902      -0.00000000       0.00000000       0.10206629      -5.64590157
N        6.22121574      26.93865438      28.09658881      -0.00000000       0.00000000      -0.10206629      -6.54647390
Al       6.22121574      26.93865438      29.99415166      -0.00000000      -0.00000000       0.10206629      -5.64590157
N        6.22121574      28.73456467      30.59610145      -0.00000000       0.00000000      -0.10206629      -6.54647390
Al       6.22121574      28.73456467      32.49366430      -0.00000000       0.00000000       0.10206629      -5.64590157
N        6.22121574      26.93865438      33.09561409      -0.00000000      -0.00000000      -0.10206629      -6.54647390
Al       6.22121574      26.93865438      34.99317694      -0.00000000      -0.00000000       0.10206629      -5.64590157
N        6.22121574      28.73456467      35.59512673      -0.00000000       0.00000000      -0.10206629      -6.54647390
Al       6.22121574      28.73456467      37.49268957      -0.00000000       0.00000000       0.10206629      -5.64590157
N        6.22121574      26.93865438      38.09463937      -0.00000000      -0.00000000      -0.10206629      -6.54647390
Al       6.22121574      26.93865438      39.99220221      -0.00000000      -0.00000000       0.10206629      -5.64590157
N        6.22121574      28.73456467      40.59415201      -0.00000000       0.00000000      -0.10206629      -6.54647390
Al       6.22121574      28.73456467      42.49171485      -0.00000000       0.00000000       0.10206629      -5.64590157
N        6.22121574      26.93865438      43.09366464      -0.00000000      -0.00000000      -0.10206629      -6.54647390
Al       4.66591181      29.63251982      -0.00000000       0.00000000       0.00000000       0.10206629      -5.64590157
N        4.66591181      31.42843011       0.60194979      -0.00000000      -0.00000000      -0.10206629      -6.54647390
Al       4.66591181      31.42843011       2.49951264      -0.00000000      -0.00000000       0.10206629      -5.64590157
N        4.66591181      29.63251982       3.10146243       0.00000000      -0.00000000      -0.10206629      -6.54647390
Al       4.66591181      29.63251982       4.99902528       0.00000000       0.00000000       0.10206629      -5.64590157
N        4.66591181      31.42843011       5.60097507      -0.00000000      -0.00000000      -0.10206629      -6.54647390
Al       4.66591181      31.42843011       7.49853791      -0.00000000      -0.00000000       0.10206629      -5.64590157
N        4.66591181      29.63251982       8.10048771      -0.00000000      -0.00000000      -0.10206629      -6.54647390
Al       4.66591181      29.63251982       9.99805055       0.00000000       0.00000000       0.10206629      -5.64590157
N        4.66591181      31.42843011      10.60000035      -0.00000000      -0.00000000      -0.10206629      -6.54647390
Al       4.66591181      31.42843011      12.49756319      -0.00000000      -0.00000000       0.10206629      -5.64590157
N        4.66591181      29.63251982      13.09951298       0.00000000      -0.00000000      -0.10206629      -6.54647390
Al       4.66591181      29.63251982      14.99707583       0.00000000       0.00000000       0.10206629      -5.64590157
N        4.66591181      31.42843011      15.59902562       0.00000000      -0.00000000      -0.10206629      -6.54647390
Al       4.66591181      31.42843011      17.49658847      -0.00000000      -0.00000000       0.10206629      -5.64590157
N        4.66591181      29.63251982      18.09853826       0.00000000      -0.00000000      -0.10206629      -6.54647390
Al       4.66591181      29.63251982      19.99610111       0.00000000       0.00000000       0.10206629      -5.64590157
N        4.66591181      31.42843011      20.59805090       0.00000000      -0.00000000      -0.10206629      -6.54647390
Al       4.66591181      31.42843011      22.49561374       0.00000000      -0.00000000       0.10206629      -5.64590157
N        4.66591181      29.63251982      23.09756354       0.00000000       0.00000000      -0.10206629      -6.54647390
Al       4.66591181      29.63251982      24.99512638       0.00000000       0.00000000       0.10206629      -5.64590157
N        4.66591181      31.42843011      25.59707618       0.00000000      -0.00000000      -0.10206629      -6.54647390
Al       4.66591181      31.42843011      27.49463902       0.00000000      -0.00000000       0.10206629      -5.64590157
N        4.66591181      29.63251982      28.09658881       0.00000000       0.00000000      -0.10206629      -6.54647390
Al       4.66591181      29.63251982      29.99415166       0.00000000       0.00000000       0.10206629      -5.64590157
N        4.66591181      31.42843011      30.59610145       0.00000000      -0.00000000      -0.10206629      -6.54647390
Al       4.66591181      31.42843011      32.49366430      -0.00000000      -0.00000000       0.10206629      -5.64590157
N        4.66591181      29.63251982      33.09561409       0.00000000       0.00000000      -0.10206629      -6.54647390
Al       4.66591181      29.63251982      34.99317694       0.00000000       0.00000000       0.10206629      -5.64590157
N        4.66591181      31.42843011      35.59512673       0.00000000      -0.00000000      -0.10206629      -6.54647390
Al       4.66591181      31.42843011      37.49268957       0.00000000      -0.00000000       0.10206629      -5.64590157
N        4.66591181      29.63251982      38.09463937       0.00000000       0.00000000      -0.10206629      -6.54647390
Al       4.66591181      29.63251982      39.99220221       0.00000000       0.00000000       0.10206629      -5.64590157
N        4.66591181      31.42843011      40.59415201      -0.00000000      -0.00000000      -0.10206629      -6.54647390
Al       4.66591181      31.42843011      42.49171485      -0.00000000      -0.00000000       0.10206629      -5.64590157
N        4.66591181      29.63251982      43.09366464       0.00000000       0.00000000      -0.10206629      -6.54647390
Al       3.11060787      32.32638525      -0.00000000      -0.00000000       0.00000000       0.10206629      -5.64590157
N        3.11060787      34.12229555       0.60194979       0.00000000      -0.00000000      -0.10206629      -6.54647390
Al       3.11060787      34.12229555       2.49951264       0.00000000      -0.00000000       0.10206629      -5.64590157
N        3.11060787      32.32638525       3.10146243      -0.00000000       0.00000000      -0.10206629      -6.54647390
Al       3.11060787      32.32638525       4.99902528      -0.00000000       0.00000000       0.10206629      -5.64590157
N        3.11060787      34.12229555       5.60097507      -0.00000000      -0.00000000      -0.10206629      -6.54647390
Al       3.11060787      34.12229555       7.49853791       0.00000000      -0.00000000       0.10206629      -5.64590157
N        3.11060787      32.32638525       8.10048771      -0.00000000       0.00000000      -0.10206629      -6.54647390
Al       3.11060787      32.32638525       9.99805055      -0.00000000       0.00000000       0.10206629      -5.64590157
N        3.11060787      34.12229555      10.60000035      -0.00000000      -0.00000000      -0.10206629      -6.54647390
Al       3.11060787      34.12229555      12.49756319      -0.00000000      -0.00000000       0.10206629      -5.64590157
N        3.11060787      32.32638525      13.09951298      -0.00000000       0.00000000      -0.10206629      -6.54647390
Al       3.11060787      32.32638525      14.99707583      -0.00000000       0.00000000       0.10206629      -5.64590157
N        3.11060787      34.12229555      15.59902562       0.00000000      -0.00000000      -0.10206629      -6.54647390
Al       3.11060787      34.12229555      17.49658847      -0.00000000      -0.00000000       0.10206629      -5.64590157
N        3.11060787      32.32638525      18.09853826      -0.00000000       0.00000000      -0.10206629      -6.54647390
Al       3.11060787      32.32638525      19.99610111      -0.00000000       0.00000000       0.10206629      -5.64590157
N        3.11060787      34.12229555      20.59805090       0.00000000      -0.00000000      -0.10206629      -6.54647390
Al       3.11060787      34.12229555      22.49561374       0.00000000      -0.00000000       0.10206629      -5.64590157
N        3.11060787      32.32638525      23.09756354      -0.00000000       0.00000000      -0.10206629      -6.54647390
Al       3.11060787      32.32638525      24.99512638      -0.00000000       0.00000000       0.10206629      -5.64590157
N        3.11060787      34.12229555      25.59707618      -0.00000000      -0.00000000      -0.10206629      -6.54647390
Al       3.11060787      34.12229555      27.49463902      -0.00000000      -0.00000000       0.10206629      -5.64590157
N        3.11060787      32.32638525      28.09658881      -0.00000000       0.00000000      -0.10206629      -6.54647390
Al       3.11060787      32.32638525      29.99415166      -0.00000000       0.00000000       0.10206629      -5.64590157
N        3.11060787      34.12229555      30.59610145       0.00000000      -0.00000000      -0.10206629      -6.54647390
Al       3.11060787      34.12229555      32.49366430      -0.00000000      -0.00000000       0.10206629      -5.64590157
N        3.11060787      32.32638525      33.09561409      -0.00000000       0.00000000      -0.10206629      -6.54647390
Al       3.11060787      32.32638525      34.99317694      -0.00000000       0.00000000       0.10206629      -5.64590157
N        3.11060787      34.12229555      35.59512673       0.00000000      -0.00000000      -0.10206629      -6.54647390
Al       3.11060787      34.12229555      37.49268957      -0.00000000      -0.00000000       0.10206629      -5.64590157
N        3.11060787      32.32638525      38.09463937      -0.00000000       0.00000000      -0.10206629      -6.54647390
Al       3.11060787      32.32638525      39.99220221      -0.00000000       0.00000000       0.10206629      -5.64590157
N        3.11060787      34.12229555      40.59415201       0.00000000       0.00000000      -0.10206629      -6.54647390
Al       3.11060787      34.12229555      42.49171485       0.00000000       0.00000000       0.10206629      -5.64590157
N        3.11060787      32.32638525      43.09366464      -0.00000000       0.00000000      -0.10206629      -6.54647390
Al       1.55530394      35.02025069      -0.00000000      -0.00000000       0.00000000       0.10206629      -5.64590157
N        1.55530394      36.81616098       0.60194979       0.00000000      -0.00000000      -0.10206629      -6.54647390
Al       1.55530394      36.81616098       2.49951264       0.00000000      -0.00000000       0.10206629      -5.64590157
N        1.55530394      35.02025069       3.10146243      -0.00000000       0.00000000      -0.10206629      -6.54647390
Al       1.55530394      35.02025069       4.99902528      -0.00000000       0.00000000       0.10206629      -5.64590157
N        1.55530394      36.81616098       5.60097507       0.00000000      -0.00000000      -0.10206629      -6.54647390
Al       1.55530394      36.81616098       7.49853791       0.00000000      -0.00000000       0.10206629      -5.64590157
N        1.55530394      35.02025069       8.10048771      -0.00000000       0.00000000      -0.10206629      -6.54647390
Al       1.55530394      35.02025069       9.99805055      -0.00000000       0.00000000       0.10206629      -5.64590157
N        1.55530394      36.81616098      10.60000035       0.00000000      -0.00000000      -0.10206629      -6.54647390
Al       1.55530394      36.81616098      12.49756319      -0.00000000      -0.00000000       0.10206629      -5.64590157
N        1.55530394      35.02025069      13.09951298      -0.00000000       0.00000000      -0.10206629      -6.54647390
Al       1.55530394      35.02025069      14.99707583      -0.00000000       0.00000000       0.10206629      -5.64590157
N        1.55530394      36.81616098      15.59902562       0.00000000      -0.00000000      -0.10206629      -6.54647390
Al       1.55530394      36.81616098      17.49658847       0.00000000      -0.00000000       0.10206629      -5.64590157
N        1.55530394      35.02025069      18.09853826      -0.00000000       0.00000000      -0.10206629      -6.54647390
Al       1.55530394      35.02025069      19.99610111      -0.00000000       0.00000000       0.10206629      -5.64590157
N        1.55530394      36.81616098      20.59805090       0.00000000      -0.00000000      -0.10206629      -6.54647390
Al       1.55530394      36.81616098      22.49561374       0.00000000      -0.00000000       0.10206629      -5.64590157
N        1.55530394      35.02025069      23.09756354      -0.00000000       0.00000000      -0.10206629      -6.54647390
Al       1.55530394      35.02025069      24.99512638      -0.00000000       0.00000000       0.10206629      -5.64590157
N        1.55530394      36.81616098      25.59707618       0.00000000      -0.00000000      -0.10206629      -6.54647390
Al       1.55530394      36.81616098      27.49463902      -0.00000000      -0.00000000       0.10206629      -5.64590157
N        1.55530394      35.02025069      28.09658881      -0.00000000       0.00000000      -0.10206629      -6.54647390
Al       1.55530394      35.02025069      29.99415166      -0.00000000      -0.00000000       0.10206629      -5.64590157
N        1.55530394      36.81616098      30.59610145       0.00000000      -0.00000000      -0.10206629      -6.54647390
Al       1.55530394      36.81616098      32.49366430      -0.00000000      -0.00000000       0.10206629      -5.64590157
N        1.55530394      35.02025069      33.09561409      -0.00000000       0.00000000      -0.10206629      -6.54647390
Al       1.55530394      35.02025069      34.99317694      -0.00000000       0.00000000       0.10206629      -5.64590157
N        1.55530394      36.81616098      35.59512673       0.00000000      -0.00000000      -0.10206629      -6.54647390
Al       1.55530394      36.81616098      37.49268957      -0.00000000      -0.00000000       0.10206629      -5.64590157
N        1.55530394      35.02025069      38.09463937      -0.00000000       0.00000000      -0.10206629      -6.54647390
Al       1.55530394      35.02025069      39.99220221      -0.00000000       0.00000000       0.10206629      -5.64590157
N        1.55530394      36.81616098      40.59415201       0.00000000      -0.00000000      -0.10206629      -6.54647390
Al       1.55530394      36.81616098      42.49171485       0.00000000      -0.00000000       0.10206629      -5.64590157
N        1.55530394      35.02025069      43.09366464      -0.00000000       0.00000000      -0.10206629      -6.54647390
Al       0.00000000      37.71411613      -0.00000000      -0.00000000      -0.00000000       0.10206629      -5.64590157
N        0.00000000      39.51002642       0.60194979       0.00000000       0.00000000      -0.10206629      -6.54647390
Al       0.00000000      39.51002642       2.49951264       0.00000000       0.00000000       0.10206629      -5.64590157
N        0.00000000      37.71411613       3.10146243       0.00000000      -0.00000000      -0.10206629      -6.54647390
Al       0.00000000      37.71411613       4.99902528      -0.00000000      -0.00000000       0.10206629      -5.64590157
N        0.00000000      39.51002642       5.60097507       0.00000000       0.00000000      -0.10206629      -6.54647390
Al       0.00000000      39.51002642       7.49853791       0.00000000       0.00000000       0.10206629      -5.64590157
N        0.00000000      37.71411613       8.10048771      -0.00000000      -0.00000000      -0.10206629      -6.54647390
Al       0.00000000      37.71411613       9.99805055      -0.00000000      -0.00000000       0.10206629      -5.64590157
N        0.00000000      39.51002642      10.60000035       0.00000000       0.00000000      -0.10206629      -6.54647390
Al       0.00000000      39.51002642      12.49756319       0.00000000       0.00000000       0.10206629      -5.64590157
N        0.00000000      37.71411613      13.09951298      -0.00000000      -0.00000000      -0.10206629      -6.54647390
Al       0.00000000      37.71411613      14.99707583      -0.00000000      -0.00000000       0.10206629      -5.64590157
N        0.00000000      39.51002642      15.59902562       0.00000000       0.00000000      -0.10206629      -6.54647390
Al       0.00000000      39.51002642      17.49658847       0.00000000       0.00000000       0.10206629      -5.64590157
N        0.00000000      37.71411613      18.09853826      -0.00000000      -0.00000000      -0.10206629      -6.54647390
Al       0.00000000      37.71411613      19.99610111      -0.00000000      -0.00000000       0.10206629      -5.64590157
N        0.00000000      39.51002642      20.59805090       0.00000000       0.00000000      -0.10206629      -6.54647390
Al       0.00000000      39.51002642      22.49561374       0.00000000       0.00000000       0.10206629      -5.64590157
N        0.00000000      37.71411613      23.09756354      -0.00000000      -0.00000000      -0.10206629      -6.54647390
Al       0.00000000      37.71411613      24.99512638      -0.00000000      -0.00000000       0.10206629      -5.64590157
N        0.00000000      39.51002642      25.59707618       0.00000000       0.00000000      -0.10206629      -6.54647390
Al       0.00000000      39.51002642      27.49463902       0.00000000       0.00000000       0.10206629      -5.64590157
N        0.00000000      37.71411613      28.09658881      -0.00000000      -0.00000000      -0.10206629      -6.54647390
Al       0.00000000      37.71411613      29.99415166      -0.00000000      -0.00000000       0.10206629      -5.64590157
N        0.00000000      39.51002642      30.59610145       0.00000000       0.00000000      -0.10206629      -6.54647390
Al       0.00000000      39.51002642      32.49366430       0.00000000       0.00000000       0.10206629      -5.64590157
N        0.00000000      37.71411613      33.09561409      -0.00000000      -0.00000000      -0.10206629      -6.54647390
Al       0.00000000      37.71411613      34.99317694      -0.00000000      -0.00000000       0.10206629      -5.64590157
N        0.00000000      39.51002642      35.59512673       0.00000000       0.00000000      -0.10206629      -6.54647390
Al       0.00000000      39.51002642      37.49268957       0.00000000       0.00000000       0.10206629      -5.64590157
N        0.00000000      37.71411613      38.09463937      -0.00000000      -0.00000000      -0.10206629      -6.54647390
Al       0.00000000      37.71411613      39.99220221      -0.00000000      -0.00000000       0.10206629      -5.64590157
N        0.00000000      39.51002642      40.59415201       0.00000000       0.00000000      -0.10206629      -6.54647390
Al       0.00000000      39.51002642      42.49171485       0.00000000       0.00000000       0.10206629      -5.64590157
N        0.00000000      37.71411613      43.09366464      -0.00000000      -0.00000000      -0.10206629      -6.54647390
Al      24.88486297      -0.00000000       0.00000000      -0.00000000      -0.00000000       0.10206629      -5.64590157
N       24.88486297       1.79591029       0.60194979      -0.00000000      -0.00000000      -0.10206629      -6.54647390
Al      24.88486297       1.79591029       2.49951264      -0.00000000      -0.00000000       0.10206629      -5.64590157
N       24.88486297      -0.00000000       3.10146243      -0.00000000      -0.00000000      -0.10206629      -6.54647390
Al      24.88486297      -0.00000000       4.99902528      -0.00000000      -0.00000000       0.10206629      -5.64590157
N       24.88486297       1.79591029       5.60097507      -0.00000000      -0.00000000      -0.10206629      -6.54647390
Al      24.88486297       1.79591029       7.49853791      -0.00000000      -0.00000000       0.10206629      -5.64590157
N       24.88486297      -0.00000000       8.10048771      -0.00000000      -0.00000000      -0.10206629      -6.54647390
Al      24.88486297      -0.00000000       9.99805055      -0.00000000      -0.00000000       0.10206629      -5.64590157
N       24.88486297       1.79591029      10.60000035      -0.00000000       0.00000000      -0.10206629      -6.54647390
Al      24.88486297       1.79591029      12.49756319      -0.00000000      -0.00000000       0.10206629      -5.64590157
N       24.88486297      -0.00000000      13.09951298      -0.00000000      -0.00000000      -0.10206629      -6.54647390
Al      24.88486297      -0.00000000      14.99707583      -0.00000000      -0.00000000       0.10206629      -5.64590157
N       24.88486297       1.79591029      15.59902562      -0.00000000       0.00000000      -0.10206629      -6.54647390
Al      24.88486297       1.79591029      17.49658847      -0.00000000       0.00000000       0.10206629      -5.64590157
N       24.88486297      -0.00000000      18.09853826      -0.00000000      -0.00000000      -0.10206629      -6.54647390
Al      24.88486297      -0.00000000      19.99610111      -0.00000000      -0.00000000       0.10206629      -5.64590157
N       24.88486297       1.79591029      20.59805090      -0.00000000      -0.00000000      -0.10206629      -6.54647390
Al      24.88486297       1.79591029      22.49561374      -0.00000000      -0.00000000       0.10206629      -5.64590157
N       24.88486297      -0.00000000      23.09756354      -0.00000000      -0.00000000      -0.10206629      -6.54647390
Al      24.88486297      -0.00000000      24.99512638      -0.00000000      -0.00000000       0.10206629      -5.64590157
N       24.88486297       1.79591029      25.59707618      -0.00000000      -0.00000000      -0.10206629      -6.54647390
Al      24.88486297       1.79591029      27.49463902      -0.00000000      -0.00000000       0.10206629      -5.64590157
N       24.88486297      -0.00000000      28.09658881      -0.00000000      -0.00000000      -0.10206629      -6.54647390
Al      24.88486297      -0.00000000      29.99415166      -0.00000000      -0.00000000       0.10206629      -5.64590157
N       24.88486297       1.79591029      30.59610145      -0.00000000      -0.00000000      -0.10206629      -6.54647390
Al      24.88486297       1.79591029      32.49366430      -0.00000000      -0.00000000       0.10206629      -5.64590157
N       24.88486297      -0.00000000      33.09561409      -0.00000000      -0.00000000      -0.10206629      -6.54647390
Al      24.88486297      -0.00000000      34.99317694      -0.00000000      -0.00000000       0.10206629      -5.64590157
N       24.88486297       1.79591029      35.59512673      -0.00000000      -0.00000000      -0.10206629      -6.54647390
Al      24.88486297       1.79591029      37.49268957      -0.00000000      -0.00000000       0.10206629      -5.64590157
N       24.88486297      -0.00000000      38.09463937      -0.00000000      -0.00000000      -0.10206629      -6.54647390
Al      24.88486297      -0.00000000      39.99220221      -0.00000000      -0.00000000       0.10206629      -5.64590157
N       24.88486297       1.79591029      40.59415201      -0.00000000      -0.00000000      -0.10206629      -6.54647390
Al      24.88486297       1.79591029      42.49171485      -0.00000000      -0.00000000       0.10206629      -5.64590157
N       24.88486297      -0.00000000      43.09366464      -0.00000000      -0.00000000      -0.10206629      -6.54647390
Al      23.32955904       2.69386544       0.00000000       0.00000000      -0.00000000       0.10206629      -5.64590157
N       23.32955904       4.48977573       0.60194979      -0.00000000      -0.00000000      -0.10206629      -6.54647390
Al      23.32955904       4.48977573       2.49951264      -0.00000000      -0.00000000       0.10206629      -5.64590157
N       23.32955904       2.69386544       3.10146243       0.00000000      -0.00000000      -0.10206629      -6.54647390
Al      23.32955904       2.69386544       4.99902528       0.00000000      -0.00000000       0.10206629      -5.64590157
N       23.32955904       4.48977573       5.60097507      -0.00000000      -0.00000000      -0.10206629      -6.54647390
Al      23.32955904       4.48977573       7.49853791      -0.00000000       0.00000000       0.10206629      -5.64590157
N       23.32955904       2.69386544       8.10048771       0.00000000      -0.00000000      -0.10206629      -6.54647390
Al      23.32955904       2.69386544       9.99805055       0.00000000      -0.00000000       0.10206629      -5.64590157
N       23.32955904       4.48977573      10.60000035      -0.00000000       0.00000000      -0.10206629      -6.54647390
Al      23.32955904       4.48977573      12.49756319      -0.00000000       0.00000000       0.10206629      -5.64590157
N       23.32955904       2.69386544      13.09951298       0.00000000      -0.00000000      -0.10206629      -6.54647390
Al      23.32955904       2.69386544      14.99707583       0.00000000      -0.00000000       0.10206629      -5.64590157
N       23.32955904       4.48977573      15.59902562      -0.00000000       0.00000000      -0.10206629      -6.54647390
Al      23.32955904       4.48977573      17.49658847      -0.00000000      -0.00000000       0.10206629      -5.64590157
N       23.32955904       2.69386544      18.09853826       0.00000000      -0.00000000      -0.10206629      -6.54647390
Al      23.32955904       2.69386544      19.99610111       0.00000000      -0.00000000       0.10206629      -5.64590157
N       23.32955904       4.48977573      20.59805090      -0.00000000       0.00000000      -0.10206629      -6.54647390
Al      23.32955904       4.48977573      22.49561374      -0.00000000      -0.00000000       0.10206629      -5.64590157
N       23.32955904       2.69386544      23.09756354       0.00000000      -0.00000000      -0.10206629      -6.54647390
Al      23.32955904       2.69386544      24.99512638       0.00000000      -0.00000000       0.10206629      -5.64590157
N       23.32955904       4.48977573      25.59707618      -0.00000000       0.00000000      -0.10206629      -6.54647390
Al      23.32955904       4.48977573      27.49463902      -0.00000000      -0.00000000       0.10206629      -5.64590157
N       23.32955904       2.69386544      28.09658881       0.00000000      -0.00000000      -0.10206629      -6.54647390
Al      23.32955904       2.69386544      29.99415166       0.00000000      -0.00000000       0.10206629      -5.64590157
N       23.32955904       4.48977573      30.59610145      -0.00000000      -0.00000000      -0.10206629      -6.54647390
Al      23.32955904       4.48977573      32.49366430      -0.00000000      -0.00000000       0.10206629      -5.64590157
N       23.32955904       2.69386544      33.09561409       0.00000000      -0.00000000      -0.10206629      -6.54647390
Al      23.32955904       2.69386544      34.99317694       0.00000000      -0.00000000       0.10206629      -5.64590157
N       23.32955904       4.48977573      35.59512673      -0.00000000      -0.00000000      -0.10206629      -6.54647390
Al      23.32955904       4.48977573      37.49268957      -0.00000000      -0.00000000       0.10206629      -5.64590157
N       23.32955904       2.69386544      38.09463937       0.00000000      -0.00000000      -0.10206629      -6.54647390
Al      23.32955904       2.69386544      39.99220221       0.00000000      -0.00000000       0.10206629      -5.64590157
N       23.32955904       4.48977573      40.59415201      -0.00000000      -0.00000000      -0.10206629      -6.54647390
Al      23.32955904       4.48977573      42.49171485      -0.00000000      -0.00000000       0.10206629      -5.64590157
N       23.32955904       2.69386544      43.09366464       0.00000000      -0.00000000      -0.10206629      -6.54647390
Al      21.77425510       5.38773088       0.00000000      -0.00000000      -0.00000000       0.10206629      -5.64590157
N       21.77425510       7.18364117       0.60194979      -0.00000000      -0.00000000      -0.10206629      -6.54647390
Al      21.77425510       7.18364117       2.49951264      -0.00000000      -0.00000000       0.10206629      -5.64590157
N       21.77425510       5.38773088       3.10146243      -0.00000000      -0.00000000      -0.10206629      -6.54647390
Al      21.77425510       5.38773088       4.99902528      -0.00000000      -0.00000000       0.10206629      -5.64590157
N       21.77425510       7.18364117       5.60097507      -0.00000000      -0.00000000      -0.10206629      -6.54647390
Al      21.77425510       7.18364117       7.49853791      -0.00000000      -0.00000000       0.10206629      -5.64590157
N       21.77425510       5.38773088       8.10048771      -0.00000000      -0.00000000      -0.10206629      -6.54647390
Al      21.77425510       5.38773088       9.99805055      -0.00000000      -0.00000000       0.10206629      -5.64590157
N       21.77425510       7.18364117      10.60000035      -0.00000000      -0.00000000      -0.10206629      -6.54647390
Al      21.77425510       7.18364117      12.49756319      -0.00000000      -0.00000000       0.10206629      -5.64590157
N       21.77425510       5.38773088      13.09951298      -0.00000000       0.00000000      -0.10206629      -6.54647390
Al      21.77425510       5.38773088      14.99707583      -0.00000000      -0.00000000       0.10206629      -5.64590157
N       21.77425510       7.18364117      15.59902562      -0.00000000       0.00000000      -0.10206629      -6.54647390
Al      21.77425510       7.18364117      17.49658847      -0.00000000      -0.00000000       0.10206629      -5.64590157
N       21.77425510       5.38773088      18.09853826      -0.00000000       0.00000000      -0.10206629      -6.54647390
Al      21.77425510       5.38773088      19.99610111      -0.00000000      -0.00000000       0.10206629      -5.64590157
N       21.77425510       7.18364117      20.59805090      -0.00000000      -0.00000000      -0.10206629      -6.54647390
Al      21.77425510       7.18364117      22.49561374      -0.00000000      -0.00000000       0.10206629      -5.64590157
N       21.77425510       5.38773088      23.09756354      -0.00000000       0.00000000      -0.10206629      -6.54647390
Al      21.77425510       5.38773088      24.99512638      -0.00000000       0.00000000       0.10206629      -5.64590157
N       21.77425510       7.18364117      25.59707618      -0.00000000      -0.00000000      -0.10206629      -6.54647390
Al      21.77425510       7.18364117      27.49463902      -0.00000000      -0.00000000       0.10206629      -5.64590157
N       21.77425510       5.38773088      28.09658881      -0.00000000      -0.00000000      -0.10206629      -6.54647390
Al      21.77425510       5.38773088      29.99415166      -0.00000000      -0.00000000       0.10206629      -5.64590157
N       21.77425510       7.18364117      30.59610145      -0.00000000      -0.00000000      -0.10206629      -6.54647390
Al      21.77425510       7.18364117      32.49366430      -0.00000000      -0.00000000       0.10206629      -5.64590157
N       21.77425510       5.38773088      33.09561409      -0.00000000      -0.00000000      -0.10206629      -6.54647390
Al      21.77425510       5.38773088      34.99317694      -0.00000000      -0.00000000       0.10206629      -5.64590157
N       21.77425510       7.18364117      35.59512673      -0.00000000      -0.00000000      -0.10206629      -6.54647390
Al      21.77425510       7.18364117      37.49268957      -0.00000000      -0.00000000       0.10206629      -5.64590157
N       21.77425510       5.38773088      38.09463937      -0.00000000       0.00000000      -0.10206629      -6.54647390
Al      21.77425510       5.38773088      39.99220221      -0.00000000       0.00000000       0.10206629      -5.64590157
N       21.77425510       7.18364117      40.59415201      -0.00000000      -0.00000000      -0.10206629      -6.54647390
Al      21.77425510       7.18364117      42.49171485      -0.00000000      -0.00000000       0.10206629      -5.64590157
N       21.77425510       5.38773088      43.09366464      -0.00000000       0.00000000      -0.10206629      -6.54647390
Al      20.21895116       8.08159631       0.00000000      -0.00000000      -0.00000000       0.10206629      -5.64590157
N       20.21895116       9.87750661       0.60194979       0.00000000       0.00000000      -0.10206629      -6.54647390
Al      20.21895116       9.87750661       2.49951264       0.00000000       0.00000000       0.10206629      -5.64590157
N       20.21895116       8.08159631       3.10146243      -0.00000000      -0.00000000      -0.10206629      -6.54647390
Al      20.21895116       8.08159631       4.99902528      -0.00000000      -0.00000000       0.10206629      -5.64590157
N       20.21895116       9.87750661       5.60097507       0.00000000       0.00000000      -0.10206629      -6.54647390
Al      20.21895116       9.87750661       7.49853791       0.00000000       0.00000000       0.10206629      -5.64590157
N       20.21895116       8.08159631       8.10048771      -0.00000000      -0.00000000      -0.10206629      -6.54647390
Al      20.21895116       8.08159631       9.99805055      -0.00000000      -0.00000000       0.10206629      -5.64590157
N       20.21895116       9.87750661      10.60000035       0.00000000       0.00000000      -0.10206629      -6.54647390
Al      20.21895116       9.87750661      12.49756319       0.00000000       0.00000000       0.10206629      -5.64590157
N       20.21895116       8.08159631      13.09951298      -0.00000000      -0.00000000      -0.10206629      -6.54647390
Al      20.21895116       8.08159631      14.99707583      -0.00000000      -0.00000000       0.10206629      -5.64590157
N       20.21895116       9.87750661      15.59902562       0.00000000       0.00000000      -0.10206629      -6.54647390
Al      20.21895116       9.87750661      17.49658847       0.00000000       0.00000000       0.10206629      -5.64590157
N       20.21895116       8.08159631      18.09853826      -0.00000000      -0.00000000      -0.10206629      -6.54647390
Al      20.21895116       8.08159631      19.99610111      -0.00000000      -0.00000000       0.10206629      -5.64590157
N       20.21895116       9.87750661      20.59805090       0.00000000       0.00000000      -0.10206629      -6.54647390
Al      20.21895116       9.87750661      22.49561374       0.00000000       0.00000000       0.10206629      -5.64590157
N       20.21895116       8.08159631      23.09756354      -0.00000000      -0.00000000      -0.10206629      -6.54647390
Al      20.21895116       8.08159631      24.99512638      -0.00000000      -0.00000000       0.10206629      -5.64590157
N       20.21895116       9.87750661      25.59707618       0.00000000       0.00000000      -0.10206629      -6.54647390
Al      20.21895116       9.87750661      27.49463902       0.00000000       0.00000000       0.10206629      -5.64590157
N       20.21895116       8.08159631      28.09658881      -0.00000000      -0.00000000      -0.10206629      -6.54647390
Al      20.21895116       8.08159631      29.99415166      -0.00000000      -0.00000000       0.10206629      -5.64590157
N       20.21895116       9.87750661      30.59610145       0.00000000       0.00000000      -0.10206629      -6.54647390
Al      20.21895116       9.87750661      32.49366430       0.00000000       0.00000000       0.10206629      -5.64590157
N       20.21895116       8.08159631      33.09561409      -0.00000000      -0.00000000      -0.10206629      -6.54647390
Al      20.21895116       8.08159631      34.99317694      -0.00000000      -0.00000000       0.10206629      -5.64590157
N       20.21895116       9.87750661      35.59512673       0.00000000       0.00000000      -0.10206629      -6.54647390
Al      20.21895116       9.87750661      37.49268957       0.00000000       0.00000000       0.10206629      -5.64590157
N       20.21895116       8.08159631      38.09463937      -0.00000000      -0.00000000      -0.10206629      -6.54647390
Al      20.21895116       8.08159631      39.99220221      -0.00000000      -0.00000000       0.10206629      -5.64590157
N       20.21895116       9.87750661      40.59415201       0.00000000       0.00000000      -0.10206629      -6.54647390
Al      20.21895116       9.87750661      42.49171485       0.00000000       0.00000000       0.10206629      -5.64590157
N       20.21895116       8.08159631      43.09366464      -0.00000000      -0.00000000      -0.10206629      -6.54647390
Al      18.66364723      10.77546175       0.00000000      -0.00000000       0.00000000       0.10206629      -5.64590157
N       18.66364723      12.57137204       0.60194979       0.00000000       0.00000000      -0.10206629      -6.54647390
Al      18.66364723      12.57137204       2.49951264       0.00000000       0.00000000       0.10206629      -5.64590157
N       18.66364723      10.77546175       3.10146243      -0.00000000      -0.00000000      -0.10206629      -6.54647390
Al      18.66364723      10.77546175       4.99902528      -0.00000000       0.00000000       0.10206629      -5.64590157
N       18.66364723      12.57137204       5.60097507       0.00000000       0.00000000      -0.10206629      -6.54647390
Al      18.66364723      12.57137204       7.49853791       0.00000000      -0.00000000       0.10206629      -5.64590157
N       18.66364723      10.77546175       8.10048771      -0.00000000       0.00000000      -0.10206629      -6.54647390
Al      18.66364723      10.77546175       9.99805055      -0.00000000       0.00000000       0.10206629      -5.64590157
N       18.66364723      12.57137204      10.60000035       0.00000000       0.00000000      -0.10206629      -6.54647390
Al      18.66364723      12.57137204      12.49756319       0.00000000      -0.00000000       0.10206629      -5.64590157
N       18.66364723      10.77546175      13.09951298      -0.00000000       0.00000000      -0.10206629      -6.54647390
Al      18.66364723      10.77546175      14.99707583      -0.00000000       0.00000000       0.10206629      -5.64590157
N       18.66364723      12.57137204      15.59902562       0.00000000       0.00000000      -0.10206629      -6.54647390
Al      18.66364723      12.57137204      17.49658847       0.00000000       0.00000000       0.10206629      -5.64590157
N       18.66364723      10.77546175      18.09853826      -0.00000000       0.00000000      -0.10206629      -6.54647390
Al      18.66364723      10.77546175      19.99610111      -0.00000000       0.00000000       0.10206629      -5.64590157
N       18.66364723      12.57137204      20.59805090       0.00000000       0.00000000      -0.10206629      -6.54647390
Al      18.66364723      12.57137204      22.49561374       0.00000000       0.00000000       0.10206629      -5.64590157
N       18.66364723      10.77546175      23.09756354      -0.00000000       0.00000000      -0.10206629      -6.54647390
Al      18.66364723      10.77546175      24.99512638      -0.00000000       0.00000000       0.10206629      -5.64590157
N       18.66364723      12.57137204      25.59707618       0.00000000      -0.00000000      -0.10206629      -6.54647390
Al      18.66364723      12.57137204      27.49463902       0.00000000       0.00000000       0.10206629      -5.64590157
N       18.66364723      10.77546175      28.09658881      -0.00000000      -0.00000000      -0.10206629      -6.54647390
Al      18.66364723      10.77546175      29.99415166      -0.00000000       0.00000000       0.10206629      -5.64590157
N       18.66364723      12.57137204      30.59610145       0.00000000      -0.00000000      -0.10206629      -6.54647390
Al      18.66364723      12.57137204      32.49366430       0.00000000       0.00000000       0.10206629      -5.64590157
N       18.66364723      10.77546175      33.09561409      -0.00000000      -0.00000000      -0.10206629      -6.54647390
Al      18.66364723      10.77546175      34.99317694      -0.00000000       0.00000000       0.10206629      -5.64590157
N       18.66364723      12.57137204      35.59512673       0.00000000       0.00000000      -0.10206629      -6.54647390
Al      18.66364723      12.57137204      37.49268957       0.00000000      -0.00000000       0.10206629      -5.64590157
N       18.66364723      10.77546175      38.09463937      -0.00000000       0.00000000      -0.10206629      -6.54647390
Al      18.66364723      10.77546175      39.99220221      -0.00000000       0.00000000       0.10206629      -5.64590157
N       18.66364723      12.57137204      40.59415201       0.00000000       0.00000000      -0.10206629      -6.54647390
Al      18.66364723      12.57137204      42.49171485       0.00000000       0.00000000       0.10206629      -5.64590157
N       18.66364723      10.77546175      43.09366464      -0.00000000       0.00000000      -0.10206629      -6.54647390
Al      17.10834329      13.46932719       0.00000000       0.00000000       0.00000000       0.10206629      -5.64590157
N       17.10834329      15.26523748       0.60194979       0.00000000       0.00000000      -0.10206629      -6.54647390
Al      17.10834329      15.26523748       2.49951264       0.00000000       0.00000000       0.10206629      -5.64590157
N       17.10834329      13.46932719       3.10146243       0.00000000       0.00000000      -0.10206629      -6.54647390
Al      17.10834329      13.46932719       4.99902528       0.00000000       0.00000000       0.10206629      -5.64590157
N       17.10834329      15.26523748       5.60097507       0.00000000       0.00000000      -0.10206629      -6.54647390
Al      17.10834329      15.26523748       7.49853791       0.00000000       0.00000000       0.10206629      -5.64590157
N       17.10834329      13.46932719       8.10048771       0.00000000       0.00000000      -0.10206629      -6.54647390
Al      17.10834329      13.46932719       9.99805055       0.00000000       0.00000000       0.10206629      -5.64590157
N       17.10834329      15.26523748      10.60000035       0.00000000       0.00000000      -0.10206629      -6.54647390
Al      17.10834329      15.26523748      12.49756319       0.00000000       0.00000000       0.10206629      -5.64590157
N       17.10834329      13.46932719      13.09951298       0.00000000       0.00000000      -0.10206629      -6.54647390
Al      17.10834329      13.46932719      14.99707583       0.00000000       0.00000000       0.10206629      -5.64590157
N       17.10834329      15.26523748      15.59902562      -0.00000000       0.00000000      -0.10206629      -6.54647390
Al      17.10834329      15.26523748      17.49658847       0.00000000       0.00000000       0.10206629      -5.64590157
N       17.10834329      13.46932719      18.09853826       0.00000000       0.00000000      -0.10206629      -6.54647390
Al      17.10834329      13.46932719      19.99610111       0.00000000       0.00000000       0.10206629      -5.64590157
N       17.10834329      15.26523748      20.59805090       0.00000000       0.00000000      -0.10206629      -6.54647390
Al      17.10834329      15.26523748      22.49561374       0.00000000       0.00000000       0.10206629      -5.64590157
N       17.10834329      13.46932719      23.09756354       0.00000000       0.00000000      -0.10206629      -6.54647390
Al      17.10834329      13.46932719      24.99512638       0.00000000       0.00000000       0.10206629      -5.64590157
N       17.10834329      15.26523748      25.59707618       0.00000000       0.00000000      -0.10206629      -6.54647390
Al      17.10834329      15.26523748      27.49463902       0.00000000      -0.00000000       0.10206629      -5.64590157
N       17.10834329      13.46932719      28.09658881       0.00000000       0.00000000      -0.10206629      -6.54647390
Al      17.10834329      13.46932719      29.99415166       0.00000000       0.00000000       0.10206629      -5.64590157
N       17.10834329      15.26523748      30.59610145      -0.00000000       0.00000000      -0.10206629      -6.54647390
Al      17.10834329      15.26523748      32.49366430       0.00000000       0.00000000       0.10206629      -5.64590157
N       17.10834329      13.46932719      33.09561409       0.00000000       0.00000000      -0.10206629      -6.54647390
Al      17.10834329      13.46932719      34.99317694       0.00000000       0.00000000       0.10206629      -5.64590157
N       17.10834329      15.26523748      35.59512673       0.00000000       0.00000000      -0.10206629      -6.54647390
Al      17.10834329      15.26523748      37.49268957       0.00000000       0.00000000       0.10206629      -5.64590157
N       17.10834329      13.46932719      38.09463937       0.00000000       0.00000000      -0.10206629      -6.54647390
Al      17.10834329      13.46932719      39.99220221       0.00000000       0.00000000       0.10206629      -5.64590157
N       17.10834329      15.26523748      40.59415201      -0.00000000       0.00000000      -0.10206629      -6.54647390
Al      17.10834329      15.26523748      42.49171485       0.00000000       0.00000000       0.10206629      -5.64590157
N       17.10834329      13.46932719      43.09366464       0.00000000       0.00000000      -0.10206629      -6.54647390
Al      15.55303936      16.16319263       0.00000000       0.00000000       0.00000000       0.10206629      -5.64590157
N       15.55303936      17.95910292       0.60194979       0.00000000      -0.00000000      -0.10206629      -6.54647390
Al      15.55303936      17.95910292       2.49951264       0.00000000      -0.00000000       0.10206629      -5.64590157
N       15.55303936      16.16319263       3.10146243       0.00000000       0.00000000      -0.10206629      -6.54647390
Al      15.55303936      16.16319263       4.99902528       0.00000000       0.00000000       0.10206629      -5.64590157
N       15.55303936      17.95910292       5.60097507       0.00000000      -0.00000000      -0.10206629      -6.54647390
Al      15.55303936      17.95910292       7.49853791       0.00000000      -0.00000000       0.10206629      -5.64590157
N       15.55303936      16.16319263       8.10048771       0.00000000       0.00000000      -0.10206629      -6.54647390
Al      15.55303936      16.16319263       9.99805055       0.00000000       0.00000000       0.10206629      -5.64590157
N       15.55303936      17.95910292      10.60000035       0.00000000      -0.00000000      -0.10206629      -6.54647390
Al      15.55303936      17.95910292      12.49756319       0.00000000      -0.00000000       0.10206629      -5.64590157
N       15.55303936      16.16319263      13.09951298       0.00000000       0.00000000      -0.10206629      -6.54647390
Al      15.55303936      16.16319263      14.99707583       0.00000000       0.00000000       0.10206629      -5.64590157
N       15.55303936      17.95910292      15.59902562       0.00000000      -0.00000000      -0.10206629      -6.54647390
Al      15.55303936      17.95910292      17.49658847       0.00000000      -0.00000000       0.10206629      -5.64590157
N       15.55303936      16.16319263      18.09853826       0.00000000       0.00000000      -0.10206629      -6.54647390
Al      15.55303936      16.16319263      19.99610111       0.00000000       0.00000000       0.10206629      -5.64590157
N       15.55303936      17.95910292      20.59805090       0.00000000      -0.00000000      -0.10206629      -6.54647390
Al      15.55303936      17.95910292      22.49561374       0.00000000      -0.00000000       0.10206629      -5.64590157
N       15.55303936      16.16319263      23.09756354       0.00000000       0.00000000      -0.10206629      -6.54647390
Al      15.55303936      16.16319263      24.99512638       0.00000000       0.00000000       0.10206629      -5.64590157
N       15.55303936      17.95910292      25.59707618       0.00000000      -0.00000000      -0.10206629      -6.54647390
Al      15.55303936      17.95910292      27.49463902       0.00000000      -0.00000000       0.10206629      -5.64590157
N       15.55303936      16.16319263      28.09658881       0.00000000       0.00000000      -0.10206629      -6.54647390
Al      15.55303936      16.16319263      29.99415166       0.00000000       0.00000000       0.10206629      -5.64590157
N       15.55303936      17.95910292      30.59610145       0.00000000      -0.00000000      -0.10206629      -6.54647390
Al      15.55303936      17.95910292      32.49366430       0.00000000      -0.00000000       0.10206629      -5.64590157
N       15.55303936      16.16319263      33.09561409       0.00000000       0.00000000      -0.10206629      -6.54647390
Al      15.55303936      16.16319263      34.99317694       0.00000000       0.00000000       0.10206629      -5.64590157
N       15.55303936      17.95910292      35.59512673       0.00000000      -0.00000000      -0.10206629      -6.54647390
Al      15.55303936      17.95910292      37.49268957       0.00000000      -0.00000000       0.10206629      -5.64590157
N       15.55303936      16.16319263      38.09463937       0.00000000       0.00000000      -0.10206629      -6.54647390
Al      15.55303936      16.16319263      39.99220221       0.00000000       0.00000000       0.10206629      -5.64590157
N       15.55303936      17.95910292      40.59415201       0.00000000      -0.00000000      -0.10206629      -6.54647390
Al      15.55303936      17.95910292      42.49171485       0.00000000      -0.00000000       0.10206629      -5.64590157
N       15.55303936      16.16319263      43.09366464       0.00000000       0.00000000      -0.10206629      -6.54647390
Al      13.99773542      18.85705806       0.00000000      -0.00000000      -0.00000000       0.10206629      -5.64590157
N       13.99773542      20.65296836       0.60194979       0.00000000       0.00000000      -0.10206629      -6.54647390
Al      13.99773542      20.65296836       2.49951264       0.00000000       0.00000000       0.10206629      -5.64590157
N       13.99773542      18.85705806       3.10146243      -0.00000000      -0.00000000      -0.10206629      -6.54647390
Al      13.99773542      18.85705806       4.99902528      -0.00000000      -0.00000000       0.10206629      -5.64590157
N       13.99773542      20.65296836       5.60097507       0.00000000       0.00000000      -0.10206629      -6.54647390
Al      13.99773542      20.65296836       7.49853791       0.00000000       0.00000000       0.10206629      -5.64590157
N       13.99773542      18.85705806       8.10048771      -0.00000000      -0.00000000      -0.10206629      -6.54647390
Al      13.99773542      18.85705806       9.99805055      -0.00000000      -0.00000000       0.10206629      -5.64590157
N       13.99773542      20.65296836      10.60000035       0.00000000       0.00000000      -0.10206629      -6.54647390
Al      13.99773542      20.65296836      12.49756319       0.00000000       0.00000000       0.10206629      -5.64590157
N       13.99773542      18.85705806      13.09951298      -0.00000000      -0.00000000      -0.10206629      -6.54647390
Al      13.99773542      18.85705806      14.99707583      -0.00000000      -0.00000000       0.10206629      -5.64590157
N       13.99773542      20.65296836      15.59902562       0.00000000       0.00000000      -0.10206629      -6.54647390
Al      13.99773542      20.65296836      17.49658847       0.00000000       0.00000000       0.10206629      -5.64590157
N       13.99773542      18.85705806      18.09853826      -0.00000000      -0.00000000      -0.10206629      -6.54647390
Al      13.99773542      18.85705806      19.99610111      -0.00000000      -0.00000000       0.10206629      -5.64590157
N       13.99773542      20.65296836      20.59805090       0.00000000       0.00000000      -0.10206629      -6.54647390
Al      13.99773542      20.65296836      22.49561374       0.00000000       0.00000000       0.10206629      -5.64590157
N       13.99773542      18.85705806      23.09756354      -0.00000000      -0.00000000      -0.10206629      -6.54647390
Al      13.99773542      18.85705806      24.99512638      -0.00000000      -0.00000000       0.10206629      -5.64590157
N       13.99773542      20.65296836      25.59707618       0.00000000       0.00000000      -0.10206629      -6.54647390
Al      13.99773542      20.65296836      27.49463902       0.00000000       0.00000000       0.10206629      -5.64590157
N       13.99773542      18.85705806      28.09658881      -0.00000000      -0.00000000      -0.10206629      -6.54647390
Al      13.99773542      18.85705806      29.99415166      -0.00000000      -0.00000000       0.10206629      -5.64590157
N       13.99773542      20.65296836      30.59610145       0.00000000       0.00000000      -0.10206629      -6.54647390
Al      13.99773542      20.65296836      32.49366430       0.00000000       0.00000000       0.10206629      -5.64590157
N       13.99773542      18.85705806      33.09561409      -0.00000000      -0.00000000      -0.10206629      -6.54647390
Al      13.99773542      18.85705806      34.99317694      -0.00000000      -0.00000000       0.10206629      -5.64590157
N       13.99773542      20.65296836      35.59512673       0.00000000       0.00000000      -0.10206629      -6.54647390
Al      13.99773542      20.65296836      37.49268957       0.00000000       0.00000000       0.10206629      -5.64590157
N       13.99773542      18.85705806      38.09463937      -0.00000000      -0.00000000      -0.10206629      -6.54647390
Al      13.99773542      18.85705806      39.99220221      -0.00000000      -0.00000000       0.10206629      -5.64590157
N       13.99773542      20.65296836      40.59415201       0.00000000       0.00000000      -0.10206629      -6.54647390
Al      13.99773542      20.65296836      42.49171485       0.00000000       0.00000000       0.10206629      -5.64590157
N       13.99773542      18.85705806      43.09366464      -0.00000000      -0.00000000      -0.10206629      -6.54647390
Al      12.44243149      21.55092350      -0.00000000      -0.00000000      -0.00000000       0.10206629      -5.64590157
N       12.44243149      23.34683379       0.60194979       0.00000000       0.00000000      -0.10206629      -6.54647390
Al      12.44243149      23.34683379       2.49951264       0.00000000       0.00000000       0.10206629      -5.64590157
N       12.44243149      21.55092350       3.10146243      -0.00000000      -0.00000000      -0.10206629      -6.54647390
Al      12.44243149      21.55092350       4.99902528      -0.00000000       0.00000000       0.10206629      -5.64590157
N       12.44243149      23.34683379       5.60097507       0.00000000       0.00000000      -0.10206629      -6.54647390
Al      12.44243149      23.34683379       7.49853791       0.00000000       0.00000000       0.10206629      -5.64590157
N       12.44243149      21.55092350       8.10048771      -0.00000000      -0.00000000      -0.10206629      -6.54647390
Al      12.44243149      21.55092350       9.99805055      -0.00000000       0.00000000       0.10206629      -5.64590157
N       12.44243149      23.34683379      10.60000035       0.00000000       0.00000000      -0.10206629      -6.54647390
Al      12.44243149      23.34683379      12.49756319       0.00000000       0.00000000       0.10206629      -5.64590157
N       12.44243149      21.55092350      13.09951298      -0.00000000      -0.00000000      -0.10206629      -6.54647390
Al      12.44243149      21.55092350      14.99707583      -0.00000000       0.00000000       0.10206629      -5.64590157
N       12.44243149      23.34683379      15.59902562       0.00000000       0.00000000      -0.10206629      -6.54647390
Al      12.44243149      23.34683379      17.49658847       0.00000000       0.00000000       0.10206629      -5.64590157
N       12.44243149      21.55092350      18.09853826      -0.00000000      -0.00000000      -0.10206629      -6.54647390
Al      12.44243149      21.55092350      19.99610111      -0.00000000       0.00000000       0.10206629      -5.64590157
N       12.44243149      23.34683379      20.59805090       0.00000000       0.00000000      -0.10206629      -6.54647390
Al      12.44243149      23.34683379      22.49561374       0.00000000       0.00000000       0.10206629      -5.64590157
N       12.44243149      21.55092350      23.09756354      -0.00000000      -0.00000000      -0.10206629      -6.54647390
Al      12.44243149      21.55092350      24.99512638      -0.00000000      -0.00000000       0.10206629      -5.64590157
N       12.44243149      23.34683379      25.59707618       0.00000000       0.00000000      -0.10206629      -6.54647390
Al      12.44243149      23.34683379      27.49463902       0.00000000       0.00000000       0.10206629      -5.64590157
N       12.44243149      21.55092350      28.09658881      -0.00000000       0.00000000      -0.10206629      -6.54647390
Al      12.44243149      21.55092350      29.99415166      -0.00000000      -0.00000000       0.10206629      -5.64590157
N       12.44243149      23.34683379      30.59610145       0.00000000       0.00000000      -0.10206629      -6.54647390
Al      12.44243149      23.34683379      32.49366430       0.00000000       0.00000000       0.10206629      -5.64590157
N       12.44243149      21.55092350      33.09561409      -0.00000000       0.00000000      -0.10206629      -6.54647390
Al      12.44243149      21.55092350      34.99317694      -0.00000000       0.00000000       0.10206629      -5.64590157
N       12.44243149      23.34683379      35.59512673       0.00000000       0.00000000      -0.10206629      -6.54647390
Al      12.44243149      23.34683379      37.49268957       0.00000000       0.00000000       0.10206629      -5.64590157
N       12.44243149      21.55092350      38.09463937      -0.00000000      -0.00000000      -0.10206629      -6.54647390
Al      12.44243149      21.55092350      39.99220221      -0.00000000      -0.00000000       0.10206629      -5.64590157
N       12.44243149      23.34683379      40.59415201       0.00000000       0.00000000      -0.10206629      -6.54647390
Al      12.44243149      23.34683379      42.49171485       0.00000000       0.00000000       0.10206629      -5.64590157
N       12.44243149      21.55092350      43.09366464      -0.00000000       0.00000000      -0.10206629      -6.54647390
Al      10.88712755      24.24478894      -0.00000000      -0.00000000      -0.00000000       0.10206629      -5.64590157
N       10.88712755      26.04069923       0.60194979       0.00000000       0.00000000      -0.10206629      -6.54647390
Al      10.88712755      26.04069923       2.49951264       0.00000000      -0.00000000       0.10206629      -5.64590157
N       10.88712755      24.24478894       3.10146243      -0.00000000      -0.00000000      -0.10206629      -6.54647390
Al      10.88712755      24.24478894       4.99902528      -0.00000000      -0.00000000       0.10206629      -5.64590157
N       10.88712755      26.04069923       5.60097507       0.00000000       0.00000000      -0.10206629      -6.54647390
Al      10.88712755      26.04069923       7.49853791       0.00000000      -0.00000000       0.10206629      -5.64590157
N       10.88712755      24.24478894       8.10048771      -0.00000000      -0.00000000      -0.10206629      -6.54647390
Al      10.88712755      24.24478894       9.99805055      -0.00000000      -0.00000000       0.10206629      -5.64590157
N       10.88712755      26.04069923      10.60000035       0.00000000       0.00000000      -0.10206629      -6.54647390
Al      10.88712755      26.04069923      12.49756319       0.00000000      -0.00000000       0.10206629      -5.64590157
N       10.88712755      24.24478894      13.09951298      -0.00000000      -0.00000000      -0.10206629      -6.54647390
Al      10.88712755      24.24478894      14.99707583      -0.00000000      -0.00000000       0.10206629      -5.64590157
N       10.88712755      26.04069923      15.59902562       0.00000000       0.00000000      -0.10206629      -6.54647390
Al      10.88712755      26.04069923      17.49658847       0.00000000      -0.00000000       0.10206629      -5.64590157
N       10.88712755      24.24478894      18.09853826      -0.00000000      -0.00000000      -0.10206629      -6.54647390
Al      10.88712755      24.24478894      19.99610111      -0.00000000      -0.00000000       0.10206629      -5.64590157
N       10.88712755      26.04069923      20.59805090       0.00000000       0.00000000      -0.10206629      -6.54647390
Al      10.88712755      26.04069923      22.49561374       0.00000000      -0.00000000       0.10206629      -5.64590157
N       10.88712755      24.24478894      23.09756354      -0.00000000      -0.00000000      -0.10206629      -6.54647390
Al      10.88712755      24.24478894      24.99512638      -0.00000000      -0.00000000       0.10206629      -5.64590157
N       10.88712755      26.04069923      25.59707618       0.00000000       0.00000000      -0.10206629      -6.54647390
Al      10.88712755      26.04069923      27.49463902       0.00000000      -0.00000000       0.10206629      -5.64590157
N       10.88712755      24.24478894      28.09658881      -0.00000000      -0.00000000      -0.10206629      -6.54647390
Al      10.88712755      24.24478894      29.99415166      -0.00000000      -0.00000000       0.10206629      -5.64590157
N       10.88712755      26.04069923      30.59610145       0.00000000      -0.00000000      -0.10206629      -6.54647390
Al      10.88712755      26.04069923      32.49366430       0.00000000      -0.00000000       0.10206629      -5.64590157
N       10.88712755      24.24478894      33.09561409      -0.00000000      -0.00000000      -0.10206629      -6.54647390
Al      10.88712755      24.24478894      34.99317694      -0.00000000      -0.00000000       0.10206629      -5.64590157
N       10.88712755      26.04069923      35.59512673       0.00000000       0.00000000      -0.10206629      -6.54647390
Al      10.88712755      26.04069923      37.49268957       0.00000000      -0.00000000       0.10206629      -5.64590157
N       10.88712755      24.24478894      38.09463937      -0.00000000      -0.00000000      -0.10206629      -6.54647390
Al      10.88712755      24.24478894      39.99220221      -0.00000000      -0.00000000       0.10206629      -5.64590157
N       10.88712755      26.04069923      40.59415201       0.00000000      -0.00000000      -0.10206629      -6.54647390
Al      10.88712755      26.04069923      42.49171485       0.00000000       0.00000000       0.10206629      -5.64590157
N       10.88712755      24.24478894      43.09366464      -0.00000000      -0.00000000      -0.10206629      -6.54647390
Al       9.33182361      26.93865438      -0.00000000       0.00000000       0.00000000       0.10206629      -5.64590157
N        9.33182361      28.73456467       0.60194979      -0.00000000       0.00000000      -0.10206629      -6.54647390
Al       9.33182361      28.73456467       2.49951264      -0.00000000       0.00000000       0.10206629      -5.64590157
N        9.33182361      26.93865438       3.10146243       0.00000000       0.00000000      -0.10206629      -6.54647390
Al       9.33182361      26.93865438       4.99902528       0.00000000      -0.00000000       0.10206629      -5.64590157
N        9.33182361      28.73456467       5.60097507      -0.00000000       0.00000000      -0.10206629      -6.54647390
Al       9.33182361      28.73456467       7.49853791      -0.00000000       0.00000000       0.10206629      -5.64590157
N        9.33182361      26.93865438       8.10048771       0.00000000       0.00000000      -0.10206629      -6.54647390
Al       9.33182361      26.93865438       9.99805055       0.00000000      -0.00000000       0.10206629      -5.64590157
N        9.33182361      28.73456467      10.60000035      -0.00000000       0.00000000      -0.10206629      -6.54647390
Al       9.33182361      28.73456467      12.49756319      -0.00000000       0.00000000       0.10206629      -5.64590157
N        9.33182361      26.93865438      13.09951298       0.00000000       0.00000000      -0.10206629      -6.54647390
Al       9.33182361      26.93865438      14.99707583       0.00000000      -0.00000000       0.10206629      -5.64590157
N        9.33182361      28.73456467      15.59902562      -0.00000000       0.00000000      -0.10206629      -6.54647390
Al       9.33182361      28.73456467      17.49658847      -0.00000000       0.00000000       0.10206629      -5.64590157
N        9.33182361      26.93865438      18.09853826       0.00000000      -0.00000000      -0.10206629      -6.54647390
Al       9.33182361      26.93865438      19.99610111       0.00000000      -0.00000000       0.10206629      -5.64590157
N        9.33182361      28.73456467      20.59805090      -0.00000000       0.00000000      -0.10206629      -6.54647390
Al       9.33182361      28.73456467      22.49561374      -0.00000000       0.00000000       0.10206629      -5.64590157
N        9.33182361      26.93865438      23.09756354       0.00000000      -0.00000000      -0.10206629      -6.54647390
Al       9.33182361      26.93865438      24.99512638       0.00000000      -0.00000000       0.10206629      -5.64590157
N        9.33182361      28.73456467      25.59707618      -0.00000000       0.00000000      -0.10206629      -6.54647390
Al       9.33182361      28.73456467      27.49463902      -0.00000000       0.00000000       0.10206629      -5.64590157
N        9.33182361      26.93865438      28.09658881       0.00000000      -0.00000000      -0.10206629      -6.54647390
Al       9.33182361      26.93865438      29.99415166       0.00000000       0.00000000       0.10206629      -5.64590157
N        9.33182361      28.73456467      30.59610145      -0.00000000       0.00000000      -0.10206629      -6.54647390
Al       9.33182361      28.73456467      32.49366430      -0.00000000       0.00000000       0.10206629      -5.64590157
N        9.33182361      26.93865438      33.09561409       0.00000000      -0.00000000      -0.10206629      -6.54647390
Al       9.33182361      26.93865438      34.99317694       0.00000000      -0.00000000       0.10206629      -5.64590157
N        9.33182361      28.73456467      35.59512673      -0.00000000       0.00000000      -0.10206629      -6.54647390
Al       9.33182361      28.73456467      37.49268957      -0.00000000       0.00000000       0.10206629      -5.64590157
N        9.33182361      26.93865438      38.09463937       0.00000000      -0.00000000      -0.10206629      -6.54647390
Al       9.33182361      26.93865438      39.99220221       0.00000000       0.00000000       0.10206629      -5.64590157
N        9.33182361      28.73456467      40.59415201      -0.00000000       0.00000000      -0.10206629      -6.54647390
Al       9.33182361      28.73456467      42.49171485      -0.00000000       0.00000000       0.10206629      -5.64590157
N        9.33182361      26.93865438      43.09366464       0.00000000      -0.00000000      -0.10206629      -6.54647390
Al       7.77651968      29.63251982      -0.00000000       0.00000000       0.00000000       0.10206629      -5.64590157
N        7.77651968      31.42843011       0.60194979      -0.00000000      -0.00000000      -0.10206629      -6.54647390
Al       7.77651968      31.42843011       2.49951264      -0.00000000      -0.00000000       0.10206629      -5.64590157
N        7.77651968      29.63251982       3.10146243       0.00000000       0.00000000      -0.10206629      -6.54647390
Al       7.77651968      29.63251982       4.99902528       0.00000000       0.00000000       0.10206629      -5.64590157
N        7.77651968      31.42843011       5.60097507      -0.00000000      -0.00000000      -0.10206629      -6.54647390
Al       7.77651968      31.42843011       7.49853791      -0.00000000      -0.00000000       0.10206629      -5.64590157
N        7.77651968      29.63251982       8.10048771       0.00000000       0.00000000      -0.10206629      -6.54647390
Al       7.77651968      29.63251982       9.99805055       0.00000000       0.00000000       0.10206629      -5.64590157
N        7.77651968      31.42843011      10.60000035      -0.00000000      -0.00000000      -0.10206629      -6.54647390
Al       7.77651968      31.42843011      12.49756319      -0.00000000      -0.00000000       0.10206629      -5.64590157
N        7.77651968      29.63251982      13.09951298       0.00000000       0.00000000      -0.10206629      -6.54647390
Al       7.77651968      29.63251982      14.99707583       0.00000000       0.00000000       0.10206629      -5.64590157
N        7.77651968      31.42843011      15.59902562      -0.00000000      -0.00000000      -0.10206629      -6.54647390
Al       7.77651968      31.42843011      17.49658847      -0.00000000      -0.00000000       0.10206629      -5.64590157
N        7.77651968      29.63251982      18.09853826       0.00000000       0.00000000      -0.10206629      -6.54647390
Al       7.77651968      29.63251982      19.99610111       0.00000000       0.00000000       0.10206629      -5.64590157
N        7.77651968      31.42843011      20.59805090      -0.00000000      -0.00000000      -0.10206629      -6.54647390
Al       7.77651968      31.42843011      22.49561374      -0.00000000      -0.00000000       0.10206629      -5.64590157
N        7.77651968      29.63251982      23.09756354       0.00000000       0.00000000      -0.10206629      -6.54647390
Al       7.77651968      29.63251982      24.99512638       0.00000000       0.00000000       0.10206629      -5.64590157
N        7.77651968      31.42843011      25.59707618      -0.00000000      -0.00000000      -0.10206629      -6.54647390
Al       7.77651968      31.42843011      27.49463902      -0.00000000      -0.00000000       0.10206629      -5.64590157
N        7.77651968      29.63251982      28.09658881       0.00000000       0.00000000      -0.10206629      -6.54647390
Al       7.77651968      29.63251982      29.99415166       0.00000000       0.00000000       0.10206629      -5.64590157
N        7.77651968      31.42843011      30.59610145      -0.00000000      -0.00000000      -0.10206629      -6.54647390
Al       7.77651968      31.42843011      32.49366430      -0.00000000      -0.00000000       0.10206629      -5.64590157
N        7.77651968      29.63251982      33.09561409       0.00000000       0.00000000      -0.10206629      -6.54647390
Al       7.77651968      29.63251982      34.99317694       0.00000000       0.00000000       0.10206629      -5.64590157
N        7.77651968      31.42843011      35.59512673      -0.00000000      -0.00000000      -0.10206629      -6.54647390
Al       7.77651968      31.42843011      37.49268957      -0.00000000      -0.00000000       0.10206629      -5.64590157
N        7.77651968      29.63251982      38.09463937       0.00000000       0.00000000      -0.10206629      -6.54647390
Al       7.77651968      29.63251982      39.99220221       0.00000000       0.00000000       0.10206629      -5.64590157
N        7.77651968      31.42843011      40.59415201      -0.00000000      -0.00000000      -0.10206629      -6.54647390
Al       7.77651968      31.42843011      42.49171485      -0.00000000      -0.00000000       0.10206629      -5.64590157
N        7.77651968      29.63251982      43.09366464       0.00000000       0.00000000      -0.10206629      -6.54647390
Al       6.22121574      32.32638525      -0.00000000       0.00000000       0.00000000       0.10206629      -5.64590157
N        6.22121574      34.12229555       0.60194979       0.00000000       0.00000000      -0.10206629      -6.54647390
Al       6.22121574      34.12229555       2.49951264       0.00000000       0.00000000       0.10206629      -5.64590157
N        6.22121574      32.32638525       3.10146243       0.00000000       0.00000000      -0.10206629      -6.54647390
Al       6.22121574      32.32638525       4.99902528       0.00000000       0.00000000       0.10206629      -5.64590157
N        6.22121574      34.12229555       5.60097507       0.00000000      -0.00000000      -0.10206629      -6.54647390
Al       6.22121574      34.12229555       7.49853791       0.00000000       0.00000000       0.10206629      -5.64590157
N        6.22121574      32.32638525       8.10048771       0.00000000       0.00000000      -0.10206629      -6.54647390
Al       6.22121574      32.32638525       9.99805055       0.00000000       0.00000000       0.10206629      -5.64590157
N        6.22121574      34.12229555      10.60000035       0.00000000      -0.00000000      -0.10206629      -6.54647390
Al       6.22121574      34.12229555      12.49756319       0.00000000       0.00000000       0.10206629      -5.64590157
N        6.22121574      32.32638525      13.09951298       0.00000000       0.00000000      -0.10206629      -6.54647390
Al       6.22121574      32.32638525      14.99707583       0.00000000       0.00000000       0.10206629      -5.64590157
N        6.22121574      34.12229555      15.59902562       0.00000000      -0.00000000      -0.10206629      -6.54647390
Al       6.22121574      34.12229555      17.49658847       0.00000000       0.00000000       0.10206629      -5.64590157
N        6.22121574      32.32638525      18.09853826       0.00000000       0.00000000      -0.10206629      -6.54647390
Al       6.22121574      32.32638525      19.99610111       0.00000000       0.00000000       0.10206629      -5.64590157
N        6.22121574      34.12229555      20.59805090       0.00000000      -0.00000000      -0.10206629      -6.54647390
Al       6.22121574      34.12229555      22.49561374       0.00000000       0.00000000       0.10206629      -5.64590157
N        6.22121574      32.32638525      23.09756354       0.00000000       0.00000000      -0.10206629      -6.54647390
Al       6.22121574      32.32638525      24.99512638       0.00000000       0.00000000       0.10206629      -5.64590157
N        6.22121574      34.12229555      25.59707618       0.00000000      -0.00000000      -0.10206629      -6.54647390
Al       6.22121574      34.12229555      27.49463902       0.00000000      -0.00000000       0.10206629      -5.64590157
N        6.22121574      32.32638525      28.09658881       0.00000000       0.00000000      -0.10206629      -6.54647390
Al       6.22121574      32.32638525      29.99415166       0.00000000       0.00000000       0.10206629      -5.64590157
N        6.22121574      34.12229555      30.59610145       0.00000000      -0.00000000      -0.10206629      -6.54647390
Al       6.22121574      34.12229555      32.49366430       0.00000000       0.00000000       0.10206629      -5.64590157
N        6.22121574      32.32638525      33.09561409       0.00000000       0.00000000      -0.10206629      -6.54647390
Al       6.22121574      32.32638525      34.99317694       0.00000000       0.00000000       0.10206629      -5.64590157
N        6.22121574      34.12229555      35.59512673       0.00000000      -0.00000000      -0.10206629      -6.54647390
Al       6.22121574      34.12229555      37.49268957       0.00000000       0.00000000       0.10206629      -5.64590157
N        6.22121574      32.32638525      38.09463937       0.00000000       0.00000000      -0.10206629      -6.54647390
Al       6.22121574      32.32638525      39.99220221       0.00000000       0.00000000       0.10206629      -5.64590157
N        6.22121574      34.12229555      40.59415201       0.00000000      -0.00000000      -0.10206629      -6.54647390
Al       6.22121574      34.12229555      42.49171485       0.00000000      -0.00000000       0.10206629      -5.64590157
N        6.22121574      32.32638525      43.09366464       0.00000000       0.00000000      -0.10206629      -6.54647390
Al       4.66591181      35.02025069      -0.00000000       0.00000000       0.00000000       0.10206629      -5.64590157
N        4.66591181      36.81616098       0.60194979      -0.00000000      -0.00000000      -0.10206629      -6.54647390
Al       4.66591181      36.81616098       2.49951264      -0.00000000      -0.00000000       0.10206629      -5.64590157
N        4.66591181      35.02025069       3.10146243       0.00000000       0.00000000      -0.10206629      -6.54647390
Al       4.66591181      35.02025069       4.99902528       0.00000000       0.00000000       0.10206629      -5.64590157
N        4.66591181      36.81616098       5.60097507      -0.00000000      -0.00000000      -0.10206629      -6.54647390
Al       4.66591181      36.81616098       7.49853791      -0.00000000      -0.00000000       0.10206629      -5.64590157
N        4.66591181      35.02025069       8.10048771       0.00000000       0.00000000      -0.10206629      -6.54647390
Al       4.66591181      35.02025069       9.99805055       0.00000000       0.00000000       0.10206629      -5.64590157
N        4.66591181      36.81616098      10.60000035      -0.00000000      -0.00000000      -0.10206629      -6.54647390
Al       4.66591181      36.81616098      12.49756319      -0.00000000      -0.00000000       0.10206629      -5.64590157
N        4.66591181      35.02025069      13.09951298       0.00000000       0.00000000      -0.10206629      -6.54647390
Al       4.66591181      35.02025069      14.99707583       0.00000000       0.00000000       0.10206629      -5.64590157
N        4.66591181      36.81616098      15.59902562      -0.00000000      -0.00000000      -0.10206629      -6.54647390
Al       4.66591181      36.81616098      17.49658847      -0.00000000      -0.00000000       0.10206629      -5.64590157
N        4.66591181      35.02025069      18.09853826       0.00000000       0.00000000      -0.10206629      -6.54647390
Al       4.66591181      35.02025069      19.99610111       0.00000000       0.00000000       0.10206629      -5.64590157
N        4.66591181      36.81616098      20.59805090      -0.00000000      -0.00000000      -0.10206629      -6.54647390
Al       4.66591181      36.81616098      22.49561374      -0.00000000      -0.00000000       0.10206629      -5.64590157
N        4.66591181      35.02025069      23.09756354       0.00000000       0.00000000      -0.10206629      -6.54647390
Al       4.66591181      35.02025069      24.99512638       0.00000000      -0.00000000       0.10206629      -5.64590157
N        4.66591181      36.81616098      25.59707618      -0.00000000      -0.00000000      -0.10206629      -6.54647390
Al       4.66591181      36.81616098      27.49463902      -0.00000000      -0.00000000       0.10206629      -5.64590157
N        4.66591181      35.02025069      28.09658881       0.00000000       0.00000000      -0.10206629      -6.54647390
Al       4.66591181      35.02025069      29.99415166       0.00000000       0.00000000       0.10206629      -5.64590157
N        4.66591181      36.81616098      30.59610145      -0.00000000      -0.00000000      -0.10206629      -6.54647390
Al       4.66591181      36.81616098      32.49366430      -0.00000000      -0.00000000       0.10206629      -5.64590157
N        4.66591181      35.02025069      33.09561409       0.00000000       0.00000000      -0.10206629      -6.54647390
Al       4.66591181      35.02025069      34.99317694       0.00000000       0.00000000       0.10206629      -5.64590157
N        4.66591181      36.81616098      35.59512673      -0.00000000      -0.00000000      -0.10206629      -6.54647390
Al       4.66591181      36.81616098      37.49268957      -0.00000000      -0.00000000       0.10206629      -5.64590157
N        4.66591181      35.02025069      38.09463937       0.00000000       0.00000000      -0.10206629      -6.54647390
Al       4.66591181      35.02025069      39.99220221      -0.00000000       0.00000000       0.10206629      -5.64590157
N        4.66591181      36.81616098      40.59415201      -0.00000000      -0.00000000      -0.10206629      -6.54647390
Al       4.66591181      36.81616098      42.49171485      -0.00000000      -0.00000000       0.10206629      -5.64590157
N        4.66591181      35.02025069      43.09366464      -0.00000000       0.00000000      -0.10206629      -6.54647390
Al       3.11060787      37.71411613      -0.00000000       0.00000000      -0.00000000       0.10206629      -5.64590157
N        3.11060787      39.51002642       0.60194979       0.00000000       0.00000000      -0.10206629      -6.54647390
Al       3.11060787      39.51002642       2.49951264       0.00000000       0.00000000       0.10206629      -5.64590157
N        3.11060787      37.71411613       3.10146243       0.00000000      -0.00000000      -0.10206629      -6.54647390
Al       3.11060787      37.71411613       4.99902528       0.00000000      -0.00000000       0.10206629      -5.64590157
N        3.11060787      39.51002642       5.60097507       0.00000000       0.00000000      -0.10206629      -6.54647390
Al       3.11060787      39.51002642       7.49853791       0.00000000       0.00000000       0.10206629      -5.64590157
N        3.11060787      37.71411613       8.10048771       0.00000000      -0.00000000      -0.10206629      -6.54647390
Al       3.11060787      37.71411613       9.99805055       0.00000000      -0.00000000       0.10206629      -5.64590157
N        3.11060787      39.51002642      10.60000035       0.00000000       0.00000000      -0.10206629      -6.54647390
Al       3.11060787      39.51002642      12.49756319       0.00000000       0.00000000       0.10206629      -5.64590157
N        3.11060787      37.71411613      13.09951298       0.00000000      -0.00000000      -0.10206629      -6.54647390
Al       3.11060787      37.71411613      14.99707583       0.00000000      -0.00000000       0.10206629      -5.64590157
N        3.11060787      39.51002642      15.59902562       0.00000000       0.00000000      -0.10206629      -6.54647390
Al       3.11060787      39.51002642      17.49658847       0.00000000       0.00000000       0.10206629      -5.64590157
N        3.11060787      37.71411613      18.09853826       0.00000000      -0.00000000      -0.10206629      -6.54647390
Al       3.11060787      37.71411613      19.99610111       0.00000000      -0.00000000       0.10206629      -5.64590157
N        3.11060787      39.51002642      20.59805090       0.00000000       0.00000000      -0.10206629      -6.54647390
Al       3.11060787      39.51002642      22.49561374       0.00000000       0.00000000       0.10206629      -5.64590157
N        3.11060787      37.71411613      23.09756354       0.00000000      -0.00000000      -0.10206629      -6.54647390
Al       3.11060787      37.71411613      24.99512638       0.00000000      -0.00000000       0.10206629      -5.64590157
N        3.11060787      39.51002642      25.59707618       0.00000000       0.00000000      -0.10206629      -6.54647390
Al       3.11060787      39.51002642      27.49463902       0.00000000       0.00000000       0.10206629      -5.64590157
N        3.11060787      37.71411613      28.09658881       0.00000000      -0.00000000      -0.10206629      -6.54647390
Al       3.11060787      37.71411613      29.99415166       0.00000000      -0.00000000       0.10206629      -5.64590157
N        3.11060787      39.51002642      30.59610145       0.00000000       0.00000000      -0.10206629      -6.54647390
Al       3.11060787      39.51002642      32.49366430       0.00000000       0.00000000       0.10206629      -5.64590157
N        3.11060787      37.71411613      33.09561409       0.00000000      -0.00000000      -0.10206629      -6.54647390
Al       3.11060787      37.71411613      34.99317694       0.00000000      -0.00000000       0.10206629      -5.64590157
N        3.11060787      39.51002642      35.59512673       0.00000000       0.00000000      -0.10206629      -6.54647390
Al       3.11060787      39.51002642      37.49268957       0.00000000       0.00000000       0.10206629      -5.64590157
N        3.11060787      37.71411613      38.09463937       0.00000000      -0.00000000      -0.10206629      -6.54647390
Al       3.11060787      37.71411613      39.99220221       0.00000000      -0.00000000       0.10206629      -5.64590157
N        3.11060787      39.51002642      40.59415201       0.00000000       0.00000000      -0.10206629      -6.54647390
Al       3.11060787      39.51002642      42.49171485       0.00000000       0.00000000       0.10206629      -5.64590157
N        3.11060787      37.71411613      43.09366464       0.00000000      -0.00000000      -0.10206629      -6.54647390
Al      27.99547084      -0.00000000       0.00000000      -0.00000000      -0.00000000       0.10206629      -5.64590157
N       27.99547084       1.79591029       0.60194979      -0.00000000      -0.00000000      -0.10206629      -6.54647390
Al      27.99547084       1.79591029       2.49951264      -0.00000000      -0.00000000       0.10206629      -5.64590157
N       27.99547084      -0.00000000       3.10146243      -0.00000000      -0.00000000      -0.10206629      -6.54647390
Al      27.99547084      -0.00000000       4.99902528      -0.00000000      -0.00000000       0.10206629      -5.64590157
N       27.99547084       1.79591029       5.60097507      -0.00000000      -0.00000000      -0.10206629      -6.54647390
Al      27.99547084       1.79591029       7.49853791      -0.00000000      -0.00000000       0.10206629      -5.64590157
N       27.99547084      -0.00000000       8.10048771      -0.00000000      -0.00000000      -0.10206629      -6.54647390
Al      27.99547084      -0.00000000       9.99805055      -0.00000000      -0.00000000       0.10206629      -5.64590157
N       27.99547084       1.79591029      10.60000035      -0.00000000      -0.00000000      -0.10206629      -6.54647390
Al      27.99547084       1.79591029      12.49756319      -0.00000000      -0.00000000       0.10206629      -5.64590157
N       27.99547084      -0.00000000      13.09951298      -0.00000000      -0.00000000      -0.10206629      -6.54647390
Al      27.99547084      -0.00000000      14.99707583      -0.00000000      -0.00000000       0.10206629      -5.64590157
N       27.99547084       1.79591029      15.59902562      -0.00000000      -0.00000000      -0.10206629      -6.54647390
Al      27.99547084       1.79591029      17.49658847      -0.00000000      -0.00000000       0.10206629      -5.64590157
N       27.99547084      -0.00000000      18.09853826      -0.00000000      -0.00000000      -0.10206629      -6.54647390
Al      27.99547084      -0.00000000      19.99610111      -0.00000000      -0.00000000       0.10206629      -5.64590157
N       27.99547084       1.79591029      20.59805090      -0.00000000      -0.00000000      -0.10206629      -6.54647390
Al      27.99547084       1.79591029      22.49561374      -0.00000000      -0.00000000       0.10206629      -5.64590157
N       27.99547084      -0.00000000      23.09756354      -0.00000000      -0.00000000      -0.10206629      -6.54647390
Al      27.99547084      -0.00000000      24.99512638      -0.00000000      -0.00000000       0.10206629      -5.64590157
N       27.99547084       1.79591029      25.59707618      -0.00000000      -0.00000000      -0.10206629      -6.54647390
Al      27.99547084       1.79591029      27.49463902      -0.00000000      -0.00000000       0.10206629      -5.64590157
N       27.99547084      -0.00000000      28.09658881      -0.00000000      -0.00000000      -0.10206629      -6.54647390
Al      27.99547084      -0.00000000      29.99415166      -0.00000000      -0.00000000       0.10206629      -5.64590157
N       27.99547084       1.79591029      30.59610145      -0.00000000       0.00000000      -0.10206629      -6.54647390
Al      27.99547084       1.79591029      32.49366430      -0.00000000      -0.00000000       0.10206629      -5.64590157
N       27.99547084      -0.00000000      33.09561409      -0.00000000      -0.00000000      -0.10206629      -6.54647390
Al      27.99547084      -0.00000000      34.99317694      -0.00000000      -0.00000000       0.10206629      -5.64590157
N       27.99547084       1.79591029      35.59512673      -0.00000000      -0.00000000      -0.10206629      -6.54647390
Al      27.99547084       1.79591029      37.49268957      -0.00000000      -0.00000000       0.10206629      -5.64590157
N       27.99547084      -0.00000000      38.09463937      -0.00000000      -0.00000000      -0.10206629      -6.54647390
Al      27.99547084      -0.00000000      39.99220221      -0.00000000      -0.00000000       0.10206629      -5.64590157
N       27.99547084       1.79591029      40.59415201      -0.00000000      -0.00000000      -0.10206629      -6.54647390
Al      27.99547084       1.79591029      42.49171485      -0.00000000      -0.00000000       0.10206629      -5.64590157
N       27.99547084      -0.00000000      43.09366464      -0.00000000      -0.00000000      -0.10206629      -6.54647390
Al      26.44016691       2.69386544       0.00000000       0.00000000      -0.00000000       0.10206629      -5.64590157
N       26.44016691       4.48977573       0.60194979      -0.00000000      -0.00000000      -0.10206629      -6.54647390
Al      26.44016691       4.48977573       2.49951264      -0.00000000      -0.00000000       0.10206629      -5.64590157
N       26.44016691       2.69386544       3.10146243       0.00000000       0.00000000      -0.10206629      -6.54647390
Al      26.44016691       2.69386544       4.99902528       0.00000000      -0.00000000       0.10206629      -5.64590157
N       26.44016691       4.48977573       5.60097507      -0.00000000      -0.00000000      -0.10206629      -6.54647390
Al      26.44016691       4.48977573       7.49853791      -0.00000000       0.00000000       0.10206629      -5.64590157
N       26.44016691       2.69386544       8.10048771       0.00000000       0.00000000      -0.10206629      -6.54647390
Al      26.44016691       2.69386544       9.99805055       0.00000000       0.00000000       0.10206629      -5.64590157
N       26.44016691       4.48977573      10.60000035      -0.00000000       0.00000000      -0.10206629      -6.54647390
Al      26.44016691       4.48977573      12.49756319      -0.00000000       0.00000000       0.10206629      -5.64590157
N       26.44016691       2.69386544      13.09951298       0.00000000       0.00000000      -0.10206629      -6.54647390
Al      26.44016691       2.69386544      14.99707583       0.00000000      -0.00000000       0.10206629      -5.64590157
N       26.44016691       4.48977573      15.59902562      -0.00000000      -0.00000000      -0.10206629      -6.54647390
Al      26.44016691       4.48977573      17.49658847      -0.00000000      -0.00000000       0.10206629      -5.64590157
N       26.44016691       2.69386544      18.09853826       0.00000000       0.00000000      -0.10206629      -6.54647390
Al      26.44016691       2.69386544      19.99610111       0.00000000      -0.00000000       0.10206629      -5.64590157
N       26.44016691       4.48977573      20.59805090      -0.00000000      -0.00000000      -0.10206629      -6.54647390
Al      26.44016691       4.48977573      22.49561374      -0.00000000      -0.00000000       0.10206629      -5.64590157
N       26.44016691       2.69386544      23.09756354       0.00000000      -0.00000000      -0.10206629      -6.54647390
Al      26.44016691       2.69386544      24.99512638       0.00000000       0.00000000       0.10206629      -5.64590157
N       26.44016691       4.48977573      25.59707618      -0.00000000      -0.00000000      -0.10206629      -6.54647390
Al      26.44016691       4.48977573      27.49463902      -0.00000000       0.00000000       0.10206629      -5.64590157
N       26.44016691       2.69386544      28.09658881       0.00000000       0.00000000      -0.10206629      -6.54647390
Al      26.44016691       2.69386544      29.99415166      -0.00000000       0.00000000       0.10206629      -5.64590157
N       26.44016691       4.48977573      30.59610145      -0.00000000      -0.00000000      -0.10206629      -6.54647390
Al      26.44016691       4.48977573      32.49366430      -0.00000000      -0.00000000       0.10206629      -5.64590157
N       26.44016691       2.69386544      33.09561409       0.00000000       0.00000000      -0.10206629      -6.54647390
Al      26.44016691       2.69386544      34.99317694       0.00000000       0.00000000       0.10206629      -5.64590157
N       26.44016691       4.48977573      35.59512673      -0.00000000      -0.00000000      -0.10206629      -6.54647390
Al      26.44016691       4.48977573      37.49268957      -0.00000000      -0.00000000       0.10206629      -5.64590157
N       26.44016691       2.69386544      38.09463937       0.00000000      -0.00000000      -0.10206629      -6.54647390
Al      26.44016691       2.69386544      39.99220221       0.00000000      -0.00000000       0.10206629      -5.64590157
N       26.44016691       4.48977573      40.59415201      -0.00000000      -0.00000000      -0.10206629      -6.54647390
Al      26.44016691       4.48977573      42.49171485      -0.00000000      -0.00000000       0.10206629      -5.64590157
N       26.44016691       2.69386544      43.09366464       0.00000000      -0.00000000      -0.10206629      -6.54647390
Al      24.88486297       5.38773088       0.00000000       0.00000000       0.00000000       0.10206629      -5.64590157
N       24.88486297       7.18364117       0.60194979      -0.00000000       0.00000000      -0.10206629      -6.54647390
Al      24.88486297       7.18364117       2.49951264      -0.00000000       0.00000000       0.10206629      -5.64590157
N       24.88486297       5.38773088       3.10146243       0.00000000      -0.00000000      -0.10206629      -6.54647390
Al      24.88486297       5.38773088       4.99902528       0.00000000       0.00000000       0.10206629      -5.64590157
N       24.88486297       7.18364117       5.60097507      -0.00000000      -0.00000000      -0.10206629      -6.54647390
Al      24.88486297       7.18364117       7.49853791      -0.00000000       0.00000000       0.10206629      -5.64590157
N       24.88486297       5.38773088       8.10048771       0.00000000      -0.00000000      -0.10206629      -6.54647390
Al      24.88486297       5.38773088       9.99805055       0.00000000       0.00000000       0.10206629      -5.64590157
N       24.88486297       7.18364117      10.60000035      -0.00000000      -0.00000000      -0.10206629      -6.54647390
Al      24.88486297       7.18364117      12.49756319      -0.00000000      -0.00000000       0.10206629      -5.64590157
N       24.88486297       5.38773088      13.09951298       0.00000000       0.00000000      -0.10206629      -6.54647390
Al      24.88486297       5.38773088      14.99707583       0.00000000       0.00000000       0.10206629      -5.64590157
N       24.88486297       7.18364117      15.59902562      -0.00000000      -0.00000000      -0.10206629      -6.54647390
Al      24.88486297       7.18364117      17.49658847      -0.00000000      -0.00000000       0.10206629      -5.64590157
N       24.88486297       5.38773088      18.09853826       0.00000000       0.00000000      -0.10206629      -6.54647390
Al      24.88486297       5.38773088      19.99610111       0.00000000       0.00000000       0.10206629      -5.64590157
N       24.88486297       7.18364117      20.59805090      -0.00000000      -0.00000000      -0.10206629      -6.54647390
Al      24.88486297       7.18364117      22.49561374      -0.00000000       0.00000000       0.10206629      -5.64590157
N       24.88486297       5.38773088      23.09756354       0.00000000       0.00000000      -0.10206629      -6.54647390
Al      24.88486297       5.38773088      24.99512638       0.00000000       0.00000000       0.10206629      -5.64590157
N       24.88486297       7.18364117      25.59707618      -0.00000000      -0.00000000      -0.10206629      -6.54647390
Al      24.88486297       7.18364117      27.49463902      -0.00000000       0.00000000       0.10206629      -5.64590157
N       24.88486297       5.38773088      28.09658881       0.00000000      -0.00000000      -0.10206629      -6.54647390
Al      24.88486297       5.38773088      29.99415166       0.00000000       0.00000000       0.10206629      -5.64590157
N       24.88486297       7.18364117      30.59610145      -0.00000000      -0.00000000      -0.10206629      -6.54647390
Al      24.88486297       7.18364117      32.49366430      -0.00000000       0.00000000       0.10206629      -5.64590157
N       24.88486297       5.38773088      33.09561409       0.00000000       0.00000000      -0.10206629      -6.54647390
Al      24.88486297       5.38773088      34.99317694       0.00000000       0.00000000       0.10206629      -5.64590157
N       24.88486297       7.18364117      35.59512673      -0.00000000      -0.00000000      -0.10206629      -6.54647390
Al      24.88486297       7.18364117      37.49268957      -0.00000000       0.00000000       0.10206629      -5.64590157
N       24.88486297       5.38773088      38.09463937       0.00000000       0.00000000      -0.10206629      -6.54647390
Al      24.88486297       5.38773088      39.99220221       0.00000000       0.00000000       0.10206629      -5.64590157
N       24.88486297       7.18364117      40.59415201      -0.00000000       0.00000000      -0.10206629      -6.54647390
Al      24.88486297       7.18364117      42.49171485      -0.00000000       0.00000000       0.10206629      -5.64590157
N       24.88486297       5.38773088      43.09366464       0.00000000       0.00000000      -0.10206629      -6.54647390
Al      23.32955904       8.08159631       0.00000000       0.00000000      -0.00000000       0.10206629      -5.64590157
N       23.32955904       9.87750661       0.60194979      -0.00000000       0.00000000      -0.10206629      -6.54647390
Al      23.32955904       9.87750661       2.49951264      -0.00000000       0.00000000       0.10206629      -5.64590157
N       23.32955904       8.08159631       3.10146243       0.00000000       0.00000000      -0.10206629      -6.54647390
Al      23.32955904       8.08159631       4.99902528       0.00000000      -0.00000000       0.10206629      -5.64590157
N       23.32955904       9.87750661       5.60097507      -0.00000000       0.00000000      -0.10206629      -6.54647390
Al      23.32955904       9.87750661       7.49853791      -0.00000000       0.00000000       0.10206629      -5.64590157
N       23.32955904       8.08159631       8.10048771       0.00000000      -0.00000000      -0.10206629      -6.54647390
Al      23.32955904       8.08159631       9.99805055       0.00000000      -0.00000000       0.10206629      -5.64590157
N       23.32955904       9.87750661      10.60000035      -0.00000000       0.00000000      -0.10206629      -6.54647390
Al      23.32955904       9.87750661      12.49756319      -0.00000000       0.00000000       0.10206629      -5.64590157
N       23.32955904       8.08159631      13.09951298       0.00000000       0.00000000      -0.10206629      -6.54647390
Al      23.32955904       8.08159631      14.99707583       0.00000000      -0.00000000       0.10206629      -5.64590157
N       23.32955904       9.87750661      15.59902562      -0.00000000      -0.00000000      -0.10206629      -6.54647390
Al      23.32955904       9.87750661      17.49658847      -0.00000000       0.00000000       0.10206629      -5.64590157
N       23.32955904       8.08159631      18.09853826       0.00000000      -0.00000000      -0.10206629      -6.54647390
Al      23.32955904       8.08159631      19.99610111       0.00000000      -0.00000000       0.10206629      -5.64590157
N       23.32955904       9.87750661      20.59805090      -0.00000000       0.00000000      -0.10206629      -6.54647390
Al      23.32955904       9.87750661      22.49561374      -0.00000000       0.00000000       0.10206629      -5.64590157
N       23.32955904       8.08159631      23.09756354       0.00000000      -0.00000000      -0.10206629      -6.54647390
Al      23.32955904       8.08159631      24.99512638       0.00000000      -0.00000000       0.10206629      -5.64590157
N       23.32955904       9.87750661      25.59707618      -0.00000000       0.00000000      -0.10206629      -6.54647390
Al      23.32955904       9.87750661      27.49463902      -0.00000000       0.00000000       0.10206629      -5.64590157
N       23.32955904       8.08159631      28.09658881       0.00000000      -0.00000000      -0.10206629      -6.54647390
Al      23.32955904       8.08159631      29.99415166       0.00000000      -0.00000000       0.10206629      -5.64590157
N       23.32955904       9.87750661      30.59610145      -0.00000000       0.00000000      -0.10206629      -6.54647390
Al      23.32955904       9.87750661      32.49366430      -0.00000000       0.00000000       0.10206629      -5.64590157
N       23.32955904       8.08159631      33.09561409       0.00000000      -0.00000000      -0.10206629      -6.54647390
Al      23.32955904       8.08159631      34.99317694       0.00000000      -0.00000000       0.10206629      -5.64590157
N       23.32955904       9.87750661      35.59512673      -0.00000000       0.00000000      -0.10206629      -6.54647390
Al      23.32955904       9.87750661      37.49268957      -0.00000000       0.00000000       0.10206629      -5.64590157
N       23.32955904       8.08159631      38.09463937       0.00000000      -0.00000000      -0.10206629      -6.54647390
Al      23.32955904       8.08159631      39.99220221       0.00000000       0.00000000       0.10206629      -5.64590157
N       23.32955904       9.87750661      40.59415201      -0.00000000       0.00000000      -0.10206629      -6.54647390
Al      23.32955904       9.87750661      42.49171485      -0.00000000       0.00000000       0.10206629      -5.64590157
N       23.32955904       8.08159631      43.09366464       0.00000000      -0.00000000      -0.10206629      -6.54647390
Al      21.77425510      10.77546175       0.00000000      -0.00000000      -0.00000000       0.10206629      -5.64590157
N       21.77425510      12.57137204       0.60194979      -0.00000000      -0.00000000      -0.10206629      -6.54647390
Al      21.77425510      12.57137204       2.49951264      -0.00000000      -0.00000000       0.10206629      -5.64590157
N       21.77425510      10.77546175       3.10146243       0.00000000      -0.00000000      -0.10206629      -6.54647390
Al      21.77425510      10.77546175       4.99902528      -0.00000000      -0.00000000       0.10206629      -5.64590157
N       21.77425510      12.57137204       5.60097507      -0.00000000      -0.00000000      -0.10206629      -6.54647390
Al      21.77425510      12.57137204       7.49853791      -0.00000000      -0.00000000       0.10206629      -5.64590157
N       21.77425510      10.77546175       8.10048771      -0.00000000      -0.00000000      -0.10206629      -6.54647390
Al      21.77425510      10.77546175       9.99805055      -0.00000000      -0.00000000       0.10206629      -5.64590157
N       21.77425510      12.57137204      10.60000035      -0.00000000      -0.00000000      -0.10206629      -6.54647390
Al      21.77425510      12.57137204      12.49756319      -0.00000000      -0.00000000       0.10206629      -5.64590157
N       21.77425510      10.77546175      13.09951298      -0.00000000      -0.00000000      -0.10206629      -6.54647390
Al      21.77425510      10.77546175      14.99707583      -0.00000000      -0.00000000       0.10206629      -5.64590157
N       21.77425510      12.57137204      15.59902562      -0.00000000      -0.00000000      -0.10206629      -6.54647390
Al      21.77425510      12.57137204      17.49658847      -0.00000000      -0.00000000       0.10206629      -5.64590157
N       21.77425510      10.77546175      18.09853826      -0.00000000      -0.00000000      -0.10206629      -6.54647390
Al      21.77425510      10.77546175      19.99610111      -0.00000000      -0.00000000       0.10206629      -5.64590157
N       21.77425510      12.57137204      20.59805090      -0.00000000      -0.00000000      -0.10206629      -6.54647390
Al      21.77425510      12.57137204      22.49561374      -0.00000000      -0.00000000       0.10206629      -5.64590157
N       21.77425510      10.77546175      23.09756354      -0.00000000      -0.00000000      -0.10206629      -6.54647390
Al      21.77425510      10.77546175      24.99512638      -0.00000000      -0.00000000       0.10206629      -5.64590157
N       21.77425510      12.57137204      25.59707618      -0.00000000      -0.00000000      -0.10206629      -6.54647390
Al      21.77425510      12.57137204      27.49463902      -0.00000000      -0.00000000       0.10206629      -5.64590157
N       21.77425510      10.77546175      28.09658881      -0.00000000      -0.00000000      -0.10206629      -6.54647390
Al      21.77425510      10.77546175      29.99415166      -0.00000000      -0.00000000       0.10206629      -5.64590157
N       21.77425510      12.57137204      30.59610145      -0.00000000      -0.00000000      -0.10206629      -6.54647390
Al      21.77425510      12.57137204      32.49366430      -0.00000000      -0.00000000       0.10206629      -5.64590157
N       21.77425510      10.77546175      33.09561409      -0.00000000      -0.00000000      -0.10206629      -6.54647390
Al      21.77425510      10.77546175      34.99317694      -0.00000000      -0.00000000       0.10206629      -5.64590157
N       21.77425510      12.57137204      35.59512673      -0.00000000      -0.00000000      -0.10206629      -6.54647390
Al      21.77425510      12.57137204      37.49268957      -0.00000000      -0.00000000       0.10206629      -5.64590157
N       21.77425510      10.77546175      38.09463937      -0.00000000      -0.00000000      -0.10206629      -6.54647390
Al      21.77425510      10.77546175      39.99220221      -0.00000000      -0.00000000       0.10206629      -5.64590157
N       21.77425510      12.57137204      40.59415201      -0.00000000      -0.00000000      -0.10206629      -6.54647390
Al      21.77425510      12.57137204      42.49171485      -0.00000000      -0.00000000       0.10206629      -5.64590157
N       21.77425510      10.77546175      43.09366464      -0.00000000      -0.00000000      -0.10206629      -6.54647390
Al      20.21895116      13.46932719       0.00000000      -0.00000000      -0.00000000       0.10206629      -5.64590157
N       20.21895116      15.26523748       0.60194979       0.00000000      -0.00000000      -0.10206629      -6.54647390
Al      20.21895116      15.26523748       2.49951264       0.00000000      -0.00000000       0.10206629      -5.64590157
N       20.21895116      13.46932719       3.10146243      -0.00000000      -0.00000000      -0.10206629      -6.54647390
Al      20.21895116      13.46932719       4.99902528      -0.00000000      -0.00000000       0.10206629      -5.64590157
N       20.21895116      15.26523748       5.60097507       0.00000000      -0.00000000      -0.10206629      -6.54647390
Al      20.21895116      15.26523748       7.49853791       0.00000000      -0.00000000       0.10206629      -5.64590157
N       20.21895116      13.46932719       8.10048771      -0.00000000      -0.00000000      -0.10206629      -6.54647390
Al      20.21895116      13.46932719       9.99805055      -0.00000000      -0.00000000       0.10206629      -5.64590157
N       20.21895116      15.26523748      10.60000035       0.00000000      -0.00000000      -0.10206629      -6.54647390
Al      20.21895116      15.26523748      12.49756319       0.00000000      -0.00000000       0.10206629      -5.64590157
N       20.21895116      13.46932719      13.09951298      -0.00000000      -0.00000000      -0.10206629      -6.54647390
Al      20.21895116      13.46932719      14.99707583      -0.00000000      -0.00000000       0.10206629      -5.64590157
N       20.21895116      15.26523748      15.59902562       0.00000000      -0.00000000      -0.10206629      -6.54647390
Al      20.21895116      15.26523748      17.49658847       0.00000000      -0.00000000       0.10206629      -5.64590157
N       20.21895116      13.46932719      18.09853826      -0.00000000      -0.00000000      -0.10206629      -6.54647390
Al      20.21895116      13.46932719      19.99610111      -0.00000000      -0.00000000       0.10206629      -5.64590157
N       20.21895116      15.26523748      20.59805090       0.00000000      -0.00000000      -0.10206629      -6.54647390
Al      20.21895116      15.26523748      22.49561374       0.00000000      -0.00000000       0.10206629      -5.64590157
N       20.21895116      13.46932719      23.09756354      -0.00000000      -0.00000000      -0.10206629      -6.54647390
Al      20.21895116      13.46932719      24.99512638      -0.00000000      -0.00000000       0.10206629      -5.64590157
N       20.21895116      15.26523748      25.59707618       0.00000000      -0.00000000      -0.10206629      -6.54647390
Al      20.21895116      15.26523748      27.49463902       0.00000000      -0.00000000       0.10206629      -5.64590157
N       20.21895116      13.46932719      28.09658881      -0.00000000      -0.00000000      -0.10206629      -6.54647390
Al      20.21895116      13.46932719      29.99415166      -0.00000000      -0.00000000       0.10206629      -5.64590157
N       20.21895116      15.26523748      30.59610145       0.00000000      -0.00000000      -0.10206629      -6.54647390
Al      20.21895116      15.26523748      32.49366430       0.00000000      -0.00000000       0.10206629      -5.64590157
N       20.21895116      13.46932719      33.09561409      -0.00000000      -0.00000000      -0.10206629      -6.54647390
Al      20.21895116      13.46932719      34.99317694      -0.00000000      -0.00000000       0.10206629      -5.64590157
N       20.21895116      15.26523748      35.59512673       0.00000000      -0.00000000      -0.10206629      -6.54647390
Al      20.21895116      15.26523748      37.49268957       0.00000000      -0.00000000       0.10206629      -5.64590157
N       20.21895116      13.46932719      38.09463937      -0.00000000      -0.00000000      -0.10206629      -6.54647390
Al      20.21895116      13.46932719      39.99220221      -0.00000000      -0.00000000       0.10206629      -5.64590157
N       20.21895116      15.26523748      40.59415201       0.00000000      -0.00000000      -0.10206629      -6.54647390
Al      20.21895116      15.26523748      42.49171485       0.00000000      -0.00000000       0.10206629      -5.64590157
N       20.21895116      13.46932719      43.09366464      -0.00000000      -0.00000000      -0.10206629      -6.54647390
Al      18.66364723      16.16319263       0.00000000      -0.00000000       0.00000000       0.10206629      -5.64590157
N       18.66364723      17.95910292       0.60194979       0.00000000      -0.00000000      -0.10206629      -6.54647390
Al      18.66364723      17.95910292       2.49951264       0.00000000      -0.00000000       0.10206629      -5.64590157
N       18.66364723      16.16319263       3.10146243      -0.00000000       0.00000000      -0.10206629      -6.54647390
Al      18.66364723      16.16319263       4.99902528      -0.00000000       0.00000000       0.10206629      -5.64590157
N       18.66364723      17.95910292       5.60097507       0.00000000      -0.00000000      -0.10206629      -6.54647390
Al      18.66364723      17.95910292       7.49853791       0.00000000      -0.00000000       0.10206629      -5.64590157
N       18.66364723      16.16319263       8.10048771      -0.00000000       0.00000000      -0.10206629      -6.54647390
Al      18.66364723      16.16319263       9.99805055      -0.00000000       0.00000000       0.10206629      -5.64590157
N       18.66364723      17.95910292      10.60000035       0.00000000      -0.00000000      -0.10206629      -6.54647390
Al      18.66364723      17.95910292      12.49756319       0.00000000      -0.00000000       0.10206629      -5.64590157
N       18.66364723      16.16319263      13.09951298      -0.00000000       0.00000000      -0.10206629      -6.54647390
Al      18.66364723      16.16319263      14.99707583      -0.00000000       0.00000000       0.10206629      -5.64590157
N       18.66364723      17.95910292      15.59902562       0.00000000      -0.00000000      -0.10206629      -6.54647390
Al      18.66364723      17.95910292      17.49658847       0.00000000      -0.00000000       0.10206629      -5.64590157
N       18.66364723      16.16319263      18.09853826      -0.00000000       0.00000000      -0.10206629      -6.54647390
Al      18.66364723      16.16319263      19.99610111      -0.00000000       0.00000000       0.10206629      -5.64590157
N       18.66364723      17.95910292      20.59805090       0.00000000      -0.00000000      -0.10206629      -6.54647390
Al      18.66364723      17.95910292      22.49561374       0.00000000      -0.00000000       0.10206629      -5.64590157
N       18.66364723      16.16319263      23.09756354      -0.00000000       0.00000000      -0.10206629      -6.54647390
Al      18.66364723      16.16319263      24.99512638      -0.00000000       0.00000000       0.10206629      -5.64590157
N       18.66364723      17.95910292      25.59707618       0.00000000      -0.00000000      -0.10206629      -6.54647390
Al      18.66364723      17.95910292      27.49463902       0.00000000      -0.00000000       0.10206629      -5.64590157
N       18.66364723      16.16319263      28.09658881      -0.00000000       0.00000000      -0.10206629      -6.54647390
Al      18.66364723      16.16319263      29.99415166      -0.00000000       0.00000000       0.10206629      -5.64590157
N       18.66364723      17.95910292      30.59610145       0.00000000      -0.00000000      -0.10206629      -6.54647390
Al      18.66364723      17.95910292      32.49366430       0.00000000      -0.00000000       0.10206629      -5.64590157
N       18.66364723      16.16319263      33.09561409      -0.00000000       0.00000000      -0.10206629      -6.54647390
Al      18.66364723      16.16319263      34.99317694      -0.00000000       0.00000000       0.10206629      -5.64590157
N       18.66364723      17.95910292      35.59512673       0.00000000      -0.00000000      -0.10206629      -6.54647390
Al      18.66364723      17.95910292      37.49268957       0.00000000      -0.00000000       0.10206629      -5.64590157
N       18.66364723      16.16319263      38.09463937      -0.00000000       0.00000000      -0.10206629      -6.54647390
Al      18.66364723      16.16319263      39.99220221      -0.00000000       0.00000000       0.10206629      -5.64590157
N       18.66364723      17.95910292      40.59415201       0.00000000      -0.00000000      -0.10206629      -6.54647390
Al      18.66364723      17.95910292      42.49171485       0.00000000      -0.00000000       0.10206629      -5.64590157
N       18.66364723      16.16319263      43.09366464      -0.00000000       0.00000000      -0.10206629      -6.54647390
Al      17.10834329      18.85705806       0.00000000      -0.00000000      -0.00000000       0.10206629      -5.64590157
N       17.10834329      20.65296836       0.60194979       0.00000000       0.00000000      -0.10206629      -6.54647390
Al      17.10834329      20.65296836       2.49951264       0.00000000       0.00000000       0.10206629      -5.64590157
N       17.10834329      18.85705806       3.10146243      -0.00000000      -0.00000000      -0.10206629      -6.54647390
Al      17.10834329      18.85705806       4.99902528      -0.00000000      -0.00000000       0.10206629      -5.64590157
N       17.10834329      20.65296836       5.60097507       0.00000000       0.00000000      -0.10206629      -6.54647390
Al      17.10834329      20.65296836       7.49853791       0.00000000       0.00000000       0.10206629      -5.64590157
N       17.10834329      18.85705806       8.10048771      -0.00000000      -0.00000000      -0.10206629      -6.54647390
Al      17.10834329      18.85705806       9.99805055      -0.00000000      -0.00000000       0.10206629      -5.64590157
N       17.10834329      20.65296836      10.60000035       0.00000000       0.00000000      -0.10206629      -6.54647390
Al      17.10834329      20.65296836      12.49756319       0.00000000       0.00000000       0.10206629      -5.64590157
N       17.10834329      18.85705806      13.09951298      -0.00000000      -0.00000000      -0.10206629      -6.54647390
Al      17.10834329      18.85705806      14.99707583      -0.00000000      -0.00000000       0.10206629      -5.64590157
N       17.10834329      20.65296836      15.59902562       0.00000000       0.00000000      -0.10206629      -6.54647390
Al      17.10834329      20.65296836      17.49658847       0.00000000       0.00000000       0.10206629      -5.64590157
N       17.10834329      18.85705806      18.09853826      -0.00000000      -0.00000000      -0.10206629      -6.54647390
Al      17.10834329      18.85705806      19.99610111      -0.00000000      -0.00000000       0.10206629      -5.64590157
N       17.10834329      20.65296836      20.59805090       0.00000000       0.00000000      -0.10206629      -6.54647390
Al      17.10834329      20.65296836      22.49561374       0.00000000       0.00000000       0.10206629      -5.64590157
N       17.10834329      18.85705806      23.09756354      -0.00000000      -0.00000000      -0.10206629      -6.54647390
Al      17.10834329      18.85705806      24.99512638      -0.00000000      -0.00000000       0.10206629      -5.64590157
N       17.10834329      20.65296836      25.59707618       0.00000000       0.00000000      -0.10206629      -6.54647390
Al      17.10834329      20.65296836      27.49463902       0.00000000       0.00000000       0.10206629      -5.64590157
N       17.10834329      18.85705806      28.09658881      -0.00000000      -0.00000000      -0.10206629      -6.54647390
Al      17.10834329      18.85705806      29.99415166      -0.00000000      -0.00000000       0.10206629      -5.64590157
N       17.10834329      20.65296836      30.59610145       0.00000000       0.00000000      -0.10206629      -6.54647390
Al      17.10834329      20.65296836      32.49366430       0.00000000       0.00000000       0.10206629      -5.64590157
N       17.10834329      18.85705806      33.09561409      -0.00000000      -0.00000000      -0.10206629      -6.54647390
Al      17.10834329      18.85705806      34.99317694      -0.00000000      -0.00000000       0.10206629      -5.64590157
N       17.10834329      20.65296836      35.59512673       0.00000000       0.00000000      -0.10206629      -6.54647390
Al      17.10834329      20.65296836      37.49268957       0.00000000       0.00000000       0.10206629      -5.64590157
N       17.10834329      18.85705806      38.09463937      -0.00000000      -0.00000000      -0.10206629      -6.54647390
Al      17.10834329      18.85705806      39.99220221      -0.00000000      -0.00000000       0.10206629      -5.64590157
N       17.10834329      20.65296836      40.59415201       0.00000000       0.00000000      -0.10206629      -6.54647390
Al      17.10834329      20.65296836      42.49171485       0.00000000       0.00000000       0.10206629      -5.64590157
N       17.10834329      18.85705806      43.09366464      -0.00000000      -0.00000000      -0.10206629      -6.54647390
Al      15.55303936      21.55092350       0.00000000      -0.00000000       0.00000000       0.10206629      -5.64590157
N       15.55303936      23.34683379       0.60194979       0.00000000       0.00000000      -0.10206629      -6.54647390
Al      15.55303936      23.34683379       2.49951264       0.00000000       0.00000000       0.10206629      -5.64590157
N       15.55303936      21.55092350       3.10146243      -0.00000000      -0.00000000      -0.10206629      -6.54647390
Al      15.55303936      21.55092350       4.99902528      -0.00000000       0.00000000       0.10206629      -5.64590157
N       15.55303936      23.34683379       5.60097507       0.00000000       0.00000000      -0.10206629      -6.54647390
Al      15.55303936      23.34683379       7.49853791       0.00000000       0.00000000       0.10206629      -5.64590157
N       15.55303936      21.55092350       8.10048771      -0.00000000      -0.00000000      -0.10206629      -6.54647390
Al      15.55303936      21.55092350       9.99805055      -0.00000000       0.00000000       0.10206629      -5.64590157
N       15.55303936      23.34683379      10.60000035       0.00000000       0.00000000      -0.10206629      -6.54647390
Al      15.55303936      23.34683379      12.49756319       0.00000000       0.00000000       0.10206629      -5.64590157
N       15.55303936      21.55092350      13.09951298      -0.00000000      -0.00000000      -0.10206629      -6.54647390
Al      15.55303936      21.55092350      14.99707583      -0.00000000       0.00000000       0.10206629      -5.64590157
N       15.55303936      23.34683379      15.59902562       0.00000000       0.00000000      -0.10206629      -6.54647390
Al      15.55303936      23.34683379      17.49658847       0.00000000       0.00000000       0.10206629      -5.64590157
N       15.55303936      21.55092350      18.09853826      -0.00000000      -0.00000000      -0.10206629      -6.54647390
Al      15.55303936      21.55092350      19.99610111      -0.00000000       0.00000000       0.10206629      -5.64590157
N       15.55303936      23.34683379      20.59805090       0.00000000       0.00000000      -0.10206629      -6.54647390
Al      15.55303936      23.34683379      22.49561374       0.00000000       0.00000000       0.10206629      -5.64590157
N       15.55303936      21.55092350      23.09756354      -0.00000000       0.00000000      -0.10206629      -6.54647390
Al      15.55303936      21.55092350      24.99512638      -0.00000000      -0.00000000       0.10206629      -5.64590157
N       15.55303936      23.34683379      25.59707618       0.00000000       0.00000000      -0.10206629      -6.54647390
Al      15.55303936      23.34683379      27.49463902       0.00000000       0.00000000       0.10206629      -5.64590157
N       15.55303936      21.55092350      28.09658881      -0.00000000      -0.00000000      -0.10206629      -6.54647390
Al      15.55303936      21.55092350      29.99415166      -0.00000000      -0.00000000       0.10206629      -5.64590157
N       15.55303936      23.34683379      30.59610145       0.00000000       0.00000000      -0.10206629      -6.54647390
Al      15.55303936      23.34683379      32.49366430       0.00000000       0.00000000       0.10206629      -5.64590157
N       15.55303936      21.55092350      33.09561409      -0.00000000      -0.00000000      -0.10206629      -6.54647390
Al      15.55303936      21.55092350      34.99317694      -0.00000000       0.00000000       0.10206629      -5.64590157
N       15.55303936      23.34683379      35.59512673       0.00000000       0.00000000      -0.10206629      -6.54647390
Al      15.55303936      23.34683379      37.49268957       0.00000000       0.00000000       0.10206629      -5.64590157
N       15.55303936      21.55092350      38.09463937      -0.00000000      -0.00000000      -0.10206629      -6.54647390
Al      15.55303936      21.55092350      39.99220221      -0.00000000       0.00000000       0.10206629      -5.64590157
N       15.55303936      23.34683379      40.59415201       0.00000000       0.00000000      -0.10206629      -6.54647390
Al      15.55303936      23.34683379      42.49171485       0.00000000       0.00000000       0.10206629      -5.64590157
N       15.55303936      21.55092350      43.09366464      -0.00000000       0.00000000      -0.10206629      -6.54647390
Al      13.99773542      24.24478894      -0.00000000      -0.00000000      -0.00000000       0.10206629      -5.64590157
N       13.99773542      26.04069923       0.60194979       0.00000000      -0.00000000      -0.10206629      -6.54647390
Al      13.99773542      26.04069923       2.49951264       0.00000000      -0.00000000       0.10206629      -5.64590157
N       13.99773542      24.24478894       3.10146243      -0.00000000      -0.00000000      -0.10206629      -6.54647390
Al      13.99773542      24.24478894       4.99902528      -0.00000000      -0.00000000       0.10206629      -5.64590157
N       13.99773542      26.04069923       5.60097507       0.00000000      -0.00000000      -0.10206629      -6.54647390
Al      13.99773542      26.04069923       7.49853791       0.00000000      -0.00000000       0.10206629      -5.64590157
N       13.99773542      24.24478894       8.10048771      -0.00000000      -0.00000000      -0.10206629      -6.54647390
Al      13.99773542      24.24478894       9.99805055      -0.00000000      -0.00000000       0.10206629      -5.64590157
N       13.99773542      26.04069923      10.60000035       0.00000000      -0.00000000      -0.10206629      -6.54647390
Al      13.99773542      26.04069923      12.49756319       0.00000000      -0.00000000       0.10206629      -5.64590157
N       13.99773542      24.24478894      13.09951298      -0.00000000      -0.00000000      -0.10206629      -6.54647390
Al      13.99773542      24.24478894      14.99707583      -0.00000000      -0.00000000       0.10206629      -5.64590157
N       13.99773542      26.04069923      15.59902562       0.00000000      -0.00000000      -0.10206629      -6.54647390
Al      13.99773542      26.04069923      17.49658847       0.00000000      -0.00000000       0.10206629      -5.64590157
N       13.99773542      24.24478894      18.09853826      -0.00000000      -0.00000000      -0.10206629      -6.54647390
Al      13.99773542      24.24478894      19.99610111      -0.00000000      -0.00000000       0.10206629      -5.64590157
N       13.99773542      26.04069923      20.59805090       0.00000000       0.00000000      -0.10206629      -6.54647390
Al      13.99773542      26.04069923      22.49561374       0.00000000      -0.00000000       0.10206629      -5.64590157
N       13.99773542      24.24478894      23.09756354      -0.00000000      -0.00000000      -0.10206629      -6.54647390
Al      13.99773542      24.24478894      24.99512638       0.00000000      -0.00000000       0.10206629      -5.64590157
N       13.99773542      26.04069923      25.59707618       0.00000000      -0.00000000      -0.10206629      -6.54647390
Al      13.99773542      26.04069923      27.49463902       0.00000000      -0.00000000       0.10206629      -5.64590157
N       13.99773542      24.24478894      28.09658881      -0.00000000      -0.00000000      -0.10206629      -6.54647390
Al      13.99773542      24.24478894      29.99415166      -0.00000000      -0.00000000       0.10206629      -5.64590157
N       13.99773542      26.04069923      30.59610145       0.00000000      -0.00000000      -0.10206629      -6.54647390
Al      13.99773542      26.04069923      32.49366430       0.00000000      -0.00000000       0.10206629      -5.64590157
N       13.99773542      24.24478894      33.09561409      -0.00000000      -0.00000000      -0.10206629      -6.54647390
Al      13.99773542      24.24478894      34.99317694      -0.00000000      -0.00000000       0.10206629      -5.64590157
N       13.99773542      26.04069923      35.59512673       0.00000000      -0.00000000      -0.10206629      -6.54647390
Al      13.99773542      26.04069923      37.49268957       0.00000000      -0.00000000       0.10206629      -5.64590157
N       13.99773542      24.24478894      38.09463937      -0.00000000      -0.00000000      -0.10206629      -6.54647390
Al      13.99773542      24.24478894      39.99220221      -0.00000000      -0.00000000       0.10206629      -5.64590157
N       13.99773542      26.04069923      40.59415201       0.00000000      -0.00000000      -0.10206629      -6.54647390
Al      13.99773542      26.04069923      42.49171485       0.00000000      -0.00000000       0.10206629      -5.64590157
N       13.99773542      24.24478894      43.09366464      -0.00000000      -0.00000000      -0.10206629      -6.54647390
Al      12.44243149      26.93865438      -0.00000000      -0.00000000      -0.00000000       0.10206629      -5.64590157
N       12.44243149      28.73456467       0.60194979       0.00000000       0.00000000      -0.10206629      -6.54647390
Al      12.44243149      28.73456467       2.49951264       0.00000000       0.00000000       0.10206629      -5.64590157
N       12.44243149      26.93865438       3.10146243      -0.00000000       0.00000000      -0.10206629      -6.54647390
Al      12.44243149      26.93865438       4.99902528      -0.00000000      -0.00000000       0.10206629      -5.64590157
N       12.44243149      28.73456467       5.60097507       0.00000000       0.00000000      -0.10206629      -6.54647390
Al      12.44243149      28.73456467       7.49853791       0.00000000       0.00000000       0.10206629      -5.64590157
N       12.44243149      26.93865438       8.10048771      -0.00000000       0.00000000      -0.10206629      -6.54647390
Al      12.44243149      26.93865438       9.99805055      -0.00000000      -0.00000000       0.10206629      -5.64590157
N       12.44243149      28.73456467      10.60000035       0.00000000       0.00000000      -0.10206629      -6.54647390
Al      12.44243149      28.73456467      12.49756319       0.00000000       0.00000000       0.10206629      -5.64590157
N       12.44243149      26.93865438      13.09951298      -0.00000000       0.00000000      -0.10206629      -6.54647390
Al      12.44243149      26.93865438      14.99707583      -0.00000000      -0.00000000       0.10206629      -5.64590157
N       12.44243149      28.73456467      15.59902562       0.00000000       0.00000000      -0.10206629      -6.54647390
Al      12.44243149      28.73456467      17.49658847       0.00000000       0.00000000       0.10206629      -5.64590157
N       12.44243149      26.93865438      18.09853826      -0.00000000       0.00000000      -0.10206629      -6.54647390
Al      12.44243149      26.93865438      19.99610111      -0.00000000      -0.00000000       0.10206629      -5.64590157
N       12.44243149      28.73456467      20.59805090       0.00000000       0.00000000      -0.10206629      -6.54647390
Al      12.44243149      28.73456467      22.49561374       0.00000000       0.00000000       0.10206629      -5.64590157
N       12.44243149      26.93865438      23.09756354      -0.00000000      -0.00000000      -0.10206629      -6.54647390
Al      12.44243149      26.93865438      24.99512638      -0.00000000      -0.00000000       0.10206629      -5.64590157
N       12.44243149      28.73456467      25.59707618       0.00000000       0.00000000      -0.10206629      -6.54647390
Al      12.44243149      28.73456467      27.49463902       0.00000000       0.00000000       0.10206629      -5.64590157
N       12.44243149      26.93865438      28.09658881      -0.00000000      -0.00000000      -0.10206629      -6.54647390
Al      12.44243149      26.93865438      29.99415166      -0.00000000      -0.00000000       0.10206629      -5.64590157
N       12.44243149      28.73456467      30.59610145       0.00000000       0.00000000      -0.10206629      -6.54647390
Al      12.44243149      28.73456467      32.49366430       0.00000000       0.00000000       0.10206629      -5.64590157
N       12.44243149      26.93865438      33.09561409      -0.00000000      -0.00000000      -0.10206629      -6.54647390
Al      12.44243149      26.93865438      34.99317694      -0.00000000       0.00000000       0.10206629      -5.64590157
N       12.44243149      28.73456467      35.59512673       0.00000000       0.00000000      -0.10206629      -6.54647390
Al      12.44243149      28.73456467      37.49268957       0.00000000       0.00000000       0.10206629      -5.64590157
N       12.44243149      26.93865438      38.09463937      -0.00000000      -0.00000000      -0.10206629      -6.54647390
Al      12.44243149      26.93865438      39.99220221      -0.00000000      -0.00000000       0.10206629      -5.64590157
N       12.44243149      28.73456467      40.59415201       0.00000000       0.00000000      -0.10206629      -6.54647390
Al      12.44243149      28.73456467      42.49171485       0.00000000       0.00000000       0.10206629      -5.64590157
N       12.44243149      26.93865438      43.09366464      -0.00000000      -0.00000000      -0.10206629      -6.54647390
Al      10.88712755      29.63251982      -0.00000000      -0.00000000       0.00000000       0.10206629      -5.64590157
N       10.88712755      31.42843011       0.60194979      -0.00000000      -0.00000000      -0.10206629      -6.54647390
Al      10.88712755      31.42843011       2.49951264      -0.00000000      -0.00000000       0.10206629      -5.64590157
N       10.88712755      29.63251982       3.10146243      -0.00000000      -0.00000000      -0.10206629      -6.54647390
Al      10.88712755      29.63251982       4.99902528      -0.00000000       0.00000000       0.10206629      -5.64590157
N       10.88712755      31.42843011       5.60097507      -0.00000000      -0.00000000      -0.10206629      -6.54647390
Al      10.88712755      31.42843011       7.49853791      -0.00000000      -0.00000000       0.10206629      -5.64590157
N       10.88712755      29.63251982       8.10048771      -0.00000000      -0.00000000      -0.10206629      -6.54647390
Al      10.88712755      29.63251982       9.99805055      -0.00000000       0.00000000       0.10206629      -5.64590157
N       10.88712755      31.42843011      10.60000035      -0.00000000      -0.00000000      -0.10206629      -6.54647390
Al      10.88712755      31.42843011      12.49756319      -0.00000000      -0.00000000       0.10206629      -5.64590157
N       10.88712755      29.63251982      13.09951298      -0.00000000       0.00000000      -0.10206629      -6.54647390
Al      10.88712755      29.63251982      14.99707583      -0.00000000       0.00000000       0.10206629      -5.64590157
N       10.88712755      31.42843011      15.59902562      -0.00000000      -0.00000000      -0.10206629      -6.54647390
Al      10.88712755      31.42843011      17.49658847      -0.00000000      -0.00000000       0.10206629      -5.64590157
N       10.88712755      29.63251982      18.09853826      -0.00000000       0.00000000      -0.10206629      -6.54647390
Al      10.88712755      29.63251982      19.99610111      -0.00000000       0.00000000       0.10206629      -5.64590157
N       10.88712755      31.42843011      20.59805090      -0.00000000      -0.00000000      -0.10206629      -6.54647390
Al      10.88712755      31.42843011      22.49561374      -0.00000000      -0.00000000       0.10206629      -5.64590157
N       10.88712755      29.63251982      23.09756354      -0.00000000      -0.00000000      -0.10206629      -6.54647390
Al      10.88712755      29.63251982      24.99512638      -0.00000000       0.00000000       0.10206629      -5.64590157
N       10.88712755      31.42843011      25.59707618      -0.00000000      -0.00000000      -0.10206629      -6.54647390
Al      10.88712755      31.42843011      27.49463902      -0.00000000      -0.00000000       0.10206629      -5.64590157
N       10.88712755      29.63251982      28.09658881      -0.00000000       0.00000000      -0.10206629      -6.54647390
Al      10.88712755      29.63251982      29.99415166      -0.00000000       0.00000000       0.10206629      -5.64590157
N       10.88712755      31.42843011      30.59610145      -0.00000000      -0.00000000      -0.10206629      -6.54647390
Al      10.88712755      31.42843011      32.49366430      -0.00000000      -0.00000000       0.10206629      -5.64590157
N       10.88712755      29.63251982      33.09561409      -0.00000000       0.00000000      -0.10206629      -6.54647390
Al      10.88712755      29.63251982      34.99317694      -0.00000000       0.00000000       0.10206629      -5.64590157
N       10.88712755      31.42843011      35.59512673      -0.00000000      -0.00000000      -0.10206629      -6.54647390
Al      10.88712755      31.42843011      37.49268957      -0.00000000      -0.00000000       0.10206629      -5.64590157
N       10.88712755      29.63251982      38.09463937      -0.00000000       0.00000000      -0.10206629      -6.54647390
Al      10.88712755      29.63251982      39.99220221      -0.00000000       0.00000000       0.10206629      -5.64590157
N       10.88712755      31.42843011      40.59415201      -0.00000000      -0.00000000      -0.10206629      -6.54647390
Al      10.88712755      31.42843011      42.49171485      -0.00000000      -0.00000000       0.10206629      -5.64590157
N       10.88712755      29.63251982      43.09366464      -0.00000000      -0.00000000      -0.10206629      -6.54647390
Al       9.33182361      32.32638525      -0.00000000       0.00000000       0.00000000       0.10206629      -5.64590157
N        9.33182361      34.12229555       0.60194979       0.00000000      -0.00000000      -0.10206629      -6.54647390
Al       9.33182361      34.12229555       2.49951264       0.00000000      -0.00000000       0.10206629      -5.64590157
N        9.33182361      32.32638525       3.10146243       0.00000000       0.00000000      -0.10206629      -6.54647390
Al       9.33182361      32.32638525       4.99902528       0.00000000       0.00000000       0.10206629      -5.64590157
N        9.33182361      34.12229555       5.60097507       0.00000000      -0.00000000      -0.10206629      -6.54647390
Al       9.33182361      34.12229555       7.49853791       0.00000000      -0.00000000       0.10206629      -5.64590157
N        9.33182361      32.32638525       8.10048771       0.00000000       0.00000000      -0.10206629      -6.54647390
Al       9.33182361      32.32638525       9.99805055       0.00000000       0.00000000       0.10206629      -5.64590157
N        9.33182361      34.12229555      10.60000035       0.00000000      -0.00000000      -0.10206629      -6.54647390
Al       9.33182361      34.12229555      12.49756319       0.00000000      -0.00000000       0.10206629      -5.64590157
N        9.33182361      32.32638525      13.09951298       0.00000000       0.00000000      -0.10206629      -6.54647390
Al       9.33182361      32.32638525      14.99707583       0.00000000       0.00000000       0.10206629      -5.64590157
N        9.33182361      34.12229555      15.59902562       0.00000000      -0.00000000      -0.10206629      -6.54647390
Al       9.33182361      34.12229555      17.49658847       0.00000000      -0.00000000       0.10206629      -5.64590157
N        9.33182361      32.32638525      18.09853826       0.00000000       0.00000000      -0.10206629      -6.54647390
Al       9.33182361      32.32638525      19.99610111       0.00000000       0.00000000       0.10206629      -5.64590157
N        9.33182361      34.12229555      20.59805090       0.00000000      -0.00000000      -0.10206629      -6.54647390
Al       9.33182361      34.12229555      22.49561374       0.00000000      -0.00000000       0.10206629      -5.64590157
N        9.33182361      32.32638525      23.09756354       0.00000000       0.00000000      -0.10206629      -6.54647390
Al       9.33182361      32.32638525      24.99512638       0.00000000       0.00000000       0.10206629      -5.64590157
N        9.33182361      34.12229555      25.59707618       0.00000000      -0.00000000      -0.10206629      -6.54647390
Al       9.33182361      34.12229555      27.49463902       0.00000000      -0.00000000       0.10206629      -5.64590157
N        9.33182361      32.32638525      28.09658881       0.00000000       0.00000000      -0.10206629      -6.54647390
Al       9.33182361      32.32638525      29.99415166       0.00000000       0.00000000       0.10206629      -5.64590157
N        9.33182361      34.12229555      30.59610145       0.00000000      -0.00000000      -0.10206629      -6.54647390
Al       9.33182361      34.12229555      32.49366430       0.00000000       0.00000000       0.10206629      -5.64590157
N        9.33182361      32.32638525      33.09561409       0.00000000       0.00000000      -0.10206629      -6.54647390
Al       9.33182361      32.32638525      34.99317694       0.00000000       0.00000000       0.10206629      -5.64590157
N        9.33182361      34.12229555      35.59512673       0.00000000      -0.00000000      -0.10206629      -6.54647390
Al       9.33182361      34.12229555      37.49268957       0.00000000      -0.00000000       0.10206629      -5.64590157
N        9.33182361      32.32638525      38.09463937       0.00000000       0.00000000      -0.10206629      -6.54647390
Al       9.33182361      32.32638525      39.99220221       0.00000000       0.00000000       0.10206629      -5.64590157
N        9.33182361      34.12229555      40.59415201       0.00000000      -0.00000000      -0.10206629      -6.54647390
Al       9.33182361      34.12229555      42.49171485       0.00000000      -0.00000000       0.10206629      -5.64590157
N        9.33182361      32.32638525      43.09366464       0.00000000       0.00000000      -0.10206629      -6.54647390
Al       7.77651968      35.02025069      -0.00000000      -0.00000000       0.00000000       0.10206629      -5.64590157
N        7.77651968      36.81616098       0.60194979       0.00000000      -0.00000000      -0.10206629      -6.54647390
Al       7.77651968      36.81616098       2.49951264       0.00000000      -0.00000000       0.10206629      -5.64590157
N        7.77651968      35.02025069       3.10146243      -0.00000000       0.00000000      -0.10206629      -6.54647390
Al       7.77651968      35.02025069       4.99902528      -0.00000000       0.00000000       0.10206629      -5.64590157
N        7.77651968      36.81616098       5.60097507       0.00000000       0.00000000      -0.10206629      -6.54647390
Al       7.77651968      36.81616098       7.49853791       0.00000000      -0.00000000       0.10206629      -5.64590157
N        7.77651968      35.02025069       8.10048771      -0.00000000       0.00000000      -0.10206629      -6.54647390
Al       7.77651968      35.02025069       9.99805055      -0.00000000       0.00000000       0.10206629      -5.64590157
N        7.77651968      36.81616098      10.60000035       0.00000000      -0.00000000      -0.10206629      -6.54647390
Al       7.77651968      36.81616098      12.49756319       0.00000000      -0.00000000       0.10206629      -5.64590157
N        7.77651968      35.02025069      13.09951298      -0.00000000       0.00000000      -0.10206629      -6.54647390
Al       7.77651968      35.02025069      14.99707583      -0.00000000       0.00000000       0.10206629      -5.64590157
N        7.77651968      36.81616098      15.59902562       0.00000000      -0.00000000      -0.10206629      -6.54647390
Al       7.77651968      36.81616098      17.49658847       0.00000000      -0.00000000       0.10206629      -5.64590157
N        7.77651968      35.02025069      18.09853826      -0.00000000       0.00000000      -0.10206629      -6.54647390
Al       7.77651968      35.02025069      19.99610111      -0.00000000       0.00000000       0.10206629      -5.64590157
N        7.77651968      36.81616098      20.59805090       0.00000000      -0.00000000      -0.10206629      -6.54647390
Al       7.77651968      36.81616098      22.49561374       0.00000000      -0.00000000       0.10206629      -5.64590157
N        7.77651968      35.02025069      23.09756354      -0.00000000       0.00000000      -0.10206629      -6.54647390
Al       7.77651968      35.02025069      24.99512638      -0.00000000       0.00000000       0.10206629      -5.64590157
N        7.77651968      36.81616098      25.59707618       0.00000000      -0.00000000      -0.10206629      -6.54647390
Al       7.77651968      36.81616098      27.49463902       0.00000000      -0.00000000       0.10206629      -5.64590157
N        7.77651968      35.02025069      28.09658881      -0.00000000       0.00000000      -0.10206629      -6.54647390
Al       7.77651968      35.02025069      29.99415166      -0.00000000       0.00000000       0.10206629      -5.64590157
N        7.77651968      36.81616098      30.59610145       0.00000000      -0.00000000      -0.10206629      -6.54647390
Al       7.77651968      36.81616098      32.49366430       0.00000000      -0.00000000       0.10206629      -5.64590157
N        7.77651968      35.02025069      33.09561409      -0.00000000       0.00000000      -0.10206629      -6.54647390
Al       7.77651968      35.02025069      34.99317694      -0.00000000       0.00000000       0.10206629      -5.64590157
N        7.77651968      36.81616098      35.59512673       0.00000000      -0.00000000      -0.10206629      -6.54647390
Al       7.77651968      36.81616098      37.49268957       0.00000000      -0.00000000       0.10206629      -5.64590157
N        7.77651968      35.02025069      38.09463937      -0.00000000       0.00000000      -0.10206629      -6.54647390
Al       7.77651968      35.02025069      39.99220221      -0.00000000       0.00000000       0.10206629      -5.64590157
N        7.77651968      36.81616098      40.59415201      -0.00000000      -0.00000000      -0.10206629      -6.54647390
Al       7.77651968      36.81616098      42.49171485      -0.00000000      -0.00000000       0.10206629      -5.64590157
N        7.77651968      35.02025069      43.09366464      -0.00000000       0.00000000      -0.10206629      -6.54647390
Al       6.22121574      37.71411613      -0.00000000       0.00000000      -0.00000000       0.10206629      -5.64590157
N        6.22121574      39.51002642       0.60194979       0.00000000       0.00000000      -0.10206629      -6.54647390
Al       6.22121574      39.51002642       2.49951264       0.00000000       0.00000000       0.10206629      -5.64590157
N        6.22121574      37.71411613       3.10146243       0.00000000      -0.00000000      -0.10206629      -6.54647390
Al       6.22121574      37.71411613       4.99902528       0.00000000      -0.00000000       0.10206629      -5.64590157
N        6.22121574      39.51002642       5.60097507       0.00000000       0.00000000      -0.10206629      -6.54647390
Al       6.22121574      39.51002642       7.49853791       0.00000000       0.00000000       0.10206629      -5.64590157
N        6.22121574      37.71411613       8.10048771       0.00000000      -0.00000000      -0.10206629      -6.54647390
Al       6.22121574      37.71411613       9.99805055       0.00000000      -0.00000000       0.10206629      -5.64590157
N        6.22121574      39.51002642      10.60000035       0.00000000       0.00000000      -0.10206629      -6.54647390
Al       6.22121574      39.51002642      12.49756319       0.00000000       0.00000000       0.10206629      -5.64590157
N        6.22121574      37.71411613      13.09951298       0.00000000      -0.00000000      -0.10206629      -6.54647390
Al       6.22121574      37.71411613      14.99707583       0.00000000      -0.00000000       0.10206629      -5.64590157
N        6.22121574      39.51002642      15.59902562       0.00000000       0.00000000      -0.10206629      -6.54647390
Al       6.22121574      39.51002642      17.49658847       0.00000000       0.00000000       0.10206629      -5.64590157
N        6.22121574      37.71411613      18.09853826       0.00000000      -0.00000000      -0.10206629      -6.54647390
Al       6.22121574      37.71411613      19.99610111       0.00000000      -0.00000000       0.10206629      -5.64590157
N        6.22121574      39.51002642      20.59805090       0.00000000       0.00000000      -0.10206629      -6.54647390
Al       6.22121574      39.51002642      22.49561374       0.00000000       0.00000000       0.10206629      -5.64590157
N        6.22121574      37.71411613      23.09756354       0.00000000      -0.00000000      -0.10206629      -6.54647390
Al       6.22121574      37.71411613      24.99512638       0.00000000      -0.00000000       0.10206629      -5.64590157
N        6.22121574      39.51002642      25.59707618       0.00000000       0.00000000      -0.10206629      -6.54647390
Al       6.22121574      39.51002642      27.49463902       0.00000000       0.00000000       0.10206629      -5.64590157
N        6.22121574      37.71411613      28.09658881       0.00000000      -0.00000000      -0.10206629      -6.54647390
Al       6.22121574      37.71411613      29.99415166       0.00000000      -0.00000000       0.10206629      -5.64590157
N        6.22121574      39.51002642      30.59610145       0.00000000       0.00000000      -0.10206629      -6.54647390
Al       6.22121574      39.51002642      32.49366430       0.00000000       0.00000000       0.10206629      -5.64590157
N        6.22121574      37.71411613      33.09561409       0.00000000      -0.00000000      -0.10206629      -6.54647390
Al       6.22121574      37.71411613      34.99317694       0.00000000      -0.00000000       0.10206629      -5.64590157
N        6.22121574      39.51002642      35.59512673       0.00000000       0.00000000      -0.10206629      -6.54647390
Al       6.22121574      39.51002642      37.49268957       0.00000000       0.00000000       0.10206629      -5.64590157
N        6.22121574      37.71411613      38.09463937       0.00000000      -0.00000000      -0.10206629      -6.54647390
Al       6.22121574      37.71411613      39.99220221      -0.00000000      -0.00000000       0.10206629      -5.64590157
N        6.22121574      39.51002642      40.59415201       0.00000000       0.00000000      -0.10206629      -6.54647390
Al       6.22121574      39.51002642      42.49171485       0.00000000       0.00000000       0.10206629      -5.64590157
N        6.22121574      37.71411613      43.09366464      -0.00000000      -0.00000000      -0.10206629      -6.54647390
Al      31.10607871      -0.00000000       0.00000000      -0.00000000      -0.00000000       0.10206629      -5.64590157
N       31.10607871       1.79591029       0.60194979      -0.00000000      -0.00000000      -0.10206629      -6.54647390
Al      31.10607871       1.79591029       2.49951264      -0.00000000      -0.00000000       0.10206629      -5.64590157
N       31.10607871      -0.00000000       3.10146243      -0.00000000      -0.00000000      -0.10206629      -6.54647390
Al      31.10607871      -0.00000000       4.99902528      -0.00000000      -0.00000000       0.10206629      -5.64590157
N       31.10607871       1.79591029       5.60097507      -0.00000000      -0.00000000      -0.10206629      -6.54647390
Al      31.10607871       1.79591029       7.49853791      -0.00000000      -0.00000000       0.10206629      -5.64590157
N       31.10607871      -0.00000000       8.10048771      -0.00000000      -0.00000000      -0.10206629      -6.54647390
Al      31.10607871      -0.00000000       9.99805055      -0.00000000      -0.00000000       0.10206629      -5.64590157
N       31.10607871       1.79591029      10.60000035      -0.00000000      -0.00000000      -0.10206629      -6.54647390
Al      31.10607871       1.79591029      12.49756319      -0.00000000      -0.00000000       0.10206629      -5.64590157
N       31.10607871      -0.00000000      13.09951298      -0.00000000      -0.00000000      -0.10206629      -6.54647390
Al      31.10607871      -0.00000000      14.99707583      -0.00000000      -0.00000000       0.10206629      -5.64590157
N       31.10607871       1.79591029      15.59902562      -0.00000000      -0.00000000      -0.10206629      -6.54647390
Al      31.10607871       1.79591029      17.49658847      -0.00000000      -0.00000000       0.10206629      -5.64590157
N       31.10607871      -0.00000000      18.09853826      -0.00000000      -0.00000000      -0.10206629      -6.54647390
Al      31.10607871      -0.00000000      19.99610111      -0.00000000      -0.00000000       0.10206629      -5.64590157
N       31.10607871       1.79591029      20.59805090      -0.00000000      -0.00000000      -0.10206629      -6.54647390
Al      31.10607871       1.79591029      22.49561374      -0.00000000      -0.00000000       0.10206629      -5.64590157
N       31.10607871      -0.00000000      23.09756354      -0.00000000      -0.00000000      -0.10206629      -6.54647390
Al      31.10607871      -0.00000000      24.99512638      -0.00000000      -0.00000000       0.10206629      -5.64590157
N       31.10607871       1.79591029      25.59707618      -0.00000000      -0.00000000      -0.10206629      -6.54647390
Al      31.10607871       1.79591029      27.49463902      -0.00000000      -0.00000000       0.10206629      -5.64590157
N       31.10607871      -0.00000000      28.09658881      -0.00000000      -0.00000000      -0.10206629      -6.54647390
Al      31.10607871      -0.00000000      29.99415166      -0.00000000      -0.00000000       0.10206629      -5.64590157
N       31.10607871       1.79591029      30.59610145      -0.00000000      -0.00000000      -0.10206629      -6.54647390
Al      31.10607871       1.79591029      32.49366430      -0.00000000      -0.00000000       0.10206629      -5.64590157
N       31.10607871      -0.00000000      33.09561409      -0.00000000      -0.00000000      -0.10206629      -6.54647390
Al      31.10607871      -0.00000000      34.99317694      -0.00000000      -0.00000000       0.10206629      -5.64590157
N       31.10607871       1.79591029      35.59512673      -0.00000000      -0.00000000      -0.10206629      -6.54647390
Al      31.10607871       1.79591029      37.49268957      -0.00000000      -0.00000000       0.10206629      -5.64590157
N       31.10607871      -0.00000000      38.09463937      -0.00000000      -0.00000000      -0.10206629      -6.54647390
Al      31.10607871      -0.00000000      39.99220221      -0.00000000      -0.00000000       0.10206629      -5.64590157
N       31.10607871       1.79591029      40.59415201      -0.00000000      -0.00000000      -0.10206629      -6.54647390
Al      31.10607871       1.79591029      42.49171485      -0.00000000      -0.00000000       0.10206629      -5.64590157
N       31.10607871      -0.00000000      43.09366464      -0.00000000      -0.00000000      -0.10206629      -6.54647390
Al      29.55077478       2.69386544       0.00000000       0.00000000      -0.00000000       0.10206629      -5.64590157
N       29.55077478       4.48977573       0.60194979       0.00000000      -0.00000000      -0.10206629      -6.54647390
Al      29.55077478       4.48977573       2.49951264       0.00000000      -0.00000000       0.10206629      -5.64590157
N       29.55077478       2.69386544       3.10146243       0.00000000       0.00000000      -0.10206629      -6.54647390
Al      29.55077478       2.69386544       4.99902528       0.00000000       0.00000000       0.10206629      -5.64590157
N       29.55077478       4.48977573       5.60097507       0.00000000      -0.00000000      -0.10206629      -6.54647390
Al      29.55077478       4.48977573       7.49853791       0.00000000       0.00000000       0.10206629      -5.64590157
N       29.55077478       2.69386544       8.10048771       0.00000000       0.00000000      -0.10206629      -6.54647390
Al      29.55077478       2.69386544       9.99805055       0.00000000       0.00000000       0.10206629      -5.64590157
N       29.55077478       4.48977573      10.60000035      -0.00000000      -0.00000000      -0.10206629      -6.54647390
Al      29.55077478       4.48977573      12.49756319       0.00000000       0.00000000       0.10206629      -5.64590157
N       29.55077478       2.69386544      13.09951298       0.00000000      -0.00000000      -0.10206629      -6.54647390
Al      29.55077478       2.69386544      14.99707583       0.00000000      -0.00000000       0.10206629      -5.64590157
N       29.55077478       4.48977573      15.59902562       0.00000000      -0.00000000      -0.10206629      -6.54647390
Al      29.55077478       4.48977573      17.49658847       0.00000000      -0.00000000       0.10206629      -5.64590157
N       29.55077478       2.69386544      18.09853826       0.00000000       0.00000000      -0.10206629      -6.54647390
Al      29.55077478       2.69386544      19.99610111       0.00000000       0.00000000       0.10206629      -5.64590157
N       29.55077478       4.48977573      20.59805090       0.00000000      -0.00000000      -0.10206629      -6.54647390
Al      29.55077478       4.48977573      22.49561374       0.00000000       0.00000000       0.10206629      -5.64590157
N       29.55077478       2.69386544      23.09756354       0.00000000      -0.00000000      -0.10206629      -6.54647390
Al      29.55077478       2.69386544      24.99512638       0.00000000       0.00000000       0.10206629      -5.64590157
N       29.55077478       4.48977573      25.59707618      -0.00000000      -0.00000000      -0.10206629      -6.54647390
Al      29.55077478       4.48977573      27.49463902       0.00000000       0.00000000       0.10206629      -5.64590157
N       29.55077478       2.69386544      28.09658881       0.00000000       0.00000000      -0.10206629      -6.54647390
Al      29.55077478       2.69386544      29.99415166       0.00000000      -0.00000000       0.10206629      -5.64590157
N       29.55077478       4.48977573      30.59610145       0.00000000      -0.00000000      -0.10206629      -6.54647390
Al      29.55077478       4.48977573      32.49366430       0.00000000      -0.00000000       0.10206629      -5.64590157
N       29.55077478       2.69386544      33.09561409       0.00000000       0.00000000      -0.10206629      -6.54647390
Al      29.55077478       2.69386544      34.99317694       0.00000000      -0.00000000       0.10206629      -5.64590157
N       29.55077478       4.48977573      35.59512673      -0.00000000      -0.00000000      -0.10206629      -6.54647390
Al      29.55077478       4.48977573      37.49268957       0.00000000      -0.00000000       0.10206629      -5.64590157
N       29.55077478       2.69386544      38.09463937       0.00000000       0.00000000      -0.10206629      -6.54647390
Al      29.55077478       2.69386544      39.99220221       0.00000000      -0.00000000       0.10206629      -5.64590157
N       29.55077478       4.48977573      40.59415201       0.00000000      -0.00000000      -0.10206629      -6.54647390
Al      29.55077478       4.48977573      42.49171485       0.00000000      -0.00000000       0.10206629      -5.64590157
N       29.55077478       2.69386544      43.09366464       0.00000000       0.00000000      -0.10206629      -6.54647390
Al      27.99547084       5.38773088       0.00000000       0.00000000       0.00000000       0.10206629      -5.64590157
N       27.99547084       7.18364117       0.60194979       0.00000000      -0.00000000      -0.10206629      -6.54647390
Al      27.99547084       7.18364117       2.49951264       0.00000000      -0.00000000       0.10206629      -5.64590157
N       27.99547084       5.38773088       3.10146243      -0.00000000       0.00000000      -0.10206629      -6.54647390
Al      27.99547084       5.38773088       4.99902528       0.00000000       0.00000000       0.10206629      -5.64590157
N       27.99547084       7.18364117       5.60097507       0.00000000      -0.00000000      -0.10206629      -6.54647390
Al      27.99547084       7.18364117       7.49853791       0.00000000      -0.00000000       0.10206629      -5.64590157
N       27.99547084       5.38773088       8.10048771      -0.00000000       0.00000000      -0.10206629      -6.54647390
Al      27.99547084       5.38773088       9.99805055      -0.00000000       0.00000000       0.10206629      -5.64590157
N       27.99547084       7.18364117      10.60000035       0.00000000      -0.00000000      -0.10206629      -6.54647390
Al      27.99547084       7.18364117      12.49756319       0.00000000      -0.00000000       0.10206629      -5.64590157
N       27.99547084       5.38773088      13.09951298      -0.00000000       0.00000000      -0.10206629      -6.54647390
Al      27.99547084       5.38773088      14.99707583      -0.00000000       0.00000000       0.10206629      -5.64590157
N       27.99547084       7.18364117      15.59902562      -0.00000000      -0.00000000      -0.10206629      -6.54647390
Al      27.99547084       7.18364117      17.49658847       0.00000000      -0.00000000       0.10206629      -5.64590157
N       27.99547084       5.38773088      18.09853826      -0.00000000       0.00000000      -0.10206629      -6.54647390
Al      27.99547084       5.38773088      19.99610111      -0.00000000       0.00000000       0.10206629      -5.64590157
N       27.99547084       7.18364117      20.59805090       0.00000000      -0.00000000      -0.10206629      -6.54647390
Al      27.99547084       7.18364117      22.49561374       0.00000000      -0.00000000       0.10206629      -5.64590157
N       27.99547084       5.38773088      23.09756354       0.00000000       0.00000000      -0.10206629      -6.54647390
Al      27.99547084       5.38773088      24.99512638       0.00000000       0.00000000       0.10206629      -5.64590157
N       27.99547084       7.18364117      25.59707618       0.00000000      -0.00000000      -0.10206629      -6.54647390
Al      27.99547084       7.18364117      27.49463902       0.00000000       0.00000000       0.10206629      -5.64590157
N       27.99547084       5.38773088      28.09658881      -0.00000000       0.00000000      -0.10206629      -6.54647390
Al      27.99547084       5.38773088      29.99415166      -0.00000000       0.00000000       0.10206629      -5.64590157
N       27.99547084       7.18364117      30.59610145      -0.00000000      -0.00000000      -0.10206629      -6.54647390
Al      27.99547084       7.18364117      32.49366430       0.00000000       0.00000000       0.10206629      -5.64590157
N       27.99547084       5.38773088      33.09561409      -0.00000000       0.00000000      -0.10206629      -6.54647390
Al      27.99547084       5.38773088      34.99317694      -0.00000000       0.00000000       0.10206629      -5.64590157
N       27.99547084       7.18364117      35.59512673       0.00000000      -0.00000000      -0.10206629      -6.54647390
Al      27.99547084       7.18364117      37.49268957      -0.00000000      -0.00000000       0.10206629      -5.64590157
N       27.99547084       5.38773088      38.09463937       0.00000000       0.00000000      -0.10206629      -6.54647390
Al      27.99547084       5.38773088      39.99220221      -0.00000000       0.00000000       0.10206629      -5.64590157
N       27.99547084       7.18364117      40.59415201       0.00000000      -0.00000000      -0.10206629      -6.54647390
Al      27.99547084       7.18364117      42.49171485       0.00000000      -0.00000000       0.10206629      -5.64590157
N       27.99547084       5.38773088      43.09366464      -0.00000000       0.00000000      -0.10206629      -6.54647390
Al      26.44016691       8.08159631       0.00000000      -0.00000000      -0.00000000       0.10206629      -5.64590157
N       26.44016691       9.87750661       0.60194979       0.00000000       0.00000000      -0.10206629      -6.54647390
Al      26.44016691       9.87750661       2.49951264       0.00000000       0.00000000       0.10206629      -5.64590157
N       26.44016691       8.08159631       3.10146243      -0.00000000       0.00000000      -0.10206629      -6.54647390
Al      26.44016691       8.08159631       4.99902528      -0.00000000      -0.00000000       0.10206629      -5.64590157
N       26.44016691       9.87750661       5.60097507       0.00000000       0.00000000      -0.10206629      -6.54647390
Al      26.44016691       9.87750661       7.49853791       0.00000000       0.00000000       0.10206629      -5.64590157
N       26.44016691       8.08159631       8.10048771       0.00000000      -0.00000000      -0.10206629      -6.54647390
Al      26.44016691       8.08159631       9.99805055      -0.00000000      -0.00000000       0.10206629      -5.64590157
N       26.44016691       9.87750661      10.60000035       0.00000000       0.00000000      -0.10206629      -6.54647390
Al      26.44016691       9.87750661      12.49756319       0.00000000       0.00000000       0.10206629      -5.64590157
N       26.44016691       8.08159631      13.09951298      -0.00000000      -0.00000000      -0.10206629      -6.54647390
Al      26.44016691       8.08159631      14.99707583      -0.00000000      -0.00000000       0.10206629      -5.64590157
N       26.44016691       9.87750661      15.59902562       0.00000000      -0.00000000      -0.10206629      -6.54647390
Al      26.44016691       9.87750661      17.49658847       0.00000000       0.00000000       0.10206629      -5.64590157
N       26.44016691       8.08159631      18.09853826      -0.00000000      -0.00000000      -0.10206629      -6.54647390
Al      26.44016691       8.08159631      19.99610111      -0.00000000      -0.00000000       0.10206629      -5.64590157
N       26.44016691       9.87750661      20.59805090       0.00000000       0.00000000      -0.10206629      -6.54647390
Al      26.44016691       9.87750661      22.49561374       0.00000000       0.00000000       0.10206629      -5.64590157
N       26.44016691       8.08159631      23.09756354      -0.00000000      -0.00000000      -0.10206629      -6.54647390
Al      26.44016691       8.08159631      24.99512638      -0.00000000       0.00000000       0.10206629      -5.64590157
N       26.44016691       9.87750661      25.59707618       0.00000000      -0.00000000      -0.10206629      -6.54647390
Al      26.44016691       9.87750661      27.49463902       0.00000000       0.00000000       0.10206629      -5.64590157
N       26.44016691       8.08159631      28.09658881      -0.00000000      -0.00000000      -0.10206629      -6.54647390
Al      26.44016691       8.08159631      29.99415166      -0.00000000      -0.00000000       0.10206629      -5.64590157
N       26.44016691       9.87750661      30.59610145       0.00000000       0.00000000      -0.10206629      -6.54647390
Al      26.44016691       9.87750661      32.49366430       0.00000000       0.00000000       0.10206629      -5.64590157
N       26.44016691       8.08159631      33.09561409      -0.00000000      -0.00000000      -0.10206629      -6.54647390
Al      26.44016691       8.08159631      34.99317694      -0.00000000       0.00000000       0.10206629      -5.64590157
N       26.44016691       9.87750661      35.59512673       0.00000000       0.00000000      -0.10206629      -6.54647390
Al      26.44016691       9.87750661      37.49268957       0.00000000       0.00000000       0.10206629      -5.64590157
N       26.44016691       8.08159631      38.09463937      -0.00000000      -0.00000000      -0.10206629      -6.54647390
Al      26.44016691       8.08159631      39.99220221      -0.00000000       0.00000000       0.10206629      -5.64590157
N       26.44016691       9.87750661      40.59415201       0.00000000      -0.00000000      -0.10206629      -6.54647390
Al      26.44016691       9.87750661      42.49171485       0.00000000       0.00000000       0.10206629      -5.64590157
N       26.44016691       8.08159631      43.09366464      -0.00000000      -0.00000000      -0.10206629      -6.54647390
Al      24.88486297      10.77546175       0.00000000       0.00000000       0.00000000       0.10206629      -5.64590157
N       24.88486297      12.57137204       0.60194979      -0.00000000      -0.00000000      -0.10206629      -6.54647390
Al      24.88486297      12.57137204       2.49951264      -0.00000000      -0.00000000       0.10206629      -5.64590157
N       24.88486297      10.77546175       3.10146243      -0.00000000      -0.00000000      -0.10206629      -6.54647390
Al      24.88486297      10.77546175       4.99902528      -0.00000000       0.00000000       0.10206629      -5.64590157
N       24.88486297      12.57137204       5.60097507      -0.00000000      -0.00000000      -0.10206629      -6.54647390
Al      24.88486297      12.57137204       7.49853791      -0.00000000      -0.00000000       0.10206629      -5.64590157
N       24.88486297      10.77546175       8.10048771       0.00000000       0.00000000      -0.10206629      -6.54647390
Al      24.88486297      10.77546175       9.99805055      -0.00000000       0.00000000       0.10206629      -5.64590157
N       24.88486297      12.57137204      10.60000035      -0.00000000      -0.00000000      -0.10206629      -6.54647390
Al      24.88486297      12.57137204      12.49756319      -0.00000000      -0.00000000       0.10206629      -5.64590157
N       24.88486297      10.77546175      13.09951298      -0.00000000      -0.00000000      -0.10206629      -6.54647390
Al      24.88486297      10.77546175      14.99707583      -0.00000000       0.00000000       0.10206629      -5.64590157
N       24.88486297      12.57137204      15.59902562      -0.00000000      -0.00000000      -0.10206629      -6.54647390
Al      24.88486297      12.57137204      17.49658847      -0.00000000      -0.00000000       0.10206629      -5.64590157
N       24.88486297      10.77546175      18.09853826      -0.00000000       0.00000000      -0.10206629      -6.54647390
Al      24.88486297      10.77546175      19.99610111      -0.00000000       0.00000000       0.10206629      -5.64590157
N       24.88486297      12.57137204      20.59805090      -0.00000000      -0.00000000      -0.10206629      -6.54647390
Al      24.88486297      12.57137204      22.49561374      -0.00000000      -0.00000000       0.10206629      -5.64590157
N       24.88486297      10.77546175      23.09756354      -0.00000000      -0.00000000      -0.10206629      -6.54647390
Al      24.88486297      10.77546175      24.99512638      -0.00000000       0.00000000       0.10206629      -5.64590157
N       24.88486297      12.57137204      25.59707618      -0.00000000      -0.00000000      -0.10206629      -6.54647390
Al      24.88486297      12.57137204      27.49463902      -0.00000000      -0.00000000       0.10206629      -5.64590157
N       24.88486297      10.77546175      28.09658881      -0.00000000       0.00000000      -0.10206629      -6.54647390
Al      24.88486297      10.77546175      29.99415166      -0.00000000       0.00000000       0.10206629      -5.64590157
N       24.88486297      12.57137204      30.59610145      -0.00000000      -0.00000000      -0.10206629      -6.54647390
Al      24.88486297      12.57137204      32.49366430      -0.00000000      -0.00000000       0.10206629      -5.64590157
N       24.88486297      10.77546175      33.09561409      -0.00000000      -0.00000000      -0.10206629      -6.54647390
Al      24.88486297      10.77546175      34.99317694      -0.00000000      -0.00000000       0.10206629      -5.64590157
N       24.88486297      12.57137204      35.59512673      -0.00000000      -0.00000000      -0.10206629      -6.54647390
Al      24.88486297      12.57137204      37.49268957      -0.00000000      -0.00000000       0.10206629      -5.64590157
N       24.88486297      10.77546175      38.09463937       0.00000000       0.00000000      -0.10206629      -6.54647390
Al      24.88486297      10.77546175      39.99220221      -0.00000000       0.00000000       0.10206629      -5.64590157
N       24.88486297      12.57137204      40.59415201      -0.00000000      -0.00000000      -0.10206629      -6.54647390
Al      24.88486297      12.57137204      42.49171485      -0.00000000      -0.00000000       0.10206629      -5.64590157
N       24.88486297      10.77546175      43.09366464      -0.00000000       0.00000000      -0.10206629      -6.54647390
Al      23.32955904      13.46932719       0.00000000       0.00000000       0.00000000       0.10206629      -5.64590157
N       23.32955904      15.26523748       0.60194979      -0.00000000      -0.00000000      -0.10206629      -6.54647390
Al      23.32955904      15.26523748       2.49951264      -0.00000000      -0.00000000       0.10206629      -5.64590157
N       23.32955904      13.46932719       3.10146243       0.00000000      -0.00000000      -0.10206629      -6.54647390
Al      23.32955904      13.46932719       4.99902528       0.00000000       0.00000000       0.10206629      -5.64590157
N       23.32955904      15.26523748       5.60097507       0.00000000      -0.00000000      -0.10206629      -6.54647390
Al      23.32955904      15.26523748       7.49853791      -0.00000000      -0.00000000       0.10206629      -5.64590157
N       23.32955904      13.46932719       8.10048771       0.00000000      -0.00000000      -0.10206629      -6.54647390
Al      23.32955904      13.46932719       9.99805055       0.00000000      -0.00000000       0.10206629      -5.64590157
N       23.32955904      15.26523748      10.60000035      -0.00000000      -0.00000000      -0.10206629      -6.54647390
Al      23.32955904      15.26523748      12.49756319      -0.00000000      -0.00000000       0.10206629      -5.64590157
N       23.32955904      13.46932719      13.09951298       0.00000000      -0.00000000      -0.10206629      -6.54647390
Al      23.32955904      13.46932719      14.99707583       0.00000000       0.00000000       0.10206629      -5.64590157
N       23.32955904      15.26523748      15.59902562       0.00000000      -0.00000000      -0.10206629      -6.54647390
Al      23.32955904      15.26523748      17.49658847      -0.00000000       0.00000000       0.10206629      -5.64590157
N       23.32955904      13.46932719      18.09853826       0.00000000      -0.00000000      -0.10206629      -6.54647390
Al      23.32955904      13.46932719      19.99610111       0.00000000       0.00000000       0.10206629      -5.64590157
N       23.32955904      15.26523748      20.59805090      -0.00000000      -0.00000000      -0.10206629      -6.54647390
Al      23.32955904      15.26523748      22.49561374      -0.00000000      -0.00000000       0.10206629      -5.64590157
N       23.32955904      13.46932719      23.09756354       0.00000000      -0.00000000      -0.10206629      -6.54647390
Al      23.32955904      13.46932719      24.99512638       0.00000000      -0.00000000       0.10206629      -5.64590157
N       23.32955904      15.26523748      25.59707618       0.00000000      -0.00000000      -0.10206629      -6.54647390
Al      23.32955904      15.26523748      27.49463902      -0.00000000      -0.00000000       0.10206629      -5.64590157
N       23.32955904      13.46932719      28.09658881       0.00000000       0.00000000      -0.10206629      -6.54647390
Al      23.32955904      13.46932719      29.99415166       0.00000000       0.00000000       0.10206629      -5.64590157
N       23.32955904      15.26523748      30.59610145       0.00000000      -0.00000000      -0.10206629      -6.54647390
Al      23.32955904      15.26523748      32.49366430      -0.00000000      -0.00000000       0.10206629      -5.64590157
N       23.32955904      13.46932719      33.09561409       0.00000000      -0.00000000      -0.10206629      -6.54647390
Al      23.32955904      13.46932719      34.99317694       0.00000000       0.00000000       0.10206629      -5.64590157
N       23.32955904      15.26523748      35.59512673      -0.00000000      -0.00000000      -0.10206629      -6.54647390
Al      23.32955904      15.26523748      37.49268957      -0.00000000      -0.00000000       0.10206629      -5.64590157
N       23.32955904      13.46932719      38.09463937       0.00000000       0.00000000      -0.10206629      -6.54647390
Al      23.32955904      13.46932719      39.99220221       0.00000000      -0.00000000       0.10206629      -5.64590157
N       23.32955904      15.26523748      40.59415201      -0.00000000      -0.00000000      -0.10206629      -6.54647390
Al      23.32955904      15.26523748      42.49171485      -0.00000000      -0.00000000       0.10206629      -5.64590157
N       23.32955904      13.46932719      43.09366464       0.00000000       0.00000000      -0.10206629      -6.54647390
Al      21.77425510      16.16319263       0.00000000      -0.00000000       0.00000000       0.10206629      -5.64590157
N       21.77425510      17.95910292       0.60194979      -0.00000000      -0.00000000      -0.10206629      -6.54647390
Al      21.77425510      17.95910292       2.49951264       0.00000000      -0.00000000       0.10206629      -5.64590157
N       21.77425510      16.16319263       3.10146243      -0.00000000       0.00000000      -0.10206629      -6.54647390
Al      21.77425510      16.16319263       4.99902528      -0.00000000       0.00000000       0.10206629      -5.64590157
N       21.77425510      17.95910292       5.60097507      -0.00000000      -0.00000000      -0.10206629      -6.54647390
Al      21.77425510      17.95910292       7.49853791       0.00000000      -0.00000000       0.10206629      -5.64590157
N       21.77425510      16.16319263       8.10048771      -0.00000000       0.00000000      -0.10206629      -6.54647390
Al      21.77425510      16.16319263       9.99805055      -0.00000000       0.00000000       0.10206629      -5.64590157
N       21.77425510      17.95910292      10.60000035      -0.00000000      -0.00000000      -0.10206629      -6.54647390
Al      21.77425510      17.95910292      12.49756319       0.00000000      -0.00000000       0.10206629      -5.64590157
N       21.77425510      16.16319263      13.09951298      -0.00000000       0.00000000      -0.10206629      -6.54647390
Al      21.77425510      16.16319263      14.99707583      -0.00000000       0.00000000       0.10206629      -5.64590157
N       21.77425510      17.95910292      15.59902562       0.00000000      -0.00000000      -0.10206629      -6.54647390
Al      21.77425510      17.95910292      17.49658847       0.00000000      -0.00000000       0.10206629      -5.64590157
N       21.77425510      16.16319263      18.09853826      -0.00000000       0.00000000      -0.10206629      -6.54647390
Al      21.77425510      16.16319263      19.99610111      -0.00000000       0.00000000       0.10206629      -5.64590157
N       21.77425510      17.95910292      20.59805090      -0.00000000      -0.00000000      -0.10206629      -6.54647390
Al      21.77425510      17.95910292      22.49561374       0.00000000      -0.00000000       0.10206629      -5.64590157
N       21.77425510      16.16319263      23.09756354      -0.00000000       0.00000000      -0.10206629      -6.54647390
Al      21.77425510      16.16319263      24.99512638      -0.00000000       0.00000000       0.10206629      -5.64590157
N       21.77425510      17.95910292      25.59707618       0.00000000      -0.00000000      -0.10206629      -6.54647390
Al      21.77425510      17.95910292      27.49463902       0.00000000      -0.00000000       0.10206629      -5.64590157
N       21.77425510      16.16319263      28.09658881      -0.00000000       0.00000000      -0.10206629      -6.54647390
Al      21.77425510      16.16319263      29.99415166      -0.00000000       0.00000000       0.10206629      -5.64590157
N       21.77425510      17.95910292      30.59610145       0.00000000      -0.00000000      -0.10206629      -6.54647390
Al      21.77425510      17.95910292      32.49366430       0.00000000      -0.00000000       0.10206629      -5.64590157
N       21.77425510      16.16319263      33.09561409      -0.00000000       0.00000000      -0.10206629      -6.54647390
Al      21.77425510      16.16319263      34.99317694      -0.00000000       0.00000000       0.10206629      -5.64590157
N       21.77425510      17.95910292      35.59512673       0.00000000      -0.00000000      -0.10206629      -6.54647390
Al      21.77425510      17.95910292      37.49268957      -0.00000000      -0.00000000       0.10206629      -5.64590157
N       21.77425510      16.16319263      38.09463937      -0.00000000       0.00000000      -0.10206629      -6.54647390
Al      21.77425510      16.16319263      39.99220221      -0.00000000       0.00000000       0.10206629      -5.64590157
N       21.77425510      17.95910292      40.59415201      -0.00000000      -0.00000000      -0.10206629      -6.54647390
Al      21.77425510      17.95910292      42.49171485       0.00000000      -0.00000000       0.10206629      -5.64590157
N       21.77425510      16.16319263      43.09366464      -0.00000000       0.00000000      -0.10206629      -6.54647390
Al      20.21895116      18.85705806       0.00000000      -0.00000000      -0.00000000       0.10206629      -5.64590157
N       20.21895116      20.65296836       0.60194979       0.00000000       0.00000000      -0.10206629      -6.54647390
Al      20.21895116      20.65296836       2.49951264       0.00000000       0.00000000       0.10206629      -5.64590157
N       20.21895116      18.85705806       3.10146243      -0.00000000      -0.00000000      -0.10206629      -6.54647390
Al      20.21895116      18.85705806       4.99902528      -0.00000000      -0.00000000       0.10206629      -5.64590157
N       20.21895116      20.65296836       5.60097507       0.00000000       0.00000000      -0.10206629      -6.54647390
Al      20.21895116      20.65296836       7.49853791       0.00000000       0.00000000       0.10206629      -5.64590157
N       20.21895116      18.85705806       8.10048771      -0.00000000      -0.00000000      -0.10206629      -6.54647390
Al      20.21895116      18.85705806       9.99805055      -0.00000000      -0.00000000       0.10206629      -5.64590157
N       20.21895116      20.65296836      10.60000035       0.00000000       0.00000000      -0.10206629      -6.54647390
Al      20.21895116      20.65296836      12.49756319       0.00000000       0.00000000       0.10206629      -5.64590157
N       20.21895116      18.85705806      13.09951298      -0.00000000      -0.00000000      -0.10206629      -6.54647390
Al      20.21895116      18.85705806      14.99707583      -0.00000000      -0.00000000       0.10206629      -5.64590157
N       20.21895116      20.65296836      15.59902562       0.00000000       0.00000000      -0.10206629      -6.54647390
Al      20.21895116      20.65296836      17.49658847       0.00000000       0.00000000       0.10206629      -5.64590157
N       20.21895116      18.85705806      18.09853826      -0.00000000      -0.00000000      -0.10206629      -6.54647390
Al      20.21895116      18.85705806      19.99610111      -0.00000000      -0.00000000       0.10206629      -5.64590157
N       20.21895116      20.65296836      20.59805090       0.00000000       0.00000000      -0.10206629      -6.54647390
Al      20.21895116      20.65296836      22.49561374       0.00000000       0.00000000       0.10206629      -5.64590157
N       20.21895116      18.85705806      23.09756354      -0.00000000      -0.00000000      -0.10206629      -6.54647390
Al      20.21895116      18.85705806      24.99512638      -0.00000000      -0.00000000       0.10206629      -5.64590157
N       20.21895116      20.65296836      25.59707618       0.00000000       0.00000000      -0.10206629      -6.54647390
Al      20.21895116      20.65296836      27.49463902       0.00000000       0.00000000       0.10206629      -5.64590157
N       20.21895116      18.85705806      28.09658881      -0.00000000      -0.00000000      -0.10206629      -6.54647390
Al      20.21895116      18.85705806      29.99415166      -0.00000000      -0.00000000       0.10206629      -5.64590157
N       20.21895116      20.65296836      30.59610145       0.00000000       0.00000000      -0.10206629      -6.54647390
Al      20.21895116      20.65296836      32.49366430       0.00000000       0.00000000       0.10206629      -5.64590157
N       20.21895116      18.85705806      33.09561409      -0.00000000      -0.00000000      -0.10206629      -6.54647390
Al      20.21895116      18.85705806      34.99317694      -0.00000000      -0.00000000       0.10206629      -5.64590157
N       20.21895116      20.65296836      35.59512673       0.00000000       0.00000000      -0.10206629      -6.54647390
Al      20.21895116      20.65296836      37.49268957       0.00000000       0.00000000       0.10206629      -5.64590157
N       20.21895116      18.85705806      38.09463937      -0.00000000      -0.00000000      -0.10206629      -6.54647390
Al      20.21895116      18.85705806      39.99220221      -0.00000000      -0.00000000       0.10206629      -5.64590157
N       20.21895116      20.65296836      40.59415201       0.00000000       0.00000000      -0.10206629      -6.54647390
Al      20.21895116      20.65296836      42.49171485       0.00000000       0.00000000       0.10206629      -5.64590157
N       20.21895116      18.85705806      43.09366464      -0.00000000      -0.00000000      -0.10206629      -6.54647390
Al      18.66364723      21.55092350       0.00000000      -0.00000000       0.00000000       0.10206629      -5.64590157
N       18.66364723      23.34683379       0.60194979       0.00000000       0.00000000      -0.10206629      -6.54647390
Al      18.66364723      23.34683379       2.49951264       0.00000000       0.00000000       0.10206629      -5.64590157
N       18.66364723      21.55092350       3.10146243      -0.00000000      -0.00000000      -0.10206629      -6.54647390
Al      18.66364723      21.55092350       4.99902528      -0.00000000       0.00000000       0.10206629      -5.64590157
N       18.66364723      23.34683379       5.60097507       0.00000000       0.00000000      -0.10206629      -6.54647390
Al      18.66364723      23.34683379       7.49853791       0.00000000       0.00000000       0.10206629      -5.64590157
N       18.66364723      21.55092350       8.10048771      -0.00000000      -0.00000000      -0.10206629      -6.54647390
Al      18.66364723      21.55092350       9.99805055      -0.00000000       0.00000000       0.10206629      -5.64590157
N       18.66364723      23.34683379      10.60000035       0.00000000       0.00000000      -0.10206629      -6.54647390
Al      18.66364723      23.34683379      12.49756319       0.00000000       0.00000000       0.10206629      -5.64590157
N       18.66364723      21.55092350      13.09951298      -0.00000000      -0.00000000      -0.10206629      -6.54647390
Al      18.66364723      21.55092350      14.99707583      -0.00000000       0.00000000       0.10206629      -5.64590157
N       18.66364723      23.34683379      15.59902562       0.00000000       0.00000000      -0.10206629      -6.54647390
Al      18.66364723      23.34683379      17.49658847       0.00000000       0.00000000       0.10206629      -5.64590157
N       18.66364723      21.55092350      18.09853826      -0.00000000       0.00000000      -0.10206629      -6.54647390
Al      18.66364723      21.55092350      19.99610111      -0.00000000       0.00000000       0.10206629      -5.64590157
N       18.66364723      23.34683379      20.59805090       0.00000000       0.00000000      -0.10206629      -6.54647390
Al      18.66364723      23.34683379      22.49561374       0.00000000       0.00000000       0.10206629      -5.64590157
N       18.66364723      21.55092350      23.09756354      -0.00000000       0.00000000      -0.10206629      -6.54647390
Al      18.66364723      21.55092350      24.99512638      -0.00000000       0.00000000       0.10206629      -5.64590157
N       18.66364723      23.34683379      25.59707618       0.00000000       0.00000000      -0.10206629      -6.54647390
Al      18.66364723      23.34683379      27.49463902       0.00000000       0.00000000       0.10206629      -5.64590157
N       18.66364723      21.55092350      28.09658881      -0.00000000       0.00000000      -0.10206629      -6.54647390
Al      18.66364723      21.55092350      29.99415166      -0.00000000       0.00000000       0.10206629      -5.64590157
N       18.66364723      23.34683379      30.59610145       0.00000000       0.00000000      -0.10206629      -6.54647390
Al      18.66364723      23.34683379      32.49366430       0.00000000       0.00000000       0.10206629      -5.64590157
N       18.66364723      21.55092350      33.09561409      -0.00000000       0.00000000      -0.10206629      -6.54647390
Al      18.66364723      21.55092350      34.99317694      -0.00000000       0.00000000       0.10206629      -5.64590157
N       18.66364723      23.34683379      35.59512673       0.00000000       0.00000000      -0.10206629      -6.54647390
Al      18.66364723      23.34683379      37.49268957       0.00000000       0.00000000       0.10206629      -5.64590157
N       18.66364723      21.55092350      38.09463937      -0.00000000       0.00000000      -0.10206629      -6.54647390
Al      18.66364723      21.55092350      39.99220221      -0.00000000       0.00000000       0.10206629      -5.64590157
N       18.66364723      23.34683379      40.59415201       0.00000000       0.00000000      -0.10206629      -6.54647390
Al      18.66364723      23.34683379      42.49171485       0.00000000       0.00000000       0.10206629      -5.64590157
N       18.66364723      21.55092350      43.09366464      -0.00000000       0.00000000      -0.10206629      -6.54647390
Al      17.10834329      24.24478894       0.00000000      -0.00000000      -0.00000000       0.10206629      -5.64590157
N       17.10834329      26.04069923       0.60194979       0.00000000      -0.00000000      -0.10206629      -6.54647390
Al      17.10834329      26.04069923       2.49951264       0.00000000      -0.00000000       0.10206629      -5.64590157
N       17.10834329      24.24478894       3.10146243      -0.00000000      -0.00000000      -0.10206629      -6.54647390
Al      17.10834329      24.24478894       4.99902528      -0.00000000      -0.00000000       0.10206629      -5.64590157
N       17.10834329      26.04069923       5.60097507       0.00000000      -0.00000000      -0.10206629      -6.54647390
Al      17.10834329      26.04069923       7.49853791       0.00000000      -0.00000000       0.10206629      -5.64590157
N       17.10834329      24.24478894       8.10048771      -0.00000000      -0.00000000      -0.10206629      -6.54647390
Al      17.10834329      24.24478894       9.99805055      -0.00000000      -0.00000000       0.10206629      -5.64590157
N       17.10834329      26.04069923      10.60000035       0.00000000      -0.00000000      -0.10206629      -6.54647390
Al      17.10834329      26.04069923      12.49756319       0.00000000      -0.00000000       0.10206629      -5.64590157
N       17.10834329      24.24478894      13.09951298      -0.00000000      -0.00000000      -0.10206629      -6.54647390
Al      17.10834329      24.24478894      14.99707583      -0.00000000      -0.00000000       0.10206629      -5.64590157
N       17.10834329      26.04069923      15.59902562       0.00000000      -0.00000000      -0.10206629      -6.54647390
Al      17.10834329      26.04069923      17.49658847       0.00000000      -0.00000000       0.10206629      -5.64590157
N       17.10834329      24.24478894      18.09853826      -0.00000000      -0.00000000      -0.10206629      -6.54647390
Al      17.10834329      24.24478894      19.99610111      -0.00000000      -0.00000000       0.10206629      -5.64590157
N       17.10834329      26.04069923      20.59805090       0.00000000      -0.00000000      -0.10206629      -6.54647390
Al      17.10834329      26.04069923      22.49561374       0.00000000      -0.00000000       0.10206629      -5.64590157
N       17.10834329      24.24478894      23.09756354      -0.00000000      -0.00000000      -0.10206629      -6.54647390
Al      17.10834329      24.24478894      24.99512638      -0.00000000      -0.00000000       0.10206629      -5.64590157
N       17.10834329      26.04069923      25.59707618       0.00000000      -0.00000000      -0.10206629      -6.54647390
Al      17.10834329      26.04069923      27.49463902       0.00000000      -0.00000000       0.10206629      -5.64590157
N       17.10834329      24.24478894      28.09658881      -0.00000000      -0.00000000      -0.10206629      -6.54647390
Al      17.10834329      24.24478894      29.99415166      -0.00000000      -0.00000000       0.10206629      -5.64590157
N       17.10834329      26.04069923      30.59610145       0.00000000      -0.00000000      -0.10206629      -6.54647390
Al      17.10834329      26.04069923      32.49366430       0.00000000      -0.00000000       0.10206629      -5.64590157
N       17.10834329      24.24478894      33.09561409      -0.00000000      -0.00000000      -0.10206629      -6.54647390
Al      17.10834329      24.24478894      34.99317694      -0.00000000      -0.00000000       0.10206629      -5.64590157
N       17.10834329      26.04069923      35.59512673       0.00000000      -0.00000000      -0.10206629      -6.54647390
Al      17.10834329      26.04069923      37.49268957       0.00000000      -0.00000000       0.10206629      -5.64590157
N       17.10834329      24.24478894      38.09463937      -0.00000000      -0.00000000      -0.10206629      -6.54647390
Al      17.10834329      24.24478894      39.99220221      -0.00000000      -0.00000000       0.10206629      -5.64590157
N       17.10834329      26.04069923      40.59415201       0.00000000      -0.00000000      -0.10206629      -6.54647390
Al      17.10834329      26.04069923      42.49171485       0.00000000      -0.00000000       0.10206629      -5.64590157
N       17.10834329      24.24478894      43.09366464      -0.00000000      -0.00000000      -0.10206629      -6.54647390
Al      15.55303936      26.93865438      -0.00000000      -0.00000000       0.00000000       0.10206629      -5.64590157
N       15.55303936      28.73456467       0.60194979       0.00000000       0.00000000      -0.10206629      -6.54647390
Al      15.55303936      28.73456467       2.49951264       0.00000000       0.00000000       0.10206629      -5.64590157
N       15.55303936      26.93865438       3.10146243      -0.00000000       0.00000000      -0.10206629      -6.54647390
Al      15.55303936      26.93865438       4.99902528      -0.00000000      -0.00000000       0.10206629      -5.64590157
N       15.55303936      28.73456467       5.60097507       0.00000000       0.00000000      -0.10206629      -6.54647390
Al      15.55303936      28.73456467       7.49853791       0.00000000       0.00000000       0.10206629      -5.64590157
N       15.55303936      26.93865438       8.10048771      -0.00000000      -0.00000000      -0.10206629      -6.54647390
Al      15.55303936      26.93865438       9.99805055      -0.00000000      -0.00000000       0.10206629      -5.64590157
N       15.55303936      28.73456467      10.60000035       0.00000000       0.00000000      -0.10206629      -6.54647390
Al      15.55303936      28.73456467      12.49756319       0.00000000       0.00000000       0.10206629      -5.64590157
N       15.55303936      26.93865438      13.09951298      -0.00000000      -0.00000000      -0.10206629      -6.54647390
Al      15.55303936      26.93865438      14.99707583      -0.00000000      -0.00000000       0.10206629      -5.64590157
N       15.55303936      28.73456467      15.59902562       0.00000000       0.00000000      -0.10206629      -6.54647390
Al      15.55303936      28.73456467      17.49658847       0.00000000       0.00000000       0.10206629      -5.64590157
N       15.55303936      26.93865438      18.09853826      -0.00000000      -0.00000000      -0.10206629      -6.54647390
Al      15.55303936      26.93865438      19.99610111      -0.00000000      -0.00000000       0.10206629      -5.64590157
N       15.55303936      28.73456467      20.59805090       0.00000000       0.00000000      -0.10206629      -6.54647390
Al      15.55303936      28.73456467      22.49561374       0.00000000       0.00000000       0.10206629      -5.64590157
N       15.55303936      26.93865438      23.09756354      -0.00000000      -0.00000000      -0.10206629      -6.54647390
Al      15.55303936      26.93865438      24.99512638      -0.00000000      -0.00000000       0.10206629      -5.64590157
N       15.55303936      28.73456467      25.59707618       0.00000000       0.00000000      -0.10206629      -6.54647390
Al      15.55303936      28.73456467      27.49463902       0.00000000       0.00000000       0.10206629      -5.64590157
N       15.55303936      26.93865438      28.09658881      -0.00000000       0.00000000      -0.10206629      -6.54647390
Al      15.55303936      26.93865438      29.99415166      -0.00000000      -0.00000000       0.10206629      -5.64590157
N       15.55303936      28.73456467      30.59610145       0.00000000       0.00000000      -0.10206629      -6.54647390
Al      15.55303936      28.73456467      32.49366430       0.00000000       0.00000000       0.10206629      -5.64590157
N       15.55303936      26.93865438      33.09561409      -0.00000000      -0.00000000      -0.10206629      -6.54647390
Al      15.55303936      26.93865438      34.99317694      -0.00000000       0.00000000       0.10206629      -5.64590157
N       15.55303936      28.73456467      35.59512673       0.00000000       0.00000000      -0.10206629      -6.54647390
Al      15.55303936      28.73456467      37.49268957       0.00000000       0.00000000       0.10206629      -5.64590157
N       15.55303936      26.93865438      38.09463937      -0.00000000      -0.00000000      -0.10206629      -6.54647390
Al      15.55303936      26.93865438      39.99220221      -0.00000000       0.00000000       0.10206629      -5.64590157
N       15.55303936      28.73456467      40.59415201       0.00000000       0.00000000      -0.10206629      -6.54647390
Al      15.55303936      28.73456467      42.49171485       0.00000000       0.00000000       0.10206629      -5.64590157
N       15.55303936      26.93865438      43.09366464      -0.00000000      -0.00000000      -0.10206629      -6.54647390
Al      13.99773542      29.63251982      -0.00000000      -0.00000000       0.00000000       0.10206629      -5.64590157
N       13.99773542      31.42843011       0.60194979       0.00000000      -0.00000000      -0.10206629      -6.54647390
Al      13.99773542      31.42843011       2.49951264       0.00000000      -0.00000000       0.10206629      -5.64590157
N       13.99773542      29.63251982       3.10146243      -0.00000000       0.00000000      -0.10206629      -6.54647390
Al      13.99773542      29.63251982       4.99902528      -0.00000000       0.00000000       0.10206629      -5.64590157
N       13.99773542      31.42843011       5.60097507       0.00000000      -0.00000000      -0.10206629      -6.54647390
Al      13.99773542      31.42843011       7.49853791       0.00000000      -0.00000000       0.10206629      -5.64590157
N       13.99773542      29.63251982       8.10048771      -0.00000000       0.00000000      -0.10206629      -6.54647390
Al      13.99773542      29.63251982       9.99805055      -0.00000000       0.00000000       0.10206629      -5.64590157
N       13.99773542      31.42843011      10.60000035       0.00000000      -0.00000000      -0.10206629      -6.54647390
Al      13.99773542      31.42843011      12.49756319       0.00000000      -0.00000000       0.10206629      -5.64590157
N       13.99773542      29.63251982      13.09951298      -0.00000000       0.00000000      -0.10206629      -6.54647390
Al      13.99773542      29.63251982      14.99707583      -0.00000000       0.00000000       0.10206629      -5.64590157
N       13.99773542      31.42843011      15.59902562       0.00000000      -0.00000000      -0.10206629      -6.54647390
Al      13.99773542      31.42843011      17.49658847       0.00000000      -0.00000000       0.10206629      -5.64590157
N       13.99773542      29.63251982      18.09853826      -0.00000000       0.00000000      -0.10206629      -6.54647390
Al      13.99773542      29.63251982      19.99610111      -0.00000000       0.00000000       0.10206629      -5.64590157
N       13.99773542      31.42843011      20.59805090       0.00000000      -0.00000000      -0.10206629      -6.54647390
Al      13.99773542      31.42843011      22.49561374       0.00000000      -0.00000000       0.10206629      -5.64590157
N       13.99773542      29.63251982      23.09756354      -0.00000000       0.00000000      -0.10206629      -6.54647390
Al      13.99773542      29.63251982      24.99512638      -0.00000000       0.00000000       0.10206629      -5.64590157
N       13.99773542      31.42843011      25.59707618       0.00000000      -0.00000000      -0.10206629      -6.54647390
Al      13.99773542      31.42843011      27.49463902       0.00000000      -0.00000000       0.10206629      -5.64590157
N       13.99773542      29.63251982      28.09658881      -0.00000000       0.00000000      -0.10206629      -6.54647390
Al      13.99773542      29.63251982      29.99415166      -0.00000000       0.00000000       0.10206629      -5.64590157
N       13.99773542      31.42843011      30.59610145       0.00000000      -0.00000000      -0.10206629      -6.54647390
Al      13.99773542      31.42843011      32.49366430       0.00000000      -0.00000000       0.10206629      -5.64590157
N       13.99773542      29.63251982      33.09561409      -0.00000000       0.00000000      -0.10206629      -6.54647390
Al      13.99773542      29.63251982      34.99317694      -0.00000000       0.00000000       0.10206629      -5.64590157
N       13.99773542      31.42843011      35.59512673       0.00000000      -0.00000000      -0.10206629      -6.54647390
Al      13.99773542      31.42843011      37.49268957       0.00000000      -0.00000000       0.10206629      -5.64590157
N       13.99773542      29.63251982      38.09463937      -0.00000000       0.00000000      -0.10206629      -6.54647390
Al      13.99773542      29.63251982      39.99220221      -0.00000000       0.00000000       0.10206629      -5.64590157
N       13.99773542      31.42843011      40.59415201       0.00000000      -0.00000000      -0.10206629      -6.54647390
Al      13.99773542      31.42843011      42.49171485       0.00000000      -0.00000000       0.10206629      -5.64590157
N       13.99773542      29.63251982      43.09366464      -0.00000000       0.00000000      -0.10206629      -6.54647390
Al      12.44243149      32.32638525      -0.00000000       0.00000000       0.00000000       0.10206629      -5.64590157
N       12.44243149      34.12229555       0.60194979       0.00000000      -0.00000000      -0.10206629      -6.54647390
Al      12.44243149      34.12229555       2.49951264       0.00000000      -0.00000000       0.10206629      -5.64590157
N       12.44243149      32.32638525       3.10146243       0.00000000       0.00000000      -0.10206629      -6.54647390
Al      12.44243149      32.32638525       4.99902528       0.00000000       0.00000000       0.10206629      -5.64590157
N       12.44243149      34.12229555       5.60097507       0.00000000      -0.00000000      -0.10206629      -6.54647390
Al      12.44243149      34.12229555       7.49853791       0.00000000      -0.00000000       0.10206629      -5.64590157
N       12.44243149      32.32638525       8.10048771       0.00000000       0.00000000      -0.10206629      -6.54647390
Al      12.44243149      32.32638525       9.99805055       0.00000000       0.00000000       0.10206629      -5.64590157
N       12.44243149      34.12229555      10.60000035       0.00000000      -0.00000000      -0.10206629      -6.54647390
Al      12.44243149      34.12229555      12.49756319       0.00000000       0.00000000       0.10206629      -5.64590157
N       12.44243149      32.32638525      13.09951298       0.00000000       0.00000000      -0.10206629      -6.54647390
Al      12.44243149      32.32638525      14.99707583      -0.00000000       0.00000000       0.10206629      -5.64590157
N       12.44243149      34.12229555      15.59902562       0.00000000      -0.00000000      -0.10206629      -6.54647390
Al      12.44243149      34.12229555      17.49658847       0.00000000       0.00000000       0.10206629      -5.64590157
N       12.44243149      32.32638525      18.09853826      -0.00000000       0.00000000      -0.10206629      -6.54647390
Al      12.44243149      32.32638525      19.99610111      -0.00000000       0.00000000       0.10206629      -5.64590157
N       12.44243149      34.12229555      20.59805090       0.00000000      -0.00000000      -0.10206629      -6.54647390
Al      12.44243149      34.12229555      22.49561374       0.00000000       0.00000000       0.10206629      -5.64590157
N       12.44243149      32.32638525      23.09756354      -0.00000000       0.00000000      -0.10206629      -6.54647390
Al      12.44243149      32.32638525      24.99512638       0.00000000       0.00000000       0.10206629      -5.64590157
N       12.44243149      34.12229555      25.59707618       0.00000000      -0.00000000      -0.10206629      -6.54647390
Al      12.44243149      34.12229555      27.49463902       0.00000000      -0.00000000       0.10206629      -5.64590157
N       12.44243149      32.32638525      28.09658881      -0.00000000       0.00000000      -0.10206629      -6.54647390
Al      12.44243149      32.32638525      29.99415166       0.00000000       0.00000000       0.10206629      -5.64590157
N       12.44243149      34.12229555      30.59610145       0.00000000      -0.00000000      -0.10206629      -6.54647390
Al      12.44243149      34.12229555      32.49366430       0.00000000      -0.00000000       0.10206629      -5.64590157
N       12.44243149      32.32638525      33.09561409      -0.00000000       0.00000000      -0.10206629      -6.54647390
Al      12.44243149      32.32638525      34.99317694       0.00000000       0.00000000       0.10206629      -5.64590157
N       12.44243149      34.12229555      35.59512673       0.00000000      -0.00000000      -0.10206629      -6.54647390
Al      12.44243149      34.12229555      37.49268957       0.00000000       0.00000000       0.10206629      -5.64590157
N       12.44243149      32.32638525      38.09463937       0.00000000       0.00000000      -0.10206629      -6.54647390
Al      12.44243149      32.32638525      39.99220221       0.00000000       0.00000000       0.10206629      -5.64590157
N       12.44243149      34.12229555      40.59415201       0.00000000      -0.00000000      -0.10206629      -6.54647390
Al      12.44243149      34.12229555      42.49171485       0.00000000      -0.00000000       0.10206629      -5.64590157
N       12.44243149      32.32638525      43.09366464      -0.00000000       0.00000000      -0.10206629      -6.54647390
Al      10.88712755      35.02025069      -0.00000000      -0.00000000       0.00000000       0.10206629      -5.64590157
N       10.88712755      36.81616098       0.60194979       0.00000000      -0.00000000      -0.10206629      -6.54647390
Al      10.88712755      36.81616098       2.49951264       0.00000000      -0.00000000       0.10206629      -5.64590157
N       10.88712755      35.02025069       3.10146243      -0.00000000       0.00000000      -0.10206629      -6.54647390
Al      10.88712755      35.02025069       4.99902528      -0.00000000       0.00000000       0.10206629      -5.64590157
N       10.88712755      36.81616098       5.60097507       0.00000000      -0.00000000      -0.10206629      -6.54647390
Al      10.88712755      36.81616098       7.49853791       0.00000000      -0.00000000       0.10206629      -5.64590157
N       10.88712755      35.02025069       8.10048771      -0.00000000       0.00000000      -0.10206629      -6.54647390
Al      10.88712755      35.02025069       9.99805055      -0.00000000       0.00000000       0.10206629      -5.64590157
N       10.88712755      36.81616098      10.60000035       0.00000000      -0.00000000      -0.10206629      -6.54647390
Al      10.88712755      36.81616098      12.49756319       0.00000000      -0.00000000       0.10206629      -5.64590157
N       10.88712755      35.02025069      13.09951298      -0.00000000       0.00000000      -0.10206629      -6.54647390
Al      10.88712755      35.02025069      14.99707583      -0.00000000       0.00000000       0.10206629      -5.64590157
N       10.88712755      36.81616098      15.59902562       0.00000000      -0.00000000      -0.10206629      -6.54647390
Al      10.88712755      36.81616098      17.49658847       0.00000000      -0.00000000       0.10206629      -5.64590157
N       10.88712755      35.02025069      18.09853826      -0.00000000       0.00000000      -0.10206629      -6.54647390
Al      10.88712755      35.02025069      19.99610111      -0.00000000       0.00000000       0.10206629      -5.64590157
N       10.88712755      36.81616098      20.59805090       0.00000000      -0.00000000      -0.10206629      -6.54647390
Al      10.88712755      36.81616098      22.49561374       0.00000000      -0.00000000       0.10206629      -5.64590157
N       10.88712755      35.02025069      23.09756354      -0.00000000       0.00000000      -0.10206629      -6.54647390
Al      10.88712755      35.02025069      24.99512638      -0.00000000       0.00000000       0.10206629      -5.64590157
N       10.88712755      36.81616098      25.59707618       0.00000000      -0.00000000      -0.10206629      -6.54647390
Al      10.88712755      36.81616098      27.49463902       0.00000000      -0.00000000       0.10206629      -5.64590157
N       10.88712755      35.02025069      28.09658881      -0.00000000       0.00000000      -0.10206629      -6.54647390
Al      10.88712755      35.02025069      29.99415166      -0.00000000       0.00000000       0.10206629      -5.64590157
N       10.88712755      36.81616098      30.59610145       0.00000000      -0.00000000      -0.10206629      -6.54647390
Al      10.88712755      36.81616098      32.49366430       0.00000000      -0.00000000       0.10206629      -5.64590157
N       10.88712755      35.02025069      33.09561409      -0.00000000       0.00000000      -0.10206629      -6.54647390
Al      10.88712755      35.02025069      34.99317694      -0.00000000       0.00000000       0.10206629      -5.64590157
N       10.88712755      36.81616098      35.59512673       0.00000000      -0.00000000      -0.10206629      -6.54647390
Al      10.88712755      36.81616098      37.49268957       0.00000000      -0.00000000       0.10206629      -5.64590157
N       10.88712755      35.02025069      38.09463937      -0.00000000       0.00000000      -0.10206629      -6.54647390
Al      10.88712755      35.02025069      39.99220221      -0.00000000       0.00000000       0.10206629      -5.64590157
N       10.88712755      36.81616098      40.59415201       0.00000000      -0.00000000      -0.10206629      -6.54647390
Al      10.88712755      36.81616098      42.49171485       0.00000000      -0.00000000       0.10206629      -5.64590157
N       10.88712755      35.02025069      43.09366464      -0.00000000       0.00000000      -0.10206629      -6.54647390
Al       9.33182361      37.71411613      -0.00000000      -0.00000000      -0.00000000       0.10206629      -5.64590157
N        9.33182361      39.51002642       0.60194979       0.00000000       0.00000000      -0.10206629      -6.54647390
Al       9.33182361      39.51002642       2.49951264       0.00000000       0.00000000       0.10206629      -5.64590157
N        9.33182361      37.71411613       3.10146243      -0.00000000      -0.00000000      -0.10206629      -6.54647390
Al       9.33182361      37.71411613       4.99902528      -0.00000000      -0.00000000       0.10206629      -5.64590157
N        9.33182361      39.51002642       5.60097507       0.00000000       0.00000000      -0.10206629      -6.54647390
Al       9.33182361      39.51002642       7.49853791       0.00000000       0.00000000       0.10206629      -5.64590157
N        9.33182361      37.71411613       8.10048771      -0.00000000      -0.00000000      -0.10206629      -6.54647390
Al       9.33182361      37.71411613       9.99805055      -0.00000000      -0.00000000       0.10206629      -5.64590157
N        9.33182361      39.51002642      10.60000035       0.00000000       0.00000000      -0.10206629      -6.54647390
Al       9.33182361      39.51002642      12.49756319       0.00000000       0.00000000       0.10206629      -5.64590157
N        9.33182361      37.71411613      13.09951298      -0.00000000      -0.00000000      -0.10206629      -6.54647390
Al       9.33182361      37.71411613      14.99707583      -0.00000000      -0.00000000       0.10206629      -5.64590157
N        9.33182361      39.51002642      15.59902562       0.00000000       0.00000000      -0.10206629      -6.54647390
Al       9.33182361      39.51002642      17.49658847       0.00000000       0.00000000       0.10206629      -5.64590157
N        9.33182361      37.71411613      18.09853826      -0.00000000      -0.00000000      -0.10206629      -6.54647390
Al       9.33182361      37.71411613      19.99610111      -0.00000000      -0.00000000       0.10206629      -5.64590157
N        9.33182361      39.51002642      20.59805090       0.00000000       0.00000000      -0.10206629      -6.54647390
Al       9.33182361      39.51002642      22.49561374       0.00000000       0.00000000       0.10206629      -5.64590157
N        9.33182361      37.71411613      23.09756354      -0.00000000      -0.00000000      -0.10206629      -6.54647390
Al       9.33182361      37.71411613      24.99512638      -0.00000000      -0.00000000       0.10206629      -5.64590157
N        9.33182361      39.51002642      25.59707618       0.00000000       0.00000000      -0.10206629      -6.54647390
Al       9.33182361      39.51002642      27.49463902       0.00000000       0.00000000       0.10206629      -5.64590157
N        9.33182361      37.71411613      28.09658881      -0.00000000      -0.00000000      -0.10206629      -6.54647390
Al       9.33182361      37.71411613      29.99415166      -0.00000000      -0.00000000       0.10206629      -5.64590157
N        9.33182361      39.51002642      30.59610145       0.00000000       0.00000000      -0.10206629      -6.54647390
Al       9.33182361      39.51002642      32.49366430       0.00000000       0.00000000       0.10206629      -5.64590157
N        9.33182361      37.71411613      33.09561409      -0.00000000      -0.00000000      -0.10206629      -6.54647390
Al       9.33182361      37.71411613      34.99317694      -0.00000000      -0.00000000       0.10206629      -5.64590157
N        9.33182361      39.51002642      35.59512673       0.00000000       0.00000000      -0.10206629      -6.54647390
Al       9.33182361      39.51002642      37.49268957       0.00000000       0.00000000       0.10206629      -5.64590157
N        9.33182361      37.71411613      38.09463937      -0.00000000      -0.00000000      -0.10206629      -6.54647390
Al       9.33182361      37.71411613      39.99220221      -0.00000000      -0.00000000       0.10206629      -5.64590157
N        9.33182361      39.51002642      40.59415201       0.00000000       0.00000000      -0.10206629      -6.54647390
Al       9.33182361      39.51002642      42.49171485       0.00000000       0.00000000       0.10206629      -5.64590157
N        9.33182361      37.71411613      43.09366464      -0.00000000      -0.00000000      -0.10206629      -6.54647390
Al      34.21668659      -0.00000000       0.00000000       0.00000000      -0.00000000       0.10206629      -5.64590157
N       34.21668659       1.79591029       0.60194979      -0.00000000       0.00000000      -0.10206629      -6.54647390
Al      34.21668659       1.79591029       2.49951264      -0.00000000      -0.00000000       0.10206629      -5.64590157
N       34.21668659      -0.00000000       3.10146243       0.00000000      -0.00000000      -0.10206629      -6.54647390
Al      34.21668659      -0.00000000       4.99902528       0.00000000      -0.00000000       0.10206629      -5.64590157
N       34.21668659       1.79591029       5.60097507      -0.00000000      -0.00000000      -0.10206629      -6.54647390
Al      34.21668659       1.79591029       7.49853791      -0.00000000      -0.00000000       0.10206629      -5.64590157
N       34.21668659      -0.00000000       8.10048771       0.00000000      -0.00000000      -0.10206629      -6.54647390
Al      34.21668659      -0.00000000       9.99805055       0.00000000      -0.00000000       0.10206629      -5.64590157
N       34.21668659       1.79591029      10.60000035      -0.00000000       0.00000000      -0.10206629      -6.54647390
Al      34.21668659       1.79591029      12.49756319      -0.00000000      -0.00000000       0.10206629      -5.64590157
N       34.21668659      -0.00000000      13.09951298       0.00000000      -0.00000000      -0.10206629      -6.54647390
Al      34.21668659      -0.00000000      14.99707583       0.00000000      -0.00000000       0.10206629      -5.64590157
N       34.21668659       1.79591029      15.59902562      -0.00000000       0.00000000      -0.10206629      -6.54647390
Al      34.21668659       1.79591029      17.49658847      -0.00000000       0.00000000       0.10206629      -5.64590157
N       34.21668659      -0.00000000      18.09853826       0.00000000      -0.00000000      -0.10206629      -6.54647390
Al      34.21668659      -0.00000000      19.99610111       0.00000000      -0.00000000       0.10206629      -5.64590157
N       34.21668659       1.79591029      20.59805090      -0.00000000       0.00000000      -0.10206629      -6.54647390
Al      34.21668659       1.79591029      22.49561374      -0.00000000       0.00000000       0.10206629      -5.64590157
N       34.21668659      -0.00000000      23.09756354      -0.00000000      -0.00000000      -0.10206629      -6.54647390
Al      34.21668659      -0.00000000      24.99512638       0.00000000      -0.00000000       0.10206629      -5.64590157
N       34.21668659       1.79591029      25.59707618      -0.00000000       0.00000000      -0.10206629      -6.54647390
Al      34.21668659       1.79591029      27.49463902      -0.00000000      -0.00000000       0.10206629      -5.64590157
N       34.21668659      -0.00000000      28.09658881       0.00000000      -0.00000000      -0.10206629      -6.54647390
Al      34.21668659      -0.00000000      29.99415166       0.00000000      -0.00000000       0.10206629      -5.64590157
N       34.21668659       1.79591029      30.59610145      -0.00000000       0.00000000      -0.10206629      -6.54647390
Al      34.21668659       1.79591029      32.49366430      -0.00000000      -0.00000000       0.10206629      -5.64590157
N       34.21668659      -0.00000000      33.09561409       0.00000000      -0.00000000      -0.10206629      -6.54647390
Al      34.21668659      -0.00000000      34.99317694       0.00000000      -0.00000000       0.10206629      -5.64590157
N       34.21668659       1.79591029      35.59512673      -0.00000000       0.00000000      -0.10206629      -6.54647390
Al      34.21668659       1.79591029      37.49268957      -0.00000000      -0.00000000       0.10206629      -5.64590157
N       34.21668659      -0.00000000      38.09463937       0.00000000      -0.00000000      -0.10206629      -6.54647390
Al      34.21668659      -0.00000000      39.99220221       0.00000000      -0.00000000       0.10206629      -5.64590157
N       34.21668659       1.79591029      40.59415201      -0.00000000      -0.00000000      -0.10206629      -6.54647390
Al      34.21668659       1.79591029      42.49171485      -0.00000000      -0.00000000       0.10206629      -5.64590157
N       34.21668659      -0.00000000      43.09366464       0.00000000      -0.00000000      -0.10206629      -6.54647390
Al      32.66138265       2.69386544       0.00000000       0.00000000      -0.00000000       0.10206629      -5.64590157
N       32.66138265       4.48977573       0.60194979      -0.00000000       0.00000000      -0.10206629      -6.54647390
Al      32.66138265       4.48977573       2.49951264      -0.00000000       0.00000000       0.10206629      -5.64590157
N       32.66138265       2.69386544       3.10146243       0.00000000      -0.00000000      -0.10206629      -6.54647390
Al      32.66138265       2.69386544       4.99902528       0.00000000      -0.00000000       0.10206629      -5.64590157
N       32.66138265       4.48977573       5.60097507      -0.00000000       0.00000000      -0.10206629      -6.54647390
Al      32.66138265       4.48977573       7.49853791      -0.00000000       0.00000000       0.10206629      -5.64590157
N       32.66138265       2.69386544       8.10048771       0.00000000      -0.00000000      -0.10206629      -6.54647390
Al      32.66138265       2.69386544       9.99805055       0.00000000      -0.00000000       0.10206629      -5.64590157
N       32.66138265       4.48977573      10.60000035      -0.00000000       0.00000000      -0.10206629      -6.54647390
Al      32.66138265       4.48977573      12.49756319      -0.00000000       0.00000000       0.10206629      -5.64590157
N       32.66138265       2.69386544      13.09951298       0.00000000      -0.00000000      -0.10206629      -6.54647390
Al      32.66138265       2.69386544      14.99707583       0.00000000      -0.00000000       0.10206629      -5.64590157
N       32.66138265       4.48977573      15.59902562      -0.00000000       0.00000000      -0.10206629      -6.54647390
Al      32.66138265       4.48977573      17.49658847      -0.00000000       0.00000000       0.10206629      -5.64590157
N       32.66138265       2.69386544      18.09853826       0.00000000      -0.00000000      -0.10206629      -6.54647390
Al      32.66138265       2.69386544      19.99610111       0.00000000      -0.00000000       0.10206629      -5.64590157
N       32.66138265       4.48977573      20.59805090      -0.00000000      -0.00000000      -0.10206629      -6.54647390
Al      32.66138265       4.48977573      22.49561374      -0.00000000       0.00000000       0.10206629      -5.64590157
N       32.66138265       2.69386544      23.09756354       0.00000000      -0.00000000      -0.10206629      -6.54647390
Al      32.66138265       2.69386544      24.99512638       0.00000000       0.00000000       0.10206629      -5.64590157
N       32.66138265       4.48977573      25.59707618      -0.00000000       0.00000000      -0.10206629      -6.54647390
Al      32.66138265       4.48977573      27.49463902      -0.00000000       0.00000000       0.10206629      -5.64590157
N       32.66138265       2.69386544      28.09658881       0.00000000       0.00000000      -0.10206629      -6.54647390
Al      32.66138265       2.69386544      29.99415166       0.00000000      -0.00000000       0.10206629      -5.64590157
N       32.66138265       4.48977573      30.59610145      -0.00000000       0.00000000      -0.10206629      -6.54647390
Al      32.66138265       4.48977573      32.49366430      -0.00000000       0.00000000       0.10206629      -5.64590157
N       32.66138265       2.69386544      33.09561409       0.00000000      -0.00000000      -0.10206629      -6.54647390
Al      32.66138265       2.69386544      34.99317694       0.00000000      -0.00000000       0.10206629      -5.64590157
N       32.66138265       4.48977573      35.59512673      -0.00000000      -0.00000000      -0.10206629      -6.54647390
Al      32.66138265       4.48977573      37.49268957      -0.00000000      -0.00000000       0.10206629      -5.64590157
N       32.66138265       2.69386544      38.09463937       0.00000000      -0.00000000      -0.10206629      -6.54647390
Al      32.66138265       2.69386544      39.99220221       0.00000000      -0.00000000       0.10206629      -5.64590157
N       32.66138265       4.48977573      40.59415201      -0.00000000       0.00000000      -0.10206629      -6.54647390
Al      32.66138265       4.48977573      42.49171485      -0.00000000       0.00000000       0.10206629      -5.64590157
N       32.66138265       2.69386544      43.09366464       0.00000000      -0.00000000      -0.10206629      -6.54647390
Al      31.10607871       5.38773088       0.00000000       0.00000000       0.00000000       0.10206629      -5.64590157
N       31.10607871       7.18364117       0.60194979      -0.00000000      -0.00000000      -0.10206629      -6.54647390
Al      31.10607871       7.18364117       2.49951264      -0.00000000      -0.00000000       0.10206629      -5.64590157
N       31.10607871       5.38773088       3.10146243       0.00000000      -0.00000000      -0.10206629      -6.54647390
Al      31.10607871       5.38773088       4.99902528       0.00000000       0.00000000       0.10206629      -5.64590157
N       31.10607871       7.18364117       5.60097507      -0.00000000      -0.00000000      -0.10206629      -6.54647390
Al      31.10607871       7.18364117       7.49853791      -0.00000000      -0.00000000       0.10206629      -5.64590157
N       31.10607871       5.38773088       8.10048771       0.00000000       0.00000000      -0.10206629      -6.54647390
Al      31.10607871       5.38773088       9.99805055       0.00000000       0.00000000       0.10206629      -5.64590157
N       31.10607871       7.18364117      10.60000035      -0.00000000       0.00000000      -0.10206629      -6.54647390
Al      31.10607871       7.18364117      12.49756319      -0.00000000      -0.00000000       0.10206629      -5.64590157
N       31.10607871       5.38773088      13.09951298       0.00000000       0.00000000      -0.10206629      -6.54647390
Al      31.10607871       5.38773088      14.99707583       0.00000000       0.00000000       0.10206629      -5.64590157
N       31.10607871       7.18364117      15.59902562      -0.00000000      -0.00000000      -0.10206629      -6.54647390
Al      31.10607871       7.18364117      17.49658847       0.00000000      -0.00000000       0.10206629      -5.64590157
N       31.10607871       5.38773088      18.09853826       0.00000000      -0.00000000      -0.10206629      -6.54647390
Al      31.10607871       5.38773088      19.99610111       0.00000000       0.00000000       0.10206629      -5.64590157
N       31.10607871       7.18364117      20.59805090      -0.00000000       0.00000000      -0.10206629      -6.54647390
Al      31.10607871       7.18364117      22.49561374      -0.00000000      -0.00000000       0.10206629      -5.64590157
N       31.10607871       5.38773088      23.09756354       0.00000000       0.00000000      -0.10206629      -6.54647390
Al      31.10607871       5.38773088      24.99512638       0.00000000       0.00000000       0.10206629      -5.64590157
N       31.10607871       7.18364117      25.59707618      -0.00000000      -0.00000000      -0.10206629      -6.54647390
Al      31.10607871       7.18364117      27.49463902       0.00000000      -0.00000000       0.10206629      -5.64590157
N       31.10607871       5.38773088      28.09658881       0.00000000       0.00000000      -0.10206629      -6.54647390
Al      31.10607871       5.38773088      29.99415166       0.00000000       0.00000000       0.10206629      -5.64590157
N       31.10607871       7.18364117      30.59610145       0.00000000      -0.00000000      -0.10206629      -6.54647390
Al      31.10607871       7.18364117      32.49366430      -0.00000000      -0.00000000       0.10206629      -5.64590157
N       31.10607871       5.38773088      33.09561409       0.00000000       0.00000000      -0.10206629      -6.54647390
Al      31.10607871       5.38773088      34.99317694       0.00000000       0.00000000       0.10206629      -5.64590157
N       31.10607871       7.18364117      35.59512673      -0.00000000      -0.00000000      -0.10206629      -6.54647390
Al      31.10607871       7.18364117      37.49268957      -0.00000000      -0.00000000       0.10206629      -5.64590157
N       31.10607871       5.38773088      38.09463937       0.00000000       0.00000000      -0.10206629      -6.54647390
Al      31.10607871       5.38773088      39.99220221       0.00000000       0.00000000       0.10206629      -5.64590157
N       31.10607871       7.18364117      40.59415201      -0.00000000      -0.00000000      -0.10206629      -6.54647390
Al      31.10607871       7.18364117      42.49171485      -0.00000000      -0.00000000       0.10206629      -5.64590157
N       31.10607871       5.38773088      43.09366464       0.00000000       0.00000000      -0.10206629      -6.54647390
Al      29.55077478       8.08159631       0.00000000       0.00000000       0.00000000       0.10206629      -5.64590157
N       29.55077478       9.87750661       0.60194979      -0.00000000       0.00000000      -0.10206629      -6.54647390
Al      29.55077478       9.87750661       2.49951264      -0.00000000       0.00000000       0.10206629      -5.64590157
N       29.55077478       8.08159631       3.10146243       0.00000000      -0.00000000      -0.10206629      -6.54647390
Al      29.55077478       8.08159631       4.99902528       0.00000000      -0.00000000       0.10206629      -5.64590157
N       29.55077478       9.87750661       5.60097507      -0.00000000       0.00000000      -0.10206629      -6.54647390
Al      29.55077478       9.87750661       7.49853791      -0.00000000       0.00000000       0.10206629      -5.64590157
N       29.55077478       8.08159631       8.10048771       0.00000000       0.00000000      -0.10206629      -6.54647390
Al      29.55077478       8.08159631       9.99805055       0.00000000      -0.00000000       0.10206629      -5.64590157
N       29.55077478       9.87750661      10.60000035      -0.00000000       0.00000000      -0.10206629      -6.54647390
Al      29.55077478       9.87750661      12.49756319      -0.00000000       0.00000000       0.10206629      -5.64590157
N       29.55077478       8.08159631      13.09951298       0.00000000      -0.00000000      -0.10206629      -6.54647390
Al      29.55077478       8.08159631      14.99707583       0.00000000       0.00000000       0.10206629      -5.64590157
N       29.55077478       9.87750661      15.59902562      -0.00000000       0.00000000      -0.10206629      -6.54647390
Al      29.55077478       9.87750661      17.49658847      -0.00000000       0.00000000       0.10206629      -5.64590157
N       29.55077478       8.08159631      18.09853826       0.00000000      -0.00000000      -0.10206629      -6.54647390
Al      29.55077478       8.08159631      19.99610111       0.00000000       0.00000000       0.10206629      -5.64590157
N       29.55077478       9.87750661      20.59805090      -0.00000000       0.00000000      -0.10206629      -6.54647390
Al      29.55077478       9.87750661      22.49561374      -0.00000000       0.00000000       0.10206629      -5.64590157
N       29.55077478       8.08159631      23.09756354       0.00000000      -0.00000000      -0.10206629      -6.54647390
Al      29.55077478       8.08159631      24.99512638       0.00000000       0.00000000       0.10206629      -5.64590157
N       29.55077478       9.87750661      25.59707618      -0.00000000       0.00000000      -0.10206629      -6.54647390
Al      29.55077478       9.87750661      27.49463902      -0.00000000       0.00000000       0.10206629      -5.64590157
N       29.55077478       8.08159631      28.09658881       0.00000000      -0.00000000      -0.10206629      -6.54647390
Al      29.55077478       8.08159631      29.99415166       0.00000000       0.00000000       0.10206629      -5.64590157
N       29.55077478       9.87750661      30.59610145      -0.00000000       0.00000000      -0.10206629      -6.54647390
Al      29.55077478       9.87750661      32.49366430      -0.00000000       0.00000000       0.10206629      -5.64590157
N       29.55077478       8.08159631      33.09561409       0.00000000      -0.00000000      -0.10206629      -6.54647390
Al      29.55077478       8.08159631      34.99317694       0.00000000       0.00000000       0.10206629      -5.64590157
N       29.55077478       9.87750661      35.59512673      -0.00000000       0.00000000      -0.10206629      -6.54647390
Al      29.55077478       9.87750661      37.49268957      -0.00000000       0.00000000       0.10206629      -5.64590157
N       29.55077478       8.08159631      38.09463937       0.00000000       0.00000000      -0.10206629      -6.54647390
Al      29.55077478       8.08159631      39.99220221       0.00000000       0.00000000       0.10206629      -5.64590157
N       29.55077478       9.87750661      40.59415201      -0.00000000       0.00000000      -0.10206629      -6.54647390
Al      29.55077478       9.87750661      42.49171485      -0.00000000       0.00000000       0.10206629      -5.64590157
N       29.55077478       8.08159631      43.09366464       0.00000000       0.00000000      -0.10206629      -6.54647390
Al      27.99547084      10.77546175       0.00000000       0.00000000       0.00000000       0.10206629      -5.64590157
N       27.99547084      12.57137204       0.60194979      -0.00000000      -0.00000000      -0.10206629      -6.54647390
Al      27.99547084      12.57137204       2.49951264      -0.00000000      -0.00000000       0.10206629      -5.64590157
N       27.99547084      10.77546175       3.10146243       0.00000000      -0.00000000      -0.10206629      -6.54647390
Al      27.99547084      10.77546175       4.99902528       0.00000000      -0.00000000       0.10206629      -5.64590157
N       27.99547084      12.57137204       5.60097507      -0.00000000      -0.00000000      -0.10206629      -6.54647390
Al      27.99547084      12.57137204       7.49853791      -0.00000000      -0.00000000       0.10206629      -5.64590157
N       27.99547084      10.77546175       8.10048771       0.00000000      -0.00000000      -0.10206629      -6.54647390
Al      27.99547084      10.77546175       9.99805055       0.00000000      -0.00000000       0.10206629      -5.64590157
N       27.99547084      12.57137204      10.60000035      -0.00000000      -0.00000000      -0.10206629      -6.54647390
Al      27.99547084      12.57137204      12.49756319      -0.00000000      -0.00000000       0.10206629      -5.64590157
N       27.99547084      10.77546175      13.09951298       0.00000000      -0.00000000      -0.10206629      -6.54647390
Al      27.99547084      10.77546175      14.99707583       0.00000000       0.00000000       0.10206629      -5.64590157
N       27.99547084      12.57137204      15.59902562      -0.00000000      -0.00000000      -0.10206629      -6.54647390
Al      27.99547084      12.57137204      17.49658847      -0.00000000       0.00000000       0.10206629      -5.64590157
N       27.99547084      10.77546175      18.09853826       0.00000000      -0.00000000      -0.10206629      -6.54647390
Al      27.99547084      10.77546175      19.99610111       0.00000000       0.00000000       0.10206629      -5.64590157
N       27.99547084      12.57137204      20.59805090      -0.00000000      -0.00000000      -0.10206629      -6.54647390
Al      27.99547084      12.57137204      22.49561374      -0.00000000      -0.00000000       0.10206629      -5.64590157
N       27.99547084      10.77546175      23.09756354       0.00000000      -0.00000000      -0.10206629      -6.54647390
Al      27.99547084      10.77546175      24.99512638       0.00000000      -0.00000000       0.10206629      -5.64590157
N       27.99547084      12.57137204      25.59707618      -0.00000000      -0.00000000      -0.10206629      -6.54647390
Al      27.99547084      12.57137204      27.49463902      -0.00000000      -0.00000000       0.10206629      -5.64590157
N       27.99547084      10.77546175      28.09658881       0.00000000       0.00000000      -0.10206629      -6.54647390
Al      27.99547084      10.77546175      29.99415166       0.00000000      -0.00000000       0.10206629      -5.64590157
N       27.99547084      12.57137204      30.59610145      -0.00000000      -0.00000000      -0.10206629      -6.54647390
Al      27.99547084      12.57137204      32.49366430      -0.00000000      -0.00000000       0.10206629      -5.64590157
N       27.99547084      10.77546175      33.09561409       0.00000000      -0.00000000      -0.10206629      -6.54647390
Al      27.99547084      10.77546175      34.99317694       0.00000000      -0.00000000       0.10206629      -5.64590157
N       27.99547084      12.57137204      35.59512673      -0.00000000      -0.00000000      -0.10206629      -6.54647390
Al      27.99547084      12.57137204      37.49268957      -0.00000000      -0.00000000       0.10206629      -5.64590157
N       27.99547084      10.77546175      38.09463937       0.00000000      -0.00000000      -0.10206629      -6.54647390
Al      27.99547084      10.77546175      39.99220221       0.00000000      -0.00000000       0.10206629      -5.64590157
N       27.99547084      12.57137204      40.59415201      -0.00000000      -0.00000000      -0.10206629      -6.54647390
Al      27.99547084      12.57137204      42.49171485      -0.00000000       0.00000000       0.10206629      -5.64590157
N       27.99547084      10.77546175      43.09366464       0.00000000      -0.00000000      -0.10206629      -6.54647390
Al      26.44016691      13.46932719       0.00000000       0.00000000       0.00000000       0.10206629      -5.64590157
N       26.44016691      15.26523748       0.60194979      -0.00000000      -0.00000000      -0.10206629      -6.54647390
Al      26.44016691      15.26523748       2.49951264      -0.00000000       0.00000000       0.10206629      -5.64590157
N       26.44016691      13.46932719       3.10146243       0.00000000      -0.00000000      -0.10206629      -6.54647390
Al      26.44016691      13.46932719       4.99902528       0.00000000       0.00000000       0.10206629      -5.64590157
N       26.44016691      15.26523748       5.60097507      -0.00000000       0.00000000      -0.10206629      -6.54647390
Al      26.44016691      15.26523748       7.49853791      -0.00000000       0.00000000       0.10206629      -5.64590157
N       26.44016691      13.46932719       8.10048771       0.00000000      -0.00000000      -0.10206629      -6.54647390
Al      26.44016691      13.46932719       9.99805055       0.00000000       0.00000000       0.10206629      -5.64590157
N       26.44016691      15.26523748      10.60000035      -0.00000000       0.00000000      -0.10206629      -6.54647390
Al      26.44016691      15.26523748      12.49756319      -0.00000000       0.00000000       0.10206629      -5.64590157
N       26.44016691      13.46932719      13.09951298       0.00000000      -0.00000000      -0.10206629      -6.54647390
Al      26.44016691      13.46932719      14.99707583       0.00000000       0.00000000       0.10206629      -5.64590157
N       26.44016691      15.26523748      15.59902562      -0.00000000       0.00000000      -0.10206629      -6.54647390
Al      26.44016691      15.26523748      17.49658847      -0.00000000       0.00000000       0.10206629      -5.64590157
N       26.44016691      13.46932719      18.09853826       0.00000000      -0.00000000      -0.10206629      -6.54647390
Al      26.44016691      13.46932719      19.99610111       0.00000000      -0.00000000       0.10206629      -5.64590157
N       26.44016691      15.26523748      20.59805090      -0.00000000       0.00000000      -0.10206629      -6.54647390
Al      26.44016691      15.26523748      22.49561374      -0.00000000       0.00000000       0.10206629      -5.64590157
N       26.44016691      13.46932719      23.09756354       0.00000000      -0.00000000      -0.10206629      -6.54647390
Al      26.44016691      13.46932719      24.99512638       0.00000000      -0.00000000       0.10206629      -5.64590157
N       26.44016691      15.26523748      25.59707618      -0.00000000      -0.00000000      -0.10206629      -6.54647390
Al      26.44016691      15.26523748      27.49463902      -0.00000000       0.00000000       0.10206629      -5.64590157
N       26.44016691      13.46932719      28.09658881       0.00000000      -0.00000000      -0.10206629      -6.54647390
Al      26.44016691      13.46932719      29.99415166       0.00000000       0.00000000       0.10206629      -5.64590157
N       26.44016691      15.26523748      30.59610145      -0.00000000       0.00000000      -0.10206629      -6.54647390
Al      26.44016691      15.26523748      32.49366430      -0.00000000       0.00000000       0.10206629      -5.64590157
N       26.44016691      13.46932719      33.09561409       0.00000000      -0.00000000      -0.10206629      -6.54647390
Al      26.44016691      13.46932719      34.99317694       0.00000000      -0.00000000       0.10206629      -5.64590157
N       26.44016691      15.26523748      35.59512673      -0.00000000       0.00000000      -0.10206629      -6.54647390
Al      26.44016691      15.26523748      37.49268957      -0.00000000       0.00000000       0.10206629      -5.64590157
N       26.44016691      13.46932719      38.09463937       0.00000000      -0.00000000      -0.10206629      -6.54647390
Al      26.44016691      13.46932719      39.99220221       0.00000000      -0.00000000       0.10206629      -5.64590157
N       26.44016691      15.26523748      40.59415201      -0.00000000      -0.00000000      -0.10206629      -6.54647390
Al      26.44016691      15.26523748      42.49171485      -0.00000000       0.00000000       0.10206629      -5.64590157
N       26.44016691      13.46932719      43.09366464       0.00000000      -0.00000000      -0.10206629      -6.54647390
Al      24.88486297      16.16319263       0.00000000       0.00000000       0.00000000       0.10206629      -5.64590157
N       24.88486297      17.95910292       0.60194979      -0.00000000      -0.00000000      -0.10206629      -6.54647390
Al      24.88486297      17.95910292       2.49951264      -0.00000000      -0.00000000       0.10206629      -5.64590157
N       24.88486297      16.16319263       3.10146243       0.00000000       0.00000000      -0.10206629      -6.54647390
Al      24.88486297      16.16319263       4.99902528       0.00000000       0.00000000       0.10206629      -5.64590157
N       24.88486297      17.95910292       5.60097507      -0.00000000      -0.00000000      -0.10206629      -6.54647390
Al      24.88486297      17.95910292       7.49853791      -0.00000000      -0.00000000       0.10206629      -5.64590157
N       24.88486297      16.16319263       8.10048771       0.00000000       0.00000000      -0.10206629      -6.54647390
Al      24.88486297      16.16319263       9.99805055       0.00000000       0.00000000       0.10206629      -5.64590157
N       24.88486297      17.95910292      10.60000035      -0.00000000      -0.00000000      -0.10206629      -6.54647390
Al      24.88486297      17.95910292      12.49756319      -0.00000000      -0.00000000       0.10206629      -5.64590157
N       24.88486297      16.16319263      13.09951298       0.00000000       0.00000000      -0.10206629      -6.54647390
Al      24.88486297      16.16319263      14.99707583       0.00000000       0.00000000       0.10206629      -5.64590157
N       24.88486297      17.95910292      15.59902562      -0.00000000      -0.00000000      -0.10206629      -6.54647390
Al      24.88486297      17.95910292      17.49658847      -0.00000000      -0.00000000       0.10206629      -5.64590157
N       24.88486297      16.16319263      18.09853826       0.00000000       0.00000000      -0.10206629      -6.54647390
Al      24.88486297      16.16319263      19.99610111       0.00000000       0.00000000       0.10206629      -5.64590157
N       24.88486297      17.95910292      20.59805090      -0.00000000      -0.00000000      -0.10206629      -6.54647390
Al      24.88486297      17.95910292      22.49561374      -0.00000000      -0.00000000       0.10206629      -5.64590157
N       24.88486297      16.16319263      23.09756354       0.00000000       0.00000000      -0.10206629      -6.54647390
Al      24.88486297      16.16319263      24.99512638       0.00000000       0.00000000       0.10206629      -5.64590157
N       24.88486297      17.95910292      25.59707618      -0.00000000      -0.00000000      -0.10206629      -6.54647390
Al      24.88486297      17.95910292      27.49463902      -0.00000000       0.00000000       0.10206629      -5.64590157
N       24.88486297      16.16319263      28.09658881       0.00000000       0.00000000      -0.10206629      -6.54647390
Al      24.88486297      16.16319263      29.99415166       0.00000000       0.00000000       0.10206629      -5.64590157
N       24.88486297      17.95910292      30.59610145      -0.00000000      -0.00000000      -0.10206629      -6.54647390
Al      24.88486297      17.95910292      32.49366430      -0.00000000      -0.00000000       0.10206629      -5.64590157
N       24.88486297      16.16319263      33.09561409       0.00000000       0.00000000      -0.10206629      -6.54647390
Al      24.88486297      16.16319263      34.99317694       0.00000000       0.00000000       0.10206629      -5.64590157
N       24.88486297      17.95910292      35.59512673      -0.00000000      -0.00000000      -0.10206629      -6.54647390
Al      24.88486297      17.95910292      37.49268957      -0.00000000      -0.00000000       0.10206629      -5.64590157
N       24.88486297      16.16319263      38.09463937       0.00000000       0.00000000      -0.10206629      -6.54647390
Al      24.88486297      16.16319263      39.99220221       0.00000000       0.00000000       0.10206629      -5.64590157
N       24.88486297      17.95910292      40.59415201      -0.00000000      -0.00000000      -0.10206629      -6.54647390
Al      24.88486297      17.95910292      42.49171485      -0.00000000      -0.00000000       0.10206629      -5.64590157
N       24.88486297      16.16319263      43.09366464       0.00000000       0.00000000      -0.10206629      -6.54647390
Al      23.32955904      18.85705806       0.00000000       0.00000000      -0.00000000       0.10206629      -5.64590157
N       23.32955904      20.65296836       0.60194979      -0.00000000       0.00000000      -0.10206629      -6.54647390
Al      23.32955904      20.65296836       2.49951264      -0.00000000       0.00000000       0.10206629      -5.64590157
N       23.32955904      18.85705806       3.10146243       0.00000000      -0.00000000      -0.10206629      -6.54647390
Al      23.32955904      18.85705806       4.99902528       0.00000000      -0.00000000       0.10206629      -5.64590157
N       23.32955904      20.65296836       5.60097507      -0.00000000       0.00000000      -0.10206629      -6.54647390
Al      23.32955904      20.65296836       7.49853791      -0.00000000       0.00000000       0.10206629      -5.64590157
N       23.32955904      18.85705806       8.10048771       0.00000000      -0.00000000      -0.10206629      -6.54647390
Al      23.32955904      18.85705806       9.99805055       0.00000000      -0.00000000       0.10206629      -5.64590157
N       23.32955904      20.65296836      10.60000035      -0.00000000       0.00000000      -0.10206629      -6.54647390
Al      23.32955904      20.65296836      12.49756319      -0.00000000       0.00000000       0.10206629      -5.64590157
N       23.32955904      18.85705806      13.09951298       0.00000000      -0.00000000      -0.10206629      -6.54647390
Al      23.32955904      18.85705806      14.99707583       0.00000000      -0.00000000       0.10206629      -5.64590157
N       23.32955904      20.65296836      15.59902562      -0.00000000       0.00000000      -0.10206629      -6.54647390
Al      23.32955904      20.65296836      17.49658847      -0.00000000       0.00000000       0.10206629      -5.64590157
N       23.32955904      18.85705806      18.09853826       0.00000000      -0.00000000      -0.10206629      -6.54647390
Al      23.32955904      18.85705806      19.99610111       0.00000000      -0.00000000       0.10206629      -5.64590157
N       23.32955904      20.65296836      20.59805090      -0.00000000       0.00000000      -0.10206629      -6.54647390
Al      23.32955904      20.65296836      22.49561374      -0.00000000       0.00000000       0.10206629      -5.64590157
N       23.32955904      18.85705806      23.09756354       0.00000000      -0.00000000      -0.10206629      -6.54647390
Al      23.32955904      18.85705806      24.99512638       0.00000000      -0.00000000       0.10206629      -5.64590157
N       23.32955904      20.65296836      25.59707618      -0.00000000       0.00000000      -0.10206629      -6.54647390
Al      23.32955904      20.65296836      27.49463902      -0.00000000       0.00000000       0.10206629      -5.64590157
N       23.32955904      18.85705806      28.09658881       0.00000000      -0.00000000      -0.10206629      -6.54647390
Al      23.32955904      18.85705806      29.99415166       0.00000000      -0.00000000       0.10206629      -5.64590157
N       23.32955904      20.65296836      30.59610145      -0.00000000       0.00000000      -0.10206629      -6.54647390
Al      23.32955904      20.65296836      32.49366430      -0.00000000       0.00000000       0.10206629      -5.64590157
N       23.32955904      18.85705806      33.09561409       0.00000000      -0.00000000      -0.10206629      -6.54647390
Al      23.32955904      18.85705806      34.99317694       0.00000000      -0.00000000       0.10206629      -5.64590157
N       23.32955904      20.65296836      35.59512673      -0.00000000       0.00000000      -0.10206629      -6.54647390
Al      23.32955904      20.65296836      37.49268957      -0.00000000       0.00000000       0.10206629      -5.64590157
N       23.32955904      18.85705806      38.09463937       0.00000000      -0.00000000      -0.10206629      -6.54647390
Al      23.32955904      18.85705806      39.99220221       0.00000000      -0.00000000       0.10206629      -5.64590157
N       23.32955904      20.65296836      40.59415201      -0.00000000       0.00000000      -0.10206629      -6.54647390
Al      23.32955904      20.65296836      42.49171485      -0.00000000       0.00000000       0.10206629      -5.64590157
N       23.32955904      18.85705806      43.09366464       0.00000000      -0.00000000      -0.10206629      -6.54647390
Al      21.77425510      21.55092350       0.00000000       0.00000000      -0.00000000       0.10206629      -5.64590157
N       21.77425510      23.34683379       0.60194979      -0.00000000       0.00000000      -0.10206629      -6.54647390
Al      21.77425510      23.34683379       2.49951264      -0.00000000       0.00000000       0.10206629      -5.64590157
N       21.77425510      21.55092350       3.10146243       0.00000000      -0.00000000      -0.10206629      -6.54647390
Al      21.77425510      21.55092350       4.99902528       0.00000000      -0.00000000       0.10206629      -5.64590157
N       21.77425510      23.34683379       5.60097507      -0.00000000       0.00000000      -0.10206629      -6.54647390
Al      21.77425510      23.34683379       7.49853791      -0.00000000       0.00000000       0.10206629      -5.64590157
N       21.77425510      21.55092350       8.10048771       0.00000000      -0.00000000      -0.10206629      -6.54647390
Al      21.77425510      21.55092350       9.99805055       0.00000000      -0.00000000       0.10206629      -5.64590157
N       21.77425510      23.34683379      10.60000035      -0.00000000       0.00000000      -0.10206629      -6.54647390
Al      21.77425510      23.34683379      12.49756319      -0.00000000       0.00000000       0.10206629      -5.64590157
N       21.77425510      21.55092350      13.09951298       0.00000000      -0.00000000      -0.10206629      -6.54647390
Al      21.77425510      21.55092350      14.99707583       0.00000000      -0.00000000       0.10206629      -5.64590157
N       21.77425510      23.34683379      15.59902562      -0.00000000       0.00000000      -0.10206629      -6.54647390
Al      21.77425510      23.34683379      17.49658847      -0.00000000       0.00000000       0.10206629      -5.64590157
N       21.77425510      21.55092350      18.09853826       0.00000000      -0.00000000      -0.10206629      -6.54647390
Al      21.77425510      21.55092350      19.99610111       0.00000000      -0.00000000       0.10206629      -5.64590157
N       21.77425510      23.34683379      20.59805090      -0.00000000       0.00000000      -0.10206629      -6.54647390
Al      21.77425510      23.34683379      22.49561374      -0.00000000       0.00000000       0.10206629      -5.64590157
N       21.77425510      21.55092350      23.09756354       0.00000000       0.00000000      -0.10206629      -6.54647390
Al      21.77425510      21.55092350      24.99512638       0.00000000      -0.00000000       0.10206629      -5.64590157
N       21.77425510      23.34683379      25.59707618      -0.00000000       0.00000000      -0.10206629      -6.54647390
Al      21.77425510      23.34683379      27.49463902      -0.00000000       0.00000000       0.10206629      -5.64590157
N       21.77425510      21.55092350      28.09658881       0.00000000      -0.00000000      -0.10206629      -6.54647390
Al      21.77425510      21.55092350      29.99415166       0.00000000      -0.00000000       0.10206629      -5.64590157
N       21.77425510      23.34683379      30.59610145      -0.00000000       0.00000000      -0.10206629      -6.54647390
Al      21.77425510      23.34683379      32.49366430      -0.00000000       0.00000000       0.10206629      -5.64590157
N       21.77425510      21.55092350      33.09561409       0.00000000      -0.00000000      -0.10206629      -6.54647390
Al      21.77425510      21.55092350      34.99317694       0.00000000      -0.00000000       0.10206629      -5.64590157
N       21.77425510      23.34683379      35.59512673      -0.00000000       0.00000000      -0.10206629      -6.54647390
Al      21.77425510      23.34683379      37.49268957      -0.00000000       0.00000000       0.10206629      -5.64590157
N       21.77425510      21.55092350      38.09463937       0.00000000      -0.00000000      -0.10206629      -6.54647390
Al      21.77425510      21.55092350      39.99220221       0.00000000      -0.00000000       0.10206629      -5.64590157
N       21.77425510      23.34683379      40.59415201      -0.00000000       0.00000000      -0.10206629      -6.54647390
Al      21.77425510      23.34683379      42.49171485      -0.00000000       0.00000000       0.10206629      -5.64590157
N       21.77425510      21.55092350      43.09366464       0.00000000      -0.00000000      -0.10206629      -6.54647390
Al      20.21895116      24.24478894       0.00000000       0.00000000      -0.00000000       0.10206629      -5.64590157
N       20.21895116      26.04069923       0.60194979      -0.00000000       0.00000000      -0.10206629      -6.54647390
Al      20.21895116      26.04069923       2.49951264      -0.00000000      -0.00000000       0.10206629      -5.64590157
N       20.21895116      24.24478894       3.10146243       0.00000000      -0.00000000      -0.10206629      -6.54647390
Al      20.21895116      24.24478894       4.99902528       0.00000000      -0.00000000       0.10206629      -5.64590157
N       20.21895116      26.04069923       5.60097507      -0.00000000       0.00000000      -0.10206629      -6.54647390
Al      20.21895116      26.04069923       7.49853791      -0.00000000      -0.00000000       0.10206629      -5.64590157
N       20.21895116      24.24478894       8.10048771       0.00000000      -0.00000000      -0.10206629      -6.54647390
Al      20.21895116      24.24478894       9.99805055       0.00000000      -0.00000000       0.10206629      -5.64590157
N       20.21895116      26.04069923      10.60000035      -0.00000000       0.00000000      -0.10206629      -6.54647390
Al      20.21895116      26.04069923      12.49756319      -0.00000000      -0.00000000       0.10206629      -5.64590157
N       20.21895116      24.24478894      13.09951298       0.00000000      -0.00000000      -0.10206629      -6.54647390
Al      20.21895116      24.24478894      14.99707583       0.00000000      -0.00000000       0.10206629      -5.64590157
N       20.21895116      26.04069923      15.59902562      -0.00000000      -0.00000000      -0.10206629      -6.54647390
Al      20.21895116      26.04069923      17.49658847      -0.00000000      -0.00000000       0.10206629      -5.64590157
N       20.21895116      24.24478894      18.09853826       0.00000000      -0.00000000      -0.10206629      -6.54647390
Al      20.21895116      24.24478894      19.99610111       0.00000000      -0.00000000       0.10206629      -5.64590157
N       20.21895116      26.04069923      20.59805090      -0.00000000      -0.00000000      -0.10206629      -6.54647390
Al      20.21895116      26.04069923      22.49561374      -0.00000000      -0.00000000       0.10206629      -5.64590157
N       20.21895116      24.24478894      23.09756354       0.00000000      -0.00000000      -0.10206629      -6.54647390
Al      20.21895116      24.24478894      24.99512638       0.00000000      -0.00000000       0.10206629      -5.64590157
N       20.21895116      26.04069923      25.59707618      -0.00000000      -0.00000000      -0.10206629      -6.54647390
Al      20.21895116      26.04069923      27.49463902      -0.00000000      -0.00000000       0.10206629      -5.64590157
N       20.21895116      24.24478894      28.09658881       0.00000000      -0.00000000      -0.10206629      -6.54647390
Al      20.21895116      24.24478894      29.99415166       0.00000000      -0.00000000       0.10206629      -5.64590157
N       20.21895116      26.04069923      30.59610145      -0.00000000      -0.00000000      -0.10206629      -6.54647390
Al      20.21895116      26.04069923      32.49366430      -0.00000000      -0.00000000       0.10206629      -5.64590157
N       20.21895116      24.24478894      33.09561409       0.00000000      -0.00000000      -0.10206629      -6.54647390
Al      20.21895116      24.24478894      34.99317694       0.00000000      -0.00000000       0.10206629      -5.64590157
N       20.21895116      26.04069923      35.59512673      -0.00000000      -0.00000000      -0.10206629      -6.54647390
Al      20.21895116      26.04069923      37.49268957      -0.00000000      -0.00000000       0.10206629      -5.64590157
N       20.21895116      24.24478894      38.09463937       0.00000000      -0.00000000      -0.10206629      -6.54647390
Al      20.21895116      24.24478894      39.99220221       0.00000000      -0.00000000       0.10206629      -5.64590157
N       20.21895116      26.04069923      40.59415201      -0.00000000       0.00000000      -0.10206629      -6.54647390
Al      20.21895116      26.04069923      42.49171485      -0.00000000      -0.00000000       0.10206629      -5.64590157
N       20.21895116      24.24478894      43.09366464       0.00000000      -0.00000000      -0.10206629      -6.54647390
Al      18.66364723      26.93865438       0.00000000       0.00000000      -0.00000000       0.10206629      -5.64590157
N       18.66364723      28.73456467       0.60194979      -0.00000000       0.00000000      -0.10206629      -6.54647390
Al      18.66364723      28.73456467       2.49951264      -0.00000000       0.00000000       0.10206629      -5.64590157
N       18.66364723      26.93865438       3.10146243       0.00000000      -0.00000000      -0.10206629      -6.54647390
Al      18.66364723      26.93865438       4.99902528       0.00000000      -0.00000000       0.10206629      -5.64590157
N       18.66364723      28.73456467       5.60097507       0.00000000       0.00000000      -0.10206629      -6.54647390
Al      18.66364723      28.73456467       7.49853791      -0.00000000       0.00000000       0.10206629      -5.64590157
N       18.66364723      26.93865438       8.10048771       0.00000000      -0.00000000      -0.10206629      -6.54647390
Al      18.66364723      26.93865438       9.99805055       0.00000000      -0.00000000       0.10206629      -5.64590157
N       18.66364723      28.73456467      10.60000035      -0.00000000       0.00000000      -0.10206629      -6.54647390
Al      18.66364723      28.73456467      12.49756319      -0.00000000       0.00000000       0.10206629      -5.64590157
N       18.66364723      26.93865438      13.09951298       0.00000000      -0.00000000      -0.10206629      -6.54647390
Al      18.66364723      26.93865438      14.99707583      -0.00000000      -0.00000000       0.10206629      -5.64590157
N       18.66364723      28.73456467      15.59902562       0.00000000       0.00000000      -0.10206629      -6.54647390
Al      18.66364723      28.73456467      17.49658847      -0.00000000       0.00000000       0.10206629      -5.64590157
N       18.66364723      26.93865438      18.09853826       0.00000000      -0.00000000      -0.10206629      -6.54647390
Al      18.66364723      26.93865438      19.99610111      -0.00000000      -0.00000000       0.10206629      -5.64590157
N       18.66364723      28.73456467      20.59805090      -0.00000000       0.00000000      -0.10206629      -6.54647390
Al      18.66364723      28.73456467      22.49561374       0.00000000       0.00000000       0.10206629      -5.64590157
N       18.66364723      26.93865438      23.09756354      -0.00000000      -0.00000000      -0.10206629      -6.54647390
Al      18.66364723      26.93865438      24.99512638      -0.00000000      -0.00000000       0.10206629      -5.64590157
N       18.66364723      28.73456467      25.59707618      -0.00000000       0.00000000      -0.10206629      -6.54647390
Al      18.66364723      28.73456467      27.49463902      -0.00000000       0.00000000       0.10206629      -5.64590157
N       18.66364723      26.93865438      28.09658881       0.00000000      -0.00000000      -0.10206629      -6.54647390
Al      18.66364723      26.93865438      29.99415166      -0.00000000      -0.00000000       0.10206629      -5.64590157
N       18.66364723      28.73456467      30.59610145       0.00000000       0.00000000      -0.10206629      -6.54647390
Al      18.66364723      28.73456467      32.49366430      -0.00000000       0.00000000       0.10206629      -5.64590157
N       18.66364723      26.93865438      33.09561409      -0.00000000      -0.00000000      -0.10206629      -6.54647390
Al      18.66364723      26.93865438      34.99317694       0.00000000      -0.00000000       0.10206629      -5.64590157
N       18.66364723      28.73456467      35.59512673       0.00000000       0.00000000      -0.10206629      -6.54647390
Al      18.66364723      28.73456467      37.49268957      -0.00000000       0.00000000       0.10206629      -5.64590157
N       18.66364723      26.93865438      38.09463937      -0.00000000      -0.00000000      -0.10206629      -6.54647390
Al      18.66364723      26.93865438      39.99220221       0.00000000      -0.00000000       0.10206629      -5.64590157
N       18.66364723      28.73456467      40.59415201       0.00000000       0.00000000      -0.10206629      -6.54647390
Al      18.66364723      28.73456467      42.49171485       0.00000000       0.00000000       0.10206629      -5.64590157
N       18.66364723      26.93865438      43.09366464       0.00000000      -0.00000000      -0.10206629      -6.54647390
Al      17.10834329      29.63251982      -0.00000000       0.00000000       0.00000000       0.10206629      -5.64590157
N       17.10834329      31.42843011       0.60194979       0.00000000      -0.00000000      -0.10206629      -6.54647390
Al      17.10834329      31.42843011       2.49951264       0.00000000      -0.00000000       0.10206629      -5.64590157
N       17.10834329      29.63251982       3.10146243       0.00000000       0.00000000      -0.10206629      -6.54647390
Al      17.10834329      29.63251982       4.99902528       0.00000000       0.00000000       0.10206629      -5.64590157
N       17.10834329      31.42843011       5.60097507       0.00000000      -0.00000000      -0.10206629      -6.54647390
Al      17.10834329      31.42843011       7.49853791       0.00000000      -0.00000000       0.10206629      -5.64590157
N       17.10834329      29.63251982       8.10048771      -0.00000000       0.00000000      -0.10206629      -6.54647390
Al      17.10834329      29.63251982       9.99805055       0.00000000       0.00000000       0.10206629      -5.64590157
N       17.10834329      31.42843011      10.60000035       0.00000000      -0.00000000      -0.10206629      -6.54647390
Al      17.10834329      31.42843011      12.49756319       0.00000000      -0.00000000       0.10206629      -5.64590157
N       17.10834329      29.63251982      13.09951298       0.00000000       0.00000000      -0.10206629      -6.54647390
Al      17.10834329      29.63251982      14.99707583      -0.00000000       0.00000000       0.10206629      -5.64590157
N       17.10834329      31.42843011      15.59902562       0.00000000      -0.00000000      -0.10206629      -6.54647390
Al      17.10834329      31.42843011      17.49658847       0.00000000      -0.00000000       0.10206629      -5.64590157
N       17.10834329      29.63251982      18.09853826      -0.00000000       0.00000000      -0.10206629      -6.54647390
Al      17.10834329      29.63251982      19.99610111       0.00000000       0.00000000       0.10206629      -5.64590157
N       17.10834329      31.42843011      20.59805090       0.00000000      -0.00000000      -0.10206629      -6.54647390
Al      17.10834329      31.42843011      22.49561374       0.00000000      -0.00000000       0.10206629      -5.64590157
N       17.10834329      29.63251982      23.09756354      -0.00000000       0.00000000      -0.10206629      -6.54647390
Al      17.10834329      29.63251982      24.99512638       0.00000000       0.00000000       0.10206629      -5.64590157
N       17.10834329      31.42843011      25.59707618       0.00000000      -0.00000000      -0.10206629      -6.54647390
Al      17.10834329      31.42843011      27.49463902       0.00000000      -0.00000000       0.10206629      -5.64590157
N       17.10834329      29.63251982      28.09658881      -0.00000000       0.00000000      -0.10206629      -6.54647390
Al      17.10834329      29.63251982      29.99415166       0.00000000       0.00000000       0.10206629      -5.64590157
N       17.10834329      31.42843011      30.59610145       0.00000000      -0.00000000      -0.10206629      -6.54647390
Al      17.10834329      31.42843011      32.49366430       0.00000000      -0.00000000       0.10206629      -5.64590157
N       17.10834329      29.63251982      33.09561409      -0.00000000       0.00000000      -0.10206629      -6.54647390
Al      17.10834329      29.63251982      34.99317694       0.00000000       0.00000000       0.10206629      -5.64590157
N       17.10834329      31.42843011      35.59512673       0.00000000      -0.00000000      -0.10206629      -6.54647390
Al      17.10834329      31.42843011      37.49268957       0.00000000      -0.00000000       0.10206629      -5.64590157
N       17.10834329      29.63251982      38.09463937       0.00000000       0.00000000      -0.10206629      -6.54647390
Al      17.10834329      29.63251982      39.99220221      -0.00000000       0.00000000       0.10206629      -5.64590157
N       17.10834329      31.42843011      40.59415201       0.00000000      -0.00000000      -0.10206629      -6.54647390
Al      17.10834329      31.42843011      42.49171485       0.00000000      -0.00000000       0.10206629      -5.64590157
N       17.10834329      29.63251982      43.09366464       0.00000000      -0.00000000      -0.10206629      -6.54647390
Al      15.55303936      32.32638525      -0.00000000      -0.00000000       0.00000000       0.10206629      -5.64590157
N       15.55303936      34.12229555       0.60194979       0.00000000      -0.00000000      -0.10206629      -6.54647390
Al      15.55303936      34.12229555       2.49951264       0.00000000       0.00000000       0.10206629      -5.64590157
N       15.55303936      32.32638525       3.10146243      -0.00000000       0.00000000      -0.10206629      -6.54647390
Al      15.55303936      32.32638525       4.99902528      -0.00000000       0.00000000       0.10206629      -5.64590157
N       15.55303936      34.12229555       5.60097507       0.00000000      -0.00000000      -0.10206629      -6.54647390
Al      15.55303936      34.12229555       7.49853791       0.00000000       0.00000000       0.10206629      -5.64590157
N       15.55303936      32.32638525       8.10048771      -0.00000000       0.00000000      -0.10206629      -6.54647390
Al      15.55303936      32.32638525       9.99805055      -0.00000000       0.00000000       0.10206629      -5.64590157
N       15.55303936      34.12229555      10.60000035       0.00000000      -0.00000000      -0.10206629      -6.54647390
Al      15.55303936      34.12229555      12.49756319       0.00000000       0.00000000       0.10206629      -5.64590157
N       15.55303936      32.32638525      13.09951298      -0.00000000       0.00000000      -0.10206629      -6.54647390
Al      15.55303936      32.32638525      14.99707583      -0.00000000       0.00000000       0.10206629      -5.64590157
N       15.55303936      34.12229555      15.59902562       0.00000000       0.00000000      -0.10206629      -6.54647390
Al      15.55303936      34.12229555      17.49658847       0.00000000       0.00000000       0.10206629      -5.64590157
N       15.55303936      32.32638525      18.09853826      -0.00000000       0.00000000      -0.10206629      -6.54647390
Al      15.55303936      32.32638525      19.99610111      -0.00000000       0.00000000       0.10206629      -5.64590157
N       15.55303936      34.12229555      20.59805090       0.00000000      -0.00000000      -0.10206629      -6.54647390
Al      15.55303936      34.12229555      22.49561374       0.00000000       0.00000000       0.10206629      -5.64590157
N       15.55303936      32.32638525      23.09756354      -0.00000000       0.00000000      -0.10206629      -6.54647390
Al      15.55303936      32.32638525      24.99512638      -0.00000000       0.00000000       0.10206629      -5.64590157
N       15.55303936      34.12229555      25.59707618       0.00000000      -0.00000000      -0.10206629      -6.54647390
Al      15.55303936      34.12229555      27.49463902       0.00000000       0.00000000       0.10206629      -5.64590157
N       15.55303936      32.32638525      28.09658881      -0.00000000       0.00000000      -0.10206629      -6.54647390
Al      15.55303936      32.32638525      29.99415166      -0.00000000       0.00000000       0.10206629      -5.64590157
N       15.55303936      34.12229555      30.59610145       0.00000000      -0.00000000      -0.10206629      -6.54647390
Al      15.55303936      34.12229555      32.49366430       0.00000000       0.00000000       0.10206629      -5.64590157
N       15.55303936      32.32638525      33.09561409      -0.00000000       0.00000000      -0.10206629      -6.54647390
Al      15.55303936      32.32638525      34.99317694      -0.00000000       0.00000000       0.10206629      -5.64590157
N       15.55303936      34.12229555      35.59512673       0.00000000       0.00000000      -0.10206629      -6.54647390
Al      15.55303936      34.12229555      37.49268957       0.00000000       0.00000000       0.10206629      -5.64590157
N       15.55303936      32.32638525      38.09463937      -0.00000000       0.00000000      -0.10206629      -6.54647390
Al      15.55303936      32.32638525      39.99220221      -0.00000000       0.00000000       0.10206629      -5.64590157
N       15.55303936      34.12229555      40.59415201       0.00000000       0.00000000      -0.10206629      -6.54647390
Al      15.55303936      34.12229555      42.49171485       0.00000000       0.00000000       0.10206629      -5.64590157
N       15.55303936      32.32638525      43.09366464      -0.00000000       0.00000000      -0.10206629      -6.54647390
Al      13.99773542      35.02025069      -0.00000000      -0.00000000       0.00000000       0.10206629      -5.64590157
N       13.99773542      36.81616098       0.60194979       0.00000000      -0.00000000      -0.10206629      -6.54647390
Al      13.99773542      36.81616098       2.49951264       0.00000000      -0.00000000       0.10206629      -5.64590157
N       13.99773542      35.02025069       3.10146243      -0.00000000       0.00000000      -0.10206629      -6.54647390
Al      13.99773542      35.02025069       4.99902528      -0.00000000       0.00000000       0.10206629      -5.64590157
N       13.99773542      36.81616098       5.60097507       0.00000000      -0.00000000      -0.10206629      -6.54647390
Al      13.99773542      36.81616098       7.49853791       0.00000000      -0.00000000       0.10206629      -5.64590157
N       13.99773542      35.02025069       8.10048771      -0.00000000      -0.00000000      -0.10206629      -6.54647390
Al      13.99773542      35.02025069       9.99805055      -0.00000000       0.00000000       0.10206629      -5.64590157
N       13.99773542      36.81616098      10.60000035       0.00000000      -0.00000000      -0.10206629      -6.54647390
Al      13.99773542      36.81616098      12.49756319       0.00000000      -0.00000000       0.10206629      -5.64590157
N       13.99773542      35.02025069      13.09951298      -0.00000000      -0.00000000      -0.10206629      -6.54647390
Al      13.99773542      35.02025069      14.99707583      -0.00000000       0.00000000       0.10206629      -5.64590157
N       13.99773542      36.81616098      15.59902562       0.00000000      -0.00000000      -0.10206629      -6.54647390
Al      13.99773542      36.81616098      17.49658847       0.00000000      -0.00000000       0.10206629      -5.64590157
N       13.99773542      35.02025069      18.09853826      -0.00000000      -0.00000000      -0.10206629      -6.54647390
Al      13.99773542      35.02025069      19.99610111      -0.00000000       0.00000000       0.10206629      -5.64590157
N       13.99773542      36.81616098      20.59805090       0.00000000      -0.00000000      -0.10206629      -6.54647390
Al      13.99773542      36.81616098      22.49561374       0.00000000      -0.00000000       0.10206629      -5.64590157
N       13.99773542      35.02025069      23.09756354      -0.00000000       0.00000000      -0.10206629      -6.54647390
Al      13.99773542      35.02025069      24.99512638      -0.00000000       0.00000000       0.10206629      -5.64590157
N       13.99773542      36.81616098      25.59707618       0.00000000      -0.00000000      -0.10206629      -6.54647390
Al      13.99773542      36.81616098      27.49463902       0.00000000      -0.00000000       0.10206629      -5.64590157
N       13.99773542      35.02025069      28.09658881      -0.00000000      -0.00000000      -0.10206629      -6.54647390
Al      13.99773542      35.02025069      29.99415166      -0.00000000       0.00000000       0.10206629      -5.64590157
N       13.99773542      36.81616098      30.59610145       0.00000000      -0.00000000      -0.10206629      -6.54647390
Al      13.99773542      36.81616098      32.49366430       0.00000000      -0.00000000       0.10206629      -5.64590157
N       13.99773542      35.02025069      33.09561409      -0.00000000       0.00000000      -0.10206629      -6.54647390
Al      13.99773542      35.02025069      34.99317694      -0.00000000       0.00000000       0.10206629      -5.64590157
N       13.99773542      36.81616098      35.59512673       0.00000000      -0.00000000      -0.10206629      -6.54647390
Al      13.99773542      36.81616098      37.49268957       0.00000000      -0.00000000       0.10206629      -5.64590157
N       13.99773542      35.02025069      38.09463937      -0.00000000      -0.00000000      -0.10206629      -6.54647390
Al      13.99773542      35.02025069      39.99220221      -0.00000000       0.00000000       0.10206629      -5.64590157
N       13.99773542      36.81616098      40.59415201       0.00000000      -0.00000000      -0.10206629      -6.54647390
Al      13.99773542      36.81616098      42.49171485       0.00000000      -0.00000000       0.10206629      -5.64590157
N       13.99773542      35.02025069      43.09366464      -0.00000000       0.00000000      -0.10206629      -6.54647390
Al      12.44243149      37.71411613      -0.00000000      -0.00000000      -0.00000000       0.10206629      -5.64590157
N       12.44243149      39.51002642       0.60194979       0.00000000       0.00000000      -0.10206629      -6.54647390
Al      12.44243149      39.51002642       2.49951264      -0.00000000       0.00000000       0.10206629      -5.64590157
N       12.44243149      37.71411613       3.10146243      -0.00000000      -0.00000000      -0.10206629      -6.54647390
Al      12.44243149      37.71411613       4.99902528      -0.00000000      -0.00000000       0.10206629      -5.64590157
N       12.44243149      39.51002642       5.60097507      -0.00000000       0.00000000      -0.10206629      -6.54647390
Al      12.44243149      39.51002642       7.49853791      -0.00000000       0.00000000       0.10206629      -5.64590157
N       12.44243149      37.71411613       8.10048771      -0.00000000      -0.00000000      -0.10206629      -6.54647390
Al      12.44243149      37.71411613       9.99805055      -0.00000000      -0.00000000       0.10206629      -5.64590157
N       12.44243149      39.51002642      10.60000035      -0.00000000       0.00000000      -0.10206629      -6.54647390
Al      12.44243149      39.51002642      12.49756319      -0.00000000       0.00000000       0.10206629      -5.64590157
N       12.44243149      37.71411613      13.09951298      -0.00000000      -0.00000000      -0.10206629      -6.54647390
Al      12.44243149      37.71411613      14.99707583      -0.00000000      -0.00000000       0.10206629      -5.64590157
N       12.44243149      39.51002642      15.59902562      -0.00000000       0.00000000      -0.10206629      -6.54647390
Al      12.44243149      39.51002642      17.49658847      -0.00000000       0.00000000       0.10206629      -5.64590157
N       12.44243149      37.71411613      18.09853826      -0.00000000      -0.00000000      -0.10206629      -6.54647390
Al      12.44243149      37.71411613      19.99610111      -0.00000000      -0.00000000       0.10206629      -5.64590157
N       12.44243149      39.51002642      20.59805090      -0.00000000       0.00000000      -0.10206629      -6.54647390
Al      12.44243149      39.51002642      22.49561374      -0.00000000       0.00000000       0.10206629      -5.64590157
N       12.44243149      37.71411613      23.09756354      -0.00000000      -0.00000000      -0.10206629      -6.54647390
Al      12.44243149      37.71411613      24.99512638      -0.00000000      -0.00000000       0.10206629      -5.64590157
N       12.44243149      39.51002642      25.59707618      -0.00000000       0.00000000      -0.10206629      -6.54647390
Al      12.44243149      39.51002642      27.49463902      -0.00000000       0.00000000       0.10206629      -5.64590157
N       12.44243149      37.71411613      28.09658881      -0.00000000      -0.00000000      -0.10206629      -6.54647390
Al      12.44243149      37.71411613      29.99415166      -0.00000000      -0.00000000       0.10206629      -5.64590157
N       12.44243149      39.51002642      30.59610145      -0.00000000       0.00000000      -0.10206629      -6.54647390
Al      12.44243149      39.51002642      32.49366430      -0.00000000       0.00000000       0.10206629      -5.64590157
N       12.44243149      37.71411613      33.09561409      -0.00000000      -0.00000000      -0.10206629      -6.54647390
Al      12.44243149      37.71411613      34.99317694      -0.00000000      -0.00000000       0.10206629      -5.64590157
N       12.44243149      39.51002642      35.59512673      -0.00000000       0.00000000      -0.10206629      -6.54647390
Al      12.44243149      39.51002642      37.49268957      -0.00000000       0.00000000       0.10206629      -5.64590157
N       12.44243149      37.71411613      38.09463937      -0.00000000      -0.00000000      -0.10206629      -6.54647390
Al      12.44243149      37.71411613      39.99220221      -0.00000000      -0.00000000       0.10206629      -5.64590157
N       12.44243149      39.51002642      40.59415201      -0.00000000       0.00000000      -0.10206629      -6.54647390
Al      12.44243149      39.51002642      42.49171485      -0.00000000       0.00000000       0.10206629      -5.64590157
N       12.44243149      37.71411613      43.09366464      -0.00000000      -0.00000000      -0.10206629      -6.54647390
Al      37.32729446      -0.00000000       0.00000000      -0.00000000      -0.00000000       0.10206629      -5.64590157
N       37.32729446       1.79591029       0.60194979      -0.00000000      -0.00000000      -0.10206629      -6.54647390
Al      37.32729446       1.79591029       2.49951264      -0.00000000      -0.00000000       0.10206629      -5.64590157
N       37.32729446      -0.00000000       3.10146243      -0.00000000      -0.00000000      -0.10206629      -6.54647390
Al      37.32729446      -0.00000000       4.99902528      -0.00000000      -0.00000000       0.10206629      -5.64590157
N       37.32729446       1.79591029       5.60097507      -0.00000000      -0.00000000      -0.10206629      -6.54647390
Al      37.32729446       1.79591029       7.49853791      -0.00000000      -0.00000000       0.10206629      -5.64590157
N       37.32729446      -0.00000000       8.10048771      -0.00000000      -0.00000000      -0.10206629      -6.54647390
Al      37.32729446      -0.00000000       9.99805055      -0.00000000      -0.00000000       0.10206629      -5.64590157
N       37.32729446       1.79591029      10.60000035      -0.00000000      -0.00000000      -0.10206629      -6.54647390
Al      37.32729446       1.79591029      12.49756319      -0.00000000      -0.00000000       0.10206629      -5.64590157
N       37.32729446      -0.00000000      13.09951298      -0.00000000       0.00000000      -0.10206629      -6.54647390
Al      37.32729446      -0.00000000      14.99707583      -0.00000000      -0.00000000       0.10206629      -5.64590157
N       37.32729446       1.79591029      15.59902562      -0.00000000      -0.00000000      -0.10206629      -6.54647390
Al      37.32729446       1.79591029      17.49658847      -0.00000000      -0.00000000       0.10206629      -5.64590157
N       37.32729446      -0.00000000      18.09853826      -0.00000000      -0.00000000      -0.10206629      -6.54647390
Al      37.32729446      -0.00000000      19.99610111      -0.00000000      -0.00000000       0.10206629      -5.64590157
N       37.32729446       1.79591029      20.59805090      -0.00000000      -0.00000000      -0.10206629      -6.54647390
Al      37.32729446       1.79591029      22.49561374      -0.00000000      -0.00000000       0.10206629      -5.64590157
N       37.32729446      -0.00000000      23.09756354      -0.00000000      -0.00000000      -0.10206629      -6.54647390
Al      37.32729446      -0.00000000      24.99512638      -0.00000000      -0.00000000       0.10206629      -5.64590157
N       37.32729446       1.79591029      25.59707618      -0.00000000      -0.00000000      -0.10206629      -6.54647390
Al      37.32729446       1.79591029      27.49463902      -0.00000000      -0.00000000       0.10206629      -5.64590157
N       37.32729446      -0.00000000      28.09658881      -0.00000000      -0.00000000      -0.10206629      -6.54647390
Al      37.32729446      -0.00000000      29.99415166      -0.00000000      -0.00000000       0.10206629      -5.64590157
N       37.32729446       1.79591029      30.59610145      -0.00000000      -0.00000000      -0.10206629      -6.54647390
Al      37.32729446       1.79591029      32.49366430      -0.00000000      -0.00000000       0.10206629      -5.64590157
N       37.32729446      -0.00000000      33.09561409      -0.00000000      -0.00000000      -0.10206629      -6.54647390
Al      37.32729446      -0.00000000      34.99317694      -0.00000000      -0.00000000       0.10206629      -5.64590157
N       37.32729446       1.79591029      35.59512673      -0.00000000      -0.00000000      -0.10206629      -6.54647390
Al      37.32729446       1.79591029      37.49268957      -0.00000000      -0.00000000       0.10206629      -5.64590157
N       37.32729446      -0.00000000      38.09463937      -0.00000000      -0.00000000      -0.10206629      -6.54647390
Al      37.32729446      -0.00000000      39.99220221      -0.00000000      -0.00000000       0.10206629      -5.64590157
N       37.32729446       1.79591029      40.59415201      -0.00000000      -0.00000000      -0.10206629      -6.54647390
Al      37.32729446       1.79591029      42.49171485      -0.00000000      -0.00000000       0.10206629      -5.64590157
N       37.32729446      -0.00000000      43.09366464      -0.00000000      -0.00000000      -0.10206629      -6.54647390
Al      35.77199052       2.69386544       0.00000000       0.00000000      -0.00000000       0.10206629      -5.64590157
N       35.77199052       4.48977573       0.60194979      -0.00000000      -0.00000000      -0.10206629      -6.54647390
Al      35.77199052       4.48977573       2.49951264      -0.00000000      -0.00000000       0.10206629      -5.64590157
N       35.77199052       2.69386544       3.10146243       0.00000000      -0.00000000      -0.10206629      -6.54647390
Al      35.77199052       2.69386544       4.99902528       0.00000000      -0.00000000       0.10206629      -5.64590157
N       35.77199052       4.48977573       5.60097507      -0.00000000      -0.00000000      -0.10206629      -6.54647390
Al      35.77199052       4.48977573       7.49853791      -0.00000000      -0.00000000       0.10206629      -5.64590157
N       35.77199052       2.69386544       8.10048771       0.00000000      -0.00000000      -0.10206629      -6.54647390
Al      35.77199052       2.69386544       9.99805055       0.00000000      -0.00000000       0.10206629      -5.64590157
N       35.77199052       4.48977573      10.60000035      -0.00000000      -0.00000000      -0.10206629      -6.54647390
Al      35.77199052       4.48977573      12.49756319      -0.00000000      -0.00000000       0.10206629      -5.64590157
N       35.77199052       2.69386544      13.09951298       0.00000000      -0.00000000      -0.10206629      -6.54647390
Al      35.77199052       2.69386544      14.99707583       0.00000000      -0.00000000       0.10206629      -5.64590157
N       35.77199052       4.48977573      15.59902562      -0.00000000      -0.00000000      -0.10206629      -6.54647390
Al      35.77199052       4.48977573      17.49658847      -0.00000000      -0.00000000       0.10206629      -5.64590157
N       35.77199052       2.69386544      18.09853826       0.00000000      -0.00000000      -0.10206629      -6.54647390
Al      35.77199052       2.69386544      19.99610111       0.00000000      -0.00000000       0.10206629      -5.64590157
N       35.77199052       4.48977573      20.59805090      -0.00000000      -0.00000000      -0.10206629      -6.54647390
Al      35.77199052       4.48977573      22.49561374      -0.00000000      -0.00000000       0.10206629      -5.64590157
N       35.77199052       2.69386544      23.09756354       0.00000000      -0.00000000      -0.10206629      -6.54647390
Al      35.77199052       2.69386544      24.99512638       0.00000000      -0.00000000       0.10206629      -5.64590157
N       35.77199052       4.48977573      25.59707618      -0.00000000      -0.00000000      -0.10206629      -6.54647390
Al      35.77199052       4.48977573      27.49463902      -0.00000000      -0.00000000       0.10206629      -5.64590157
N       35.77199052       2.69386544      28.09658881       0.00000000       0.00000000      -0.10206629      -6.54647390
Al      35.77199052       2.69386544      29.99415166       0.00000000      -0.00000000       0.10206629      -5.64590157
N       35.77199052       4.48977573      30.59610145      -0.00000000      -0.00000000      -0.10206629      -6.54647390
Al      35.77199052       4.48977573      32.49366430      -0.00000000      -0.00000000       0.10206629      -5.64590157
N       35.77199052       2.69386544      33.09561409       0.00000000      -0.00000000      -0.10206629      -6.54647390
Al      35.77199052       2.69386544      34.99317694       0.00000000      -0.00000000       0.10206629      -5.64590157
N       35.77199052       4.48977573      35.59512673      -0.00000000      -0.00000000      -0.10206629      -6.54647390
Al      35.77199052       4.48977573      37.49268957      -0.00000000      -0.00000000       0.10206629      -5.64590157
N       35.77199052       2.69386544      38.09463937       0.00000000      -0.00000000      -0.10206629      -6.54647390
Al      35.77199052       2.69386544      39.99220221       0.00000000      -0.00000000       0.10206629      -5.64590157
N       35.77199052       4.48977573      40.59415201      -0.00000000      -0.00000000      -0.10206629      -6.54647390
Al      35.77199052       4.48977573      42.49171485      -0.00000000      -0.00000000       0.10206629      -5.64590157
N       35.77199052       2.69386544      43.09366464       0.00000000      -0.00000000      -0.10206629      -6.54647390
Al      34.21668659       5.38773088       0.00000000      -0.00000000       0.00000000       0.10206629      -5.64590157
N       34.21668659       7.18364117       0.60194979       0.00000000      -0.00000000      -0.10206629      -6.54647390
Al      34.21668659       7.18364117       2.49951264       0.00000000      -0.00000000       0.10206629      -5.64590157
N       34.21668659       5.38773088       3.10146243      -0.00000000      -0.00000000      -0.10206629      -6.54647390
Al      34.21668659       5.38773088       4.99902528      -0.00000000       0.00000000       0.10206629      -5.64590157
N       34.21668659       7.18364117       5.60097507       0.00000000      -0.00000000      -0.10206629      -6.54647390
Al      34.21668659       7.18364117       7.49853791       0.00000000      -0.00000000       0.10206629      -5.64590157
N       34.21668659       5.38773088       8.10048771      -0.00000000       0.00000000      -0.10206629      -6.54647390
Al      34.21668659       5.38773088       9.99805055      -0.00000000       0.00000000       0.10206629      -5.64590157
N       34.21668659       7.18364117      10.60000035       0.00000000       0.00000000      -0.10206629      -6.54647390
Al      34.21668659       7.18364117      12.49756319       0.00000000      -0.00000000       0.10206629      -5.64590157
N       34.21668659       5.38773088      13.09951298      -0.00000000       0.00000000      -0.10206629      -6.54647390
Al      34.21668659       5.38773088      14.99707583      -0.00000000       0.00000000       0.10206629      -5.64590157
N       34.21668659       7.18364117      15.59902562       0.00000000       0.00000000      -0.10206629      -6.54647390
Al      34.21668659       7.18364117      17.49658847       0.00000000      -0.00000000       0.10206629      -5.64590157
N       34.21668659       5.38773088      18.09853826      -0.00000000      -0.00000000      -0.10206629      -6.54647390
Al      34.21668659       5.38773088      19.99610111      -0.00000000       0.00000000       0.10206629      -5.64590157
N       34.21668659       7.18364117      20.59805090       0.00000000      -0.00000000      -0.10206629      -6.54647390
Al      34.21668659       7.18364117      22.49561374       0.00000000      -0.00000000       0.10206629      -5.64590157
N       34.21668659       5.38773088      23.09756354      -0.00000000      -0.00000000      -0.10206629      -6.54647390
Al      34.21668659       5.38773088      24.99512638      -0.00000000       0.00000000       0.10206629      -5.64590157
N       34.21668659       7.18364117      25.59707618       0.00000000      -0.00000000      -0.10206629      -6.54647390
Al      34.21668659       7.18364117      27.49463902       0.00000000      -0.00000000       0.10206629      -5.64590157
N       34.21668659       5.38773088      28.09658881      -0.00000000       0.00000000      -0.10206629      -6.54647390
Al      34.21668659       5.38773088      29.99415166      -0.00000000      -0.00000000       0.10206629      -5.64590157
N       34.21668659       7.18364117      30.59610145       0.00000000      -0.00000000      -0.10206629      -6.54647390
Al      34.21668659       7.18364117      32.49366430       0.00000000      -0.00000000       0.10206629      -5.64590157
N       34.21668659       5.38773088      33.09561409      -0.00000000       0.00000000      -0.10206629      -6.54647390
Al      34.21668659       5.38773088      34.99317694      -0.00000000      -0.00000000       0.10206629      -5.64590157
N       34.21668659       7.18364117      35.59512673       0.00000000      -0.00000000      -0.10206629      -6.54647390
Al      34.21668659       7.18364117      37.49268957       0.00000000      -0.00000000       0.10206629      -5.64590157
N       34.21668659       5.38773088      38.09463937      -0.00000000       0.00000000      -0.10206629      -6.54647390
Al      34.21668659       5.38773088      39.99220221      -0.00000000      -0.00000000       0.10206629      -5.64590157
N       34.21668659       7.18364117      40.59415201       0.00000000      -0.00000000      -0.10206629      -6.54647390
Al      34.21668659       7.18364117      42.49171485       0.00000000      -0.00000000       0.10206629      -5.64590157
N       34.21668659       5.38773088      43.09366464      -0.00000000       0.00000000      -0.10206629      -6.54647390
Al      32.66138265       8.08159631       0.00000000      -0.00000000      -0.00000000       0.10206629      -5.64590157
N       32.66138265       9.87750661       0.60194979      -0.00000000      -0.00000000      -0.10206629      -6.54647390
Al      32.66138265       9.87750661       2.49951264      -0.00000000       0.00000000       0.10206629      -5.64590157
N       32.66138265       8.08159631       3.10146243      -0.00000000       0.00000000      -0.10206629      -6.54647390
Al      32.66138265       8.08159631       4.99902528      -0.00000000      -0.00000000       0.10206629      -5.64590157
N       32.66138265       9.87750661       5.60097507      -0.00000000       0.00000000      -0.10206629      -6.54647390
Al      32.66138265       9.87750661       7.49853791      -0.00000000      -0.00000000       0.10206629      -5.64590157
N       32.66138265       8.08159631       8.10048771      -0.00000000       0.00000000      -0.10206629      -6.54647390
Al      32.66138265       8.08159631       9.99805055      -0.00000000      -0.00000000       0.10206629      -5.64590157
N       32.66138265       9.87750661      10.60000035      -0.00000000      -0.00000000      -0.10206629      -6.54647390
Al      32.66138265       9.87750661      12.49756319      -0.00000000      -0.00000000       0.10206629      -5.64590157
N       32.66138265       8.08159631      13.09951298      -0.00000000       0.00000000      -0.10206629      -6.54647390
Al      32.66138265       8.08159631      14.99707583      -0.00000000      -0.00000000       0.10206629      -5.64590157
N       32.66138265       9.87750661      15.59902562      -0.00000000      -0.00000000      -0.10206629      -6.54647390
Al      32.66138265       9.87750661      17.49658847      -0.00000000      -0.00000000       0.10206629      -5.64590157
N       32.66138265       8.08159631      18.09853826      -0.00000000       0.00000000      -0.10206629      -6.54647390
Al      32.66138265       8.08159631      19.99610111      -0.00000000       0.00000000       0.10206629      -5.64590157
N       32.66138265       9.87750661      20.59805090      -0.00000000       0.00000000      -0.10206629      -6.54647390
Al      32.66138265       9.87750661      22.49561374      -0.00000000      -0.00000000       0.10206629      -5.64590157
N       32.66138265       8.08159631      23.09756354      -0.00000000       0.00000000      -0.10206629      -6.54647390
Al      32.66138265       8.08159631      24.99512638      -0.00000000      -0.00000000       0.10206629      -5.64590157
N       32.66138265       9.87750661      25.59707618      -0.00000000      -0.00000000      -0.10206629      -6.54647390
Al      32.66138265       9.87750661      27.49463902      -0.00000000      -0.00000000       0.10206629      -5.64590157
N       32.66138265       8.08159631      28.09658881      -0.00000000      -0.00000000      -0.10206629      -6.54647390
Al      32.66138265       8.08159631      29.99415166      -0.00000000       0.00000000       0.10206629      -5.64590157
N       32.66138265       9.87750661      30.59610145      -0.00000000      -0.00000000      -0.10206629      -6.54647390
Al      32.66138265       9.87750661      32.49366430      -0.00000000       0.00000000       0.10206629      -5.64590157
N       32.66138265       8.08159631      33.09561409      -0.00000000       0.00000000      -0.10206629      -6.54647390
Al      32.66138265       8.08159631      34.99317694      -0.00000000       0.00000000       0.10206629      -5.64590157
N       32.66138265       9.87750661      35.59512673      -0.00000000      -0.00000000      -0.10206629      -6.54647390
Al      32.66138265       9.87750661      37.49268957      -0.00000000       0.00000000       0.10206629      -5.64590157
N       32.66138265       8.08159631      38.09463937      -0.00000000       0.00000000      -0.10206629      -6.54647390
Al      32.66138265       8.08159631      39.99220221      -0.00000000       0.00000000       0.10206629      -5.64590157
N       32.66138265       9.87750661      40.59415201      -0.00000000       0.00000000      -0.10206629      -6.54647390
Al      32.66138265       9.87750661      42.49171485      -0.00000000       0.00000000       0.10206629      -5.64590157
N       32.66138265       8.08159631      43.09366464      -0.00000000       0.00000000      -0.10206629      -6.54647390
Al      31.10607871      10.77546175       0.00000000       0.00000000      -0.00000000       0.10206629      -5.64590157
N       31.10607871      12.57137204       0.60194979      -0.00000000      -0.00000000      -0.10206629      -6.54647390
Al      31.10607871      12.57137204       2.49951264      -0.00000000      -0.00000000       0.10206629      -5.64590157
N       31.10607871      10.77546175       3.10146243       0.00000000       0.00000000      -0.10206629      -6.54647390
Al      31.10607871      10.77546175       4.99902528       0.00000000      -0.00000000       0.10206629      -5.64590157
N       31.10607871      12.57137204       5.60097507      -0.00000000      -0.00000000      -0.10206629      -6.54647390
Al      31.10607871      12.57137204       7.49853791      -0.00000000      -0.00000000       0.10206629      -5.64590157
N       31.10607871      10.77546175       8.10048771       0.00000000      -0.00000000      -0.10206629      -6.54647390
Al      31.10607871      10.77546175       9.99805055       0.00000000      -0.00000000       0.10206629      -5.64590157
N       31.10607871      12.57137204      10.60000035      -0.00000000      -0.00000000      -0.10206629      -6.54647390
Al      31.10607871      12.57137204      12.49756319      -0.00000000      -0.00000000       0.10206629      -5.64590157
N       31.10607871      10.77546175      13.09951298       0.00000000      -0.00000000      -0.10206629      -6.54647390
Al      31.10607871      10.77546175      14.99707583       0.00000000      -0.00000000       0.10206629      -5.64590157
N       31.10607871      12.57137204      15.59902562      -0.00000000      -0.00000000      -0.10206629      -6.54647390
Al      31.10607871      12.57137204      17.49658847      -0.00000000      -0.00000000       0.10206629      -5.64590157
N       31.10607871      10.77546175      18.09853826       0.00000000      -0.00000000      -0.10206629      -6.54647390
Al      31.10607871      10.77546175      19.99610111       0.00000000       0.00000000       0.10206629      -5.64590157
N       31.10607871      12.57137204      20.59805090      -0.00000000      -0.00000000      -0.10206629      -6.54647390
Al      31.10607871      12.57137204      22.49561374      -0.00000000      -0.00000000       0.10206629      -5.64590157
N       31.10607871      10.77546175      23.09756354       0.00000000      -0.00000000      -0.10206629      -6.54647390
Al      31.10607871      10.77546175      24.99512638       0.00000000      -0.00000000       0.10206629      -5.64590157
N       31.10607871      12.57137204      25.59707618      -0.00000000      -0.00000000      -0.10206629      -6.54647390
Al      31.10607871      12.57137204      27.49463902      -0.00000000      -0.00000000       0.10206629      -5.64590157
N       31.10607871      10.77546175      28.09658881       0.00000000      -0.00000000      -0.10206629      -6.54647390
Al      31.10607871      10.77546175      29.99415166       0.00000000      -0.00000000       0.10206629      -5.64590157
N       31.10607871      12.57137204      30.59610145      -0.00000000      -0.00000000      -0.10206629      -6.54647390
Al      31.10607871      12.57137204      32.49366430      -0.00000000      -0.00000000       0.10206629      -5.64590157
N       31.10607871      10.77546175      33.09561409       0.00000000      -0.00000000      -0.10206629      -6.54647390
Al      31.10607871      10.77546175      34.99317694       0.00000000      -0.00000000       0.10206629      -5.64590157
N       31.10607871      12.57137204      35.59512673      -0.00000000      -0.00000000      -0.10206629      -6.54647390
Al      31.10607871      12.57137204      37.49268957      -0.00000000      -0.00000000       0.10206629      -5.64590157
N       31.10607871      10.77546175      38.09463937       0.00000000      -0.00000000      -0.10206629      -6.54647390
Al      31.10607871      10.77546175      39.99220221       0.00000000      -0.00000000       0.10206629      -5.64590157
N       31.10607871      12.57137204      40.59415201      -0.00000000      -0.00000000      -0.10206629      -6.54647390
Al      31.10607871      12.57137204      42.49171485      -0.00000000      -0.00000000       0.10206629      -5.64590157
N       31.10607871      10.77546175      43.09366464       0.00000000      -0.00000000      -0.10206629      -6.54647390
Al      29.55077478      13.46932719       0.00000000       0.00000000       0.00000000       0.10206629      -5.64590157
N       29.55077478      15.26523748       0.60194979      -0.00000000      -0.00000000      -0.10206629      -6.54647390
Al      29.55077478      15.26523748       2.49951264      -0.00000000      -0.00000000       0.10206629      -5.64590157
N       29.55077478      13.46932719       3.10146243       0.00000000      -0.00000000      -0.10206629      -6.54647390
Al      29.55077478      13.46932719       4.99902528       0.00000000      -0.00000000       0.10206629      -5.64590157
N       29.55077478      15.26523748       5.60097507      -0.00000000      -0.00000000      -0.10206629      -6.54647390
Al      29.55077478      15.26523748       7.49853791      -0.00000000      -0.00000000       0.10206629      -5.64590157
N       29.55077478      13.46932719       8.10048771       0.00000000      -0.00000000      -0.10206629      -6.54647390
Al      29.55077478      13.46932719       9.99805055       0.00000000      -0.00000000       0.10206629      -5.64590157
N       29.55077478      15.26523748      10.60000035      -0.00000000      -0.00000000      -0.10206629      -6.54647390
Al      29.55077478      15.26523748      12.49756319      -0.00000000      -0.00000000       0.10206629      -5.64590157
N       29.55077478      13.46932719      13.09951298       0.00000000      -0.00000000      -0.10206629      -6.54647390
Al      29.55077478      13.46932719      14.99707583       0.00000000      -0.00000000       0.10206629      -5.64590157
N       29.55077478      15.26523748      15.59902562      -0.00000000      -0.00000000      -0.10206629      -6.54647390
Al      29.55077478      15.26523748      17.49658847      -0.00000000      -0.00000000       0.10206629      -5.64590157
N       29.55077478      13.46932719      18.09853826       0.00000000      -0.00000000      -0.10206629      -6.54647390
Al      29.55077478      13.46932719      19.99610111       0.00000000      -0.00000000       0.10206629      -5.64590157
N       29.55077478      15.26523748      20.59805090      -0.00000000      -0.00000000      -0.10206629      -6.54647390
Al      29.55077478      15.26523748      22.49561374      -0.00000000      -0.00000000       0.10206629      -5.64590157
N       29.55077478      13.46932719      23.09756354       0.00000000      -0.00000000      -0.10206629      -6.54647390
Al      29.55077478      13.46932719      24.99512638       0.00000000      -0.00000000       0.10206629      -5.64590157
N       29.55077478      15.26523748      25.59707618      -0.00000000      -0.00000000      -0.10206629      -6.54647390
Al      29.55077478      15.26523748      27.49463902      -0.00000000      -0.00000000       0.10206629      -5.64590157
N       29.55077478      13.46932719      28.09658881       0.00000000      -0.00000000      -0.10206629      -6.54647390
Al      29.55077478      13.46932719      29.99415166       0.00000000       0.00000000       0.10206629      -5.64590157
N       29.55077478      15.26523748      30.59610145      -0.00000000      -0.00000000      -0.10206629      -6.54647390
Al      29.55077478      15.26523748      32.49366430      -0.00000000      -0.00000000       0.10206629      -5.64590157
N       29.55077478      13.46932719      33.09561409       0.00000000      -0.00000000      -0.10206629      -6.54647390
Al      29.55077478      13.46932719      34.99317694       0.00000000      -0.00000000       0.10206629      -5.64590157
N       29.55077478      15.26523748      35.59512673      -0.00000000      -0.00000000      -0.10206629      -6.54647390
Al      29.55077478      15.26523748      37.49268957      -0.00000000      -0.00000000       0.10206629      -5.64590157
N       29.55077478      13.46932719      38.09463937       0.00000000      -0.00000000      -0.10206629      -6.54647390
Al      29.55077478      13.46932719      39.99220221       0.00000000      -0.00000000       0.10206629      -5.64590157
N       29.55077478      15.26523748      40.59415201      -0.00000000      -0.00000000      -0.10206629      -6.54647390
Al      29.55077478      15.26523748      42.49171485      -0.00000000      -0.00000000       0.10206629      -5.64590157
N       29.55077478      13.46932719      43.09366464       0.00000000      -0.00000000      -0.10206629      -6.54647390
Al      27.99547084      16.16319263       0.00000000       0.00000000       0.00000000       0.10206629      -5.64590157
N       27.99547084      17.95910292       0.60194979      -0.00000000      -0.00000000      -0.10206629      -6.54647390
Al      27.99547084      17.95910292       2.49951264      -0.00000000      -0.00000000       0.10206629      -5.64590157
N       27.99547084      16.16319263       3.10146243       0.00000000       0.00000000      -0.10206629      -6.54647390
Al      27.99547084      16.16319263       4.99902528       0.00000000       0.00000000       0.10206629      -5.64590157
N       27.99547084      17.95910292       5.60097507      -0.00000000      -0.00000000      -0.10206629      -6.54647390
Al      27.99547084      17.95910292       7.49853791      -0.00000000      -0.00000000       0.10206629      -5.64590157
N       27.99547084      16.16319263       8.10048771       0.00000000       0.00000000      -0.10206629      -6.54647390
Al      27.99547084      16.16319263       9.99805055       0.00000000       0.00000000       0.10206629      -5.64590157
N       27.99547084      17.95910292      10.60000035      -0.00000000      -0.00000000      -0.10206629      -6.54647390
Al      27.99547084      17.95910292      12.49756319      -0.00000000      -0.00000000       0.10206629      -5.64590157
N       27.99547084      16.16319263      13.09951298       0.00000000       0.00000000      -0.10206629      -6.54647390
Al      27.99547084      16.16319263      14.99707583       0.00000000       0.00000000       0.10206629      -5.64590157
N       27.99547084      17.95910292      15.59902562      -0.00000000      -0.00000000      -0.10206629      -6.54647390
Al      27.99547084      17.95910292      17.49658847      -0.00000000      -0.00000000       0.10206629      -5.64590157
N       27.99547084      16.16319263      18.09853826       0.00000000       0.00000000      -0.10206629      -6.54647390
Al      27.99547084      16.16319263      19.99610111       0.00000000       0.00000000       0.10206629      -5.64590157
N       27.99547084      17.95910292      20.59805090      -0.00000000      -0.00000000      -0.10206629      -6.54647390
Al      27.99547084      17.95910292      22.49561374      -0.00000000      -0.00000000       0.10206629      -5.64590157
N       27.99547084      16.16319263      23.09756354       0.00000000       0.00000000      -0.10206629      -6.54647390
Al      27.99547084      16.16319263      24.99512638       0.00000000       0.00000000       0.10206629      -5.64590157
N       27.99547084      17.95910292      25.59707618      -0.00000000      -0.00000000      -0.10206629      -6.54647390
Al      27.99547084      17.95910292      27.49463902      -0.00000000      -0.00000000       0.10206629      -5.64590157
N       27.99547084      16.16319263      28.09658881       0.00000000       0.00000000      -0.10206629      -6.54647390
Al      27.99547084      16.16319263      29.99415166       0.00000000       0.00000000       0.10206629      -5.64590157
N       27.99547084      17.95910292      30.59610145      -0.00000000      -0.00000000      -0.10206629      -6.54647390
Al      27.99547084      17.95910292      32.49366430      -0.00000000      -0.00000000       0.10206629      -5.64590157
N       27.99547084      16.16319263      33.09561409       0.00000000       0.00000000      -0.10206629      -6.54647390
Al      27.99547084      16.16319263      34.99317694       0.00000000       0.00000000       0.10206629      -5.64590157
N       27.99547084      17.95910292      35.59512673      -0.00000000      -0.00000000      -0.10206629      -6.54647390
Al      27.99547084      17.95910292      37.49268957      -0.00000000      -0.00000000       0.10206629      -5.64590157
N       27.99547084      16.16319263      38.09463937       0.00000000       0.00000000      -0.10206629      -6.54647390
Al      27.99547084      16.16319263      39.99220221       0.00000000       0.00000000       0.10206629      -5.64590157
N       27.99547084      17.95910292      40.59415201      -0.00000000      -0.00000000      -0.10206629      -6.54647390
Al      27.99547084      17.95910292      42.49171485      -0.00000000      -0.00000000       0.10206629      -5.64590157
N       27.99547084      16.16319263      43.09366464       0.00000000       0.00000000      -0.10206629      -6.54647390
Al      26.44016691      18.85705806       0.00000000       0.00000000      -0.00000000       0.10206629      -5.64590157
N       26.44016691      20.65296836       0.60194979       0.00000000       0.00000000      -0.10206629      -6.54647390
Al      26.44016691      20.65296836       2.49951264       0.00000000       0.00000000       0.10206629      -5.64590157
N       26.44016691      18.85705806       3.10146243       0.00000000      -0.00000000      -0.10206629      -6.54647390
Al      26.44016691      18.85705806       4.99902528       0.00000000      -0.00000000       0.10206629      -5.64590157
N       26.44016691      20.65296836       5.60097507       0.00000000      -0.00000000      -0.10206629      -6.54647390
Al      26.44016691      20.65296836       7.49853791       0.00000000      -0.00000000       0.10206629      -5.64590157
N       26.44016691      18.85705806       8.10048771       0.00000000      -0.00000000      -0.10206629      -6.54647390
Al      26.44016691      18.85705806       9.99805055       0.00000000      -0.00000000       0.10206629      -5.64590157
N       26.44016691      20.65296836      10.60000035       0.00000000      -0.00000000      -0.10206629      -6.54647390
Al      26.44016691      20.65296836      12.49756319       0.00000000       0.00000000       0.10206629      -5.64590157
N       26.44016691      18.85705806      13.09951298       0.00000000      -0.00000000      -0.10206629      -6.54647390
Al      26.44016691      18.85705806      14.99707583       0.00000000      -0.00000000       0.10206629      -5.64590157
N       26.44016691      20.65296836      15.59902562       0.00000000       0.00000000      -0.10206629      -6.54647390
Al      26.44016691      20.65296836      17.49658847       0.00000000      -0.00000000       0.10206629      -5.64590157
N       26.44016691      18.85705806      18.09853826       0.00000000      -0.00000000      -0.10206629      -6.54647390
Al      26.44016691      18.85705806      19.99610111       0.00000000      -0.00000000       0.10206629      -5.64590157
N       26.44016691      20.65296836      20.59805090       0.00000000       0.00000000      -0.10206629      -6.54647390
Al      26.44016691      20.65296836      22.49561374       0.00000000       0.00000000       0.10206629      -5.64590157
N       26.44016691      18.85705806      23.09756354       0.00000000      -0.00000000      -0.10206629      -6.54647390
Al      26.44016691      18.85705806      24.99512638       0.00000000      -0.00000000       0.10206629      -5.64590157
N       26.44016691      20.65296836      25.59707618       0.00000000       0.00000000      -0.10206629      -6.54647390
Al      26.44016691      20.65296836      27.49463902       0.00000000       0.00000000       0.10206629      -5.64590157
N       26.44016691      18.85705806      28.09658881       0.00000000      -0.00000000      -0.10206629      -6.54647390
Al      26.44016691      18.85705806      29.99415166       0.00000000      -0.00000000       0.10206629      -5.64590157
N       26.44016691      20.65296836      30.59610145       0.00000000       0.00000000      -0.10206629      -6.54647390
Al      26.44016691      20.65296836      32.49366430       0.00000000      -0.00000000       0.10206629      -5.64590157
N       26.44016691      18.85705806      33.09561409       0.00000000      -0.00000000      -0.10206629      -6.54647390
Al      26.44016691      18.85705806      34.99317694       0.00000000      -0.00000000       0.10206629      -5.64590157
N       26.44016691      20.65296836      35.59512673       0.00000000       0.00000000      -0.10206629      -6.54647390
Al      26.44016691      20.65296836      37.49268957       0.00000000       0.00000000       0.10206629      -5.64590157
N       26.44016691      18.85705806      38.09463937       0.00000000      -0.00000000      -0.10206629      -6.54647390
Al      26.44016691      18.85705806      39.99220221       0.00000000      -0.00000000       0.10206629      -5.64590157
N       26.44016691      20.65296836      40.59415201       0.00000000       0.00000000      -0.10206629      -6.54647390
Al      26.44016691      20.65296836      42.49171485       0.00000000       0.00000000       0.10206629      -5.64590157
N       26.44016691      18.85705806      43.09366464       0.00000000      -0.00000000      -0.10206629      -6.54647390
Al      24.88486297      21.55092350       0.00000000      -0.00000000       0.00000000       0.10206629      -5.64590157
N       24.88486297      23.34683379       0.60194979      -0.00000000       0.00000000      -0.10206629      -6.54647390
Al      24.88486297      23.34683379       2.49951264      -0.00000000       0.00000000       0.10206629      -5.64590157
N       24.88486297      21.55092350       3.10146243      -0.00000000       0.00000000      -0.10206629      -6.54647390
Al      24.88486297      21.55092350       4.99902528      -0.00000000       0.00000000       0.10206629      -5.64590157
N       24.88486297      23.34683379       5.60097507      -0.00000000       0.00000000      -0.10206629      -6.54647390
Al      24.88486297      23.34683379       7.49853791      -0.00000000       0.00000000       0.10206629      -5.64590157
N       24.88486297      21.55092350       8.10048771      -0.00000000      -0.00000000      -0.10206629      -6.54647390
Al      24.88486297      21.55092350       9.99805055      -0.00000000       0.00000000       0.10206629      -5.64590157
N       24.88486297      23.34683379      10.60000035      -0.00000000       0.00000000      -0.10206629      -6.54647390
Al      24.88486297      23.34683379      12.49756319      -0.00000000       0.00000000       0.10206629      -5.64590157
N       24.88486297      21.55092350      13.09951298      -0.00000000       0.00000000      -0.10206629      -6.54647390
Al      24.88486297      21.55092350      14.99707583      -0.00000000       0.00000000       0.10206629      -5.64590157
N       24.88486297      23.34683379      15.59902562      -0.00000000       0.00000000      -0.10206629      -6.54647390
Al      24.88486297      23.34683379      17.49658847      -0.00000000       0.00000000       0.10206629      -5.64590157
N       24.88486297      21.55092350      18.09853826      -0.00000000      -0.00000000      -0.10206629      -6.54647390
Al      24.88486297      21.55092350      19.99610111      -0.00000000       0.00000000       0.10206629      -5.64590157
N       24.88486297      23.34683379      20.59805090      -0.00000000       0.00000000      -0.10206629      -6.54647390
Al      24.88486297      23.34683379      22.49561374      -0.00000000       0.00000000       0.10206629      -5.64590157
N       24.88486297      21.55092350      23.09756354      -0.00000000       0.00000000      -0.10206629      -6.54647390
Al      24.88486297      21.55092350      24.99512638      -0.00000000       0.00000000       0.10206629      -5.64590157
N       24.88486297      23.34683379      25.59707618      -0.00000000       0.00000000      -0.10206629      -6.54647390
Al      24.88486297      23.34683379      27.49463902      -0.00000000       0.00000000       0.10206629      -5.64590157
N       24.88486297      21.55092350      28.09658881      -0.00000000       0.00000000      -0.10206629      -6.54647390
Al      24.88486297      21.55092350      29.99415166      -0.00000000       0.00000000       0.10206629      -5.64590157
N       24.88486297      23.34683379      30.59610145      -0.00000000       0.00000000      -0.10206629      -6.54647390
Al      24.88486297      23.34683379      32.49366430      -0.00000000       0.00000000       0.10206629      -5.64590157
N       24.88486297      21.55092350      33.09561409      -0.00000000       0.00000000      -0.10206629      -6.54647390
Al      24.88486297      21.55092350      34.99317694      -0.00000000       0.00000000       0.10206629      -5.64590157
N       24.88486297      23.34683379      35.59512673      -0.00000000       0.00000000      -0.10206629      -6.54647390
Al      24.88486297      23.34683379      37.49268957      -0.00000000       0.00000000       0.10206629      -5.64590157
N       24.88486297      21.55092350      38.09463937      -0.00000000       0.00000000      -0.10206629      -6.54647390
Al      24.88486297      21.55092350      39.99220221      -0.00000000       0.00000000       0.10206629      -5.64590157
N       24.88486297      23.34683379      40.59415201      -0.00000000       0.00000000      -0.10206629      -6.54647390
Al      24.88486297      23.34683379      42.49171485      -0.00000000       0.00000000       0.10206629      -5.64590157
N       24.88486297      21.55092350      43.09366464      -0.00000000       0.00000000      -0.10206629      -6.54647390
Al      23.32955904      24.24478894       0.00000000       0.00000000      -0.00000000       0.10206629      -5.64590157
N       23.32955904      26.04069923       0.60194979      -0.00000000      -0.00000000      -0.10206629      -6.54647390
Al      23.32955904      26.04069923       2.49951264      -0.00000000      -0.00000000       0.10206629      -5.64590157
N       23.32955904      24.24478894       3.10146243       0.00000000      -0.00000000      -0.10206629      -6.54647390
Al      23.32955904      24.24478894       4.99902528       0.00000000      -0.00000000       0.10206629      -5.64590157
N       23.32955904      26.04069923       5.60097507      -0.00000000      -0.00000000      -0.10206629      -6.54647390
Al      23.32955904      26.04069923       7.49853791      -0.00000000      -0.00000000       0.10206629      -5.64590157
N       23.32955904      24.24478894       8.10048771       0.00000000      -0.00000000      -0.10206629      -6.54647390
Al      23.32955904      24.24478894       9.99805055       0.00000000      -0.00000000       0.10206629      -5.64590157
N       23.32955904      26.04069923      10.60000035      -0.00000000      -0.00000000      -0.10206629      -6.54647390
Al      23.32955904      26.04069923      12.49756319      -0.00000000      -0.00000000       0.10206629      -5.64590157
N       23.32955904      24.24478894      13.09951298       0.00000000      -0.00000000      -0.10206629      -6.54647390
Al      23.32955904      24.24478894      14.99707583       0.00000000      -0.00000000       0.10206629      -5.64590157
N       23.32955904      26.04069923      15.59902562      -0.00000000      -0.00000000      -0.10206629      -6.54647390
Al      23.32955904      26.04069923      17.49658847      -0.00000000      -0.00000000       0.10206629      -5.64590157
N       23.32955904      24.24478894      18.09853826       0.00000000      -0.00000000      -0.10206629      -6.54647390
Al      23.32955904      24.24478894      19.99610111       0.00000000      -0.00000000       0.10206629      -5.64590157
N       23.32955904      26.04069923      20.59805090      -0.00000000      -0.00000000      -0.10206629      -6.54647390
Al      23.32955904      26.04069923      22.49561374      -0.00000000      -0.00000000       0.10206629      -5.64590157
N       23.32955904      24.24478894      23.09756354       0.00000000      -0.00000000      -0.10206629      -6.54647390
Al      23.32955904      24.24478894      24.99512638       0.00000000      -0.00000000       0.10206629      -5.64590157
N       23.32955904      26.04069923      25.59707618      -0.00000000      -0.00000000      -0.10206629      -6.54647390
Al      23.32955904      26.04069923      27.49463902      -0.00000000      -0.00000000       0.10206629      -5.64590157
N       23.32955904      24.24478894      28.09658881       0.00000000      -0.00000000      -0.10206629      -6.54647390
Al      23.32955904      24.24478894      29.99415166       0.00000000      -0.00000000       0.10206629      -5.64590157
N       23.32955904      26.04069923      30.59610145      -0.00000000      -0.00000000      -0.10206629      -6.54647390
Al      23.32955904      26.04069923      32.49366430      -0.00000000      -0.00000000       0.10206629      -5.64590157
N       23.32955904      24.24478894      33.09561409       0.00000000      -0.00000000      -0.10206629      -6.54647390
Al      23.32955904      24.24478894      34.99317694       0.00000000      -0.00000000       0.10206629      -5.64590157
N       23.32955904      26.04069923      35.59512673      -0.00000000      -0.00000000      -0.10206629      -6.54647390
Al      23.32955904      26.04069923      37.49268957      -0.00000000      -0.00000000       0.10206629      -5.64590157
N       23.32955904      24.24478894      38.09463937       0.00000000      -0.00000000      -0.10206629      -6.54647390
Al      23.32955904      24.24478894      39.99220221       0.00000000      -0.00000000       0.10206629      -5.64590157
N       23.32955904      26.04069923      40.59415201      -0.00000000      -0.00000000      -0.10206629      -6.54647390
Al      23.32955904      26.04069923      42.49171485      -0.00000000      -0.00000000       0.10206629      -5.64590157
N       23.32955904      24.24478894      43.09366464       0.00000000      -0.00000000      -0.10206629      -6.54647390
Al      21.77425510      26.93865438       0.00000000       0.00000000      -0.00000000       0.10206629      -5.64590157
N       21.77425510      28.73456467       0.60194979      -0.00000000       0.00000000      -0.10206629      -6.54647390
Al      21.77425510      28.73456467       2.49951264      -0.00000000       0.00000000       0.10206629      -5.64590157
N       21.77425510      26.93865438       3.10146243       0.00000000      -0.00000000      -0.10206629      -6.54647390
Al      21.77425510      26.93865438       4.99902528       0.00000000      -0.00000000       0.10206629      -5.64590157
N       21.77425510      28.73456467       5.60097507      -0.00000000       0.00000000      -0.10206629      -6.54647390
Al      21.77425510      28.73456467       7.49853791      -0.00000000       0.00000000       0.10206629      -5.64590157
N       21.77425510      26.93865438       8.10048771       0.00000000      -0.00000000      -0.10206629      -6.54647390
Al      21.77425510      26.93865438       9.99805055       0.00000000      -0.00000000       0.10206629      -5.64590157
N       21.77425510      28.73456467      10.60000035      -0.00000000       0.00000000      -0.10206629      -6.54647390
Al      21.77425510      28.73456467      12.49756319      -0.00000000       0.00000000       0.10206629      -5.64590157
N       21.77425510      26.93865438      13.09951298       0.00000000      -0.00000000      -0.10206629      -6.54647390
Al      21.77425510      26.93865438      14.99707583       0.00000000      -0.00000000       0.10206629      -5.64590157
N       21.77425510      28.73456467      15.59902562      -0.00000000       0.00000000      -0.10206629      -6.54647390
Al      21.77425510      28.73456467      17.49658847      -0.00000000       0.00000000       0.10206629      -5.64590157
N       21.77425510      26.93865438      18.09853826       0.00000000      -0.00000000      -0.10206629      -6.54647390
Al      21.77425510      26.93865438      19.99610111       0.00000000      -0.00000000       0.10206629      -5.64590157
N       21.77425510      28.73456467      20.59805090      -0.00000000       0.00000000      -0.10206629      -6.54647390
Al      21.77425510      28.73456467      22.49561374      -0.00000000       0.00000000       0.10206629      -5.64590157
N       21.77425510      26.93865438      23.09756354       0.00000000      -0.00000000      -0.10206629      -6.54647390
Al      21.77425510      26.93865438      24.99512638       0.00000000      -0.00000000       0.10206629      -5.64590157
N       21.77425510      28.73456467      25.59707618      -0.00000000       0.00000000      -0.10206629      -6.54647390
Al      21.77425510      28.73456467      27.49463902      -0.00000000       0.00000000       0.10206629      -5.64590157
N       21.77425510      26.93865438      28.09658881       0.00000000      -0.00000000      -0.10206629      -6.54647390
Al      21.77425510      26.93865438      29.99415166       0.00000000      -0.00000000       0.10206629      -5.64590157
N       21.77425510      28.73456467      30.59610145      -0.00000000       0.00000000      -0.10206629      -6.54647390
Al      21.77425510      28.73456467      32.49366430      -0.00000000       0.00000000       0.10206629      -5.64590157
N       21.77425510      26.93865438      33.09561409       0.00000000      -0.00000000      -0.10206629      -6.54647390
Al      21.77425510      26.93865438      34.99317694       0.00000000      -0.00000000       0.10206629      -5.64590157
N       21.77425510      28.73456467      35.59512673      -0.00000000       0.00000000      -0.10206629      -6.54647390
Al      21.77425510      28.73456467      37.49268957      -0.00000000       0.00000000       0.10206629      -5.64590157
N       21.77425510      26.93865438      38.09463937       0.00000000      -0.00000000      -0.10206629      -6.54647390
Al      21.77425510      26.93865438      39.99220221       0.00000000      -0.00000000       0.10206629      -5.64590157
N       21.77425510      28.73456467      40.59415201      -0.00000000       0.00000000      -0.10206629      -6.54647390
Al      21.77425510      28.73456467      42.49171485      -0.00000000       0.00000000       0.10206629      -5.64590157
N       21.77425510      26.93865438      43.09366464       0.00000000      -0.00000000      -0.10206629      -6.54647390
Al      20.21895116      29.63251982       0.00000000       0.00000000       0.00000000       0.10206629      -5.64590157
N       20.21895116      31.42843011       0.60194979      -0.00000000      -0.00000000      -0.10206629      -6.54647390
Al      20.21895116      31.42843011       2.49951264      -0.00000000      -0.00000000       0.10206629      -5.64590157
N       20.21895116      29.63251982       3.10146243       0.00000000      -0.00000000      -0.10206629      -6.54647390
Al      20.21895116      29.63251982       4.99902528      -0.00000000       0.00000000       0.10206629      -5.64590157
N       20.21895116      31.42843011       5.60097507      -0.00000000      -0.00000000      -0.10206629      -6.54647390
Al      20.21895116      31.42843011       7.49853791      -0.00000000      -0.00000000       0.10206629      -5.64590157
N       20.21895116      29.63251982       8.10048771       0.00000000       0.00000000      -0.10206629      -6.54647390
Al      20.21895116      29.63251982       9.99805055      -0.00000000       0.00000000       0.10206629      -5.64590157
N       20.21895116      31.42843011      10.60000035      -0.00000000      -0.00000000      -0.10206629      -6.54647390
Al      20.21895116      31.42843011      12.49756319      -0.00000000      -0.00000000       0.10206629      -5.64590157
N       20.21895116      29.63251982      13.09951298       0.00000000       0.00000000      -0.10206629      -6.54647390
Al      20.21895116      29.63251982      14.99707583      -0.00000000       0.00000000       0.10206629      -5.64590157
N       20.21895116      31.42843011      15.59902562      -0.00000000      -0.00000000      -0.10206629      -6.54647390
Al      20.21895116      31.42843011      17.49658847      -0.00000000      -0.00000000       0.10206629      -5.64590157
N       20.21895116      29.63251982      18.09853826       0.00000000       0.00000000      -0.10206629      -6.54647390
Al      20.21895116      29.63251982      19.99610111      -0.00000000       0.00000000       0.10206629      -5.64590157
N       20.21895116      31.42843011      20.59805090      -0.00000000      -0.00000000      -0.10206629      -6.54647390
Al      20.21895116      31.42843011      22.49561374      -0.00000000      -0.00000000       0.10206629      -5.64590157
N       20.21895116      29.63251982      23.09756354       0.00000000       0.00000000      -0.10206629      -6.54647390
Al      20.21895116      29.63251982      24.99512638       0.00000000       0.00000000       0.10206629      -5.64590157
N       20.21895116      31.42843011      25.59707618      -0.00000000      -0.00000000      -0.10206629      -6.54647390
Al      20.21895116      31.42843011      27.49463902      -0.00000000      -0.00000000       0.10206629      -5.64590157
N       20.21895116      29.63251982      28.09658881       0.00000000      -0.00000000      -0.10206629      -6.54647390
Al      20.21895116      29.63251982      29.99415166      -0.00000000       0.00000000       0.10206629      -5.64590157
N       20.21895116      31.42843011      30.59610145      -0.00000000      -0.00000000      -0.10206629      -6.54647390
Al      20.21895116      31.42843011      32.49366430      -0.00000000      -0.00000000       0.10206629      -5.64590157
N       20.21895116      29.63251982      33.09561409       0.00000000       0.00000000      -0.10206629      -6.54647390
Al      20.21895116      29.63251982      34.99317694      -0.00000000       0.00000000       0.10206629      -5.64590157
N       20.21895116      31.42843011      35.59512673      -0.00000000      -0.00000000      -0.10206629      -6.54647390
Al      20.21895116      31.42843011      37.49268957      -0.00000000      -0.00000000       0.10206629      -5.64590157
N       20.21895116      29.63251982      38.09463937       0.00000000       0.00000000      -0.10206629      -6.54647390
Al      20.21895116      29.63251982      39.99220221       0.00000000       0.00000000       0.10206629      -5.64590157
N       20.21895116      31.42843011      40.59415201      -0.00000000      -0.00000000      -0.10206629      -6.54647390
Al      20.21895116      31.42843011      42.49171485      -0.00000000      -0.00000000       0.10206629      -5.64590157
N       20.21895116      29.63251982      43.09366464      -0.00000000       0.00000000      -0.10206629      -6.54647390
Al      18.66364723      32.32638525      -0.00000000      -0.00000000       0.00000000       0.10206629      -5.64590157
N       18.66364723      34.12229555       0.60194979       0.00000000      -0.00000000      -0.10206629      -6.54647390
Al      18.66364723      34.12229555       2.49951264      -0.00000000      -0.00000000       0.10206629      -5.64590157
N       18.66364723      32.32638525       3.10146243      -0.00000000       0.00000000      -0.10206629      -6.54647390
Al      18.66364723      32.32638525       4.99902528      -0.00000000       0.00000000       0.10206629      -5.64590157
N       18.66364723      34.12229555       5.60097507       0.00000000      -0.00000000      -0.10206629      -6.54647390
Al      18.66364723      34.12229555       7.49853791      -0.00000000      -0.00000000       0.10206629      -5.64590157
N       18.66364723      32.32638525       8.10048771      -0.00000000       0.00000000      -0.10206629      -6.54647390
Al      18.66364723      32.32638525       9.99805055      -0.00000000       0.00000000       0.10206629      -5.64590157
N       18.66364723      34.12229555      10.60000035       0.00000000      -0.00000000      -0.10206629      -6.54647390
Al      18.66364723      34.12229555      12.49756319       0.00000000      -0.00000000       0.10206629      -5.64590157
N       18.66364723      32.32638525      13.09951298      -0.00000000       0.00000000      -0.10206629      -6.54647390
Al      18.66364723      32.32638525      14.99707583      -0.00000000       0.00000000       0.10206629      -5.64590157
N       18.66364723      34.12229555      15.59902562      -0.00000000      -0.00000000      -0.10206629      -6.54647390
Al      18.66364723      34.12229555      17.49658847       0.00000000      -0.00000000       0.10206629      -5.64590157
N       18.66364723      32.32638525      18.09853826      -0.00000000       0.00000000      -0.10206629      -6.54647390
Al      18.66364723      32.32638525      19.99610111      -0.00000000       0.00000000       0.10206629      -5.64590157
N       18.66364723      34.12229555      20.59805090       0.00000000      -0.00000000      -0.10206629      -6.54647390
Al      18.66364723      34.12229555      22.49561374      -0.00000000      -0.00000000       0.10206629      -5.64590157
N       18.66364723      32.32638525      23.09756354      -0.00000000       0.00000000      -0.10206629      -6.54647390
Al      18.66364723      32.32638525      24.99512638       0.00000000       0.00000000       0.10206629      -5.64590157
N       18.66364723      34.12229555      25.59707618      -0.00000000      -0.00000000      -0.10206629      -6.54647390
Al      18.66364723      34.12229555      27.49463902      -0.00000000      -0.00000000       0.10206629      -5.64590157
N       18.66364723      32.32638525      28.09658881      -0.00000000       0.00000000      -0.10206629      -6.54647390
Al      18.66364723      32.32638525      29.99415166      -0.00000000       0.00000000       0.10206629      -5.64590157
N       18.66364723      34.12229555      30.59610145       0.00000000      -0.00000000      -0.10206629      -6.54647390
Al      18.66364723      34.12229555      32.49366430       0.00000000      -0.00000000       0.10206629      -5.64590157
N       18.66364723      32.32638525      33.09561409      -0.00000000       0.00000000      -0.10206629      -6.54647390
Al      18.66364723      32.32638525      34.99317694      -0.00000000       0.00000000       0.10206629      -5.64590157
N       18.66364723      34.12229555      35.59512673       0.00000000      -0.00000000      -0.10206629      -6.54647390
Al      18.66364723      34.12229555      37.49268957       0.00000000      -0.00000000       0.10206629      -5.64590157
N       18.66364723      32.32638525      38.09463937      -0.00000000       0.00000000      -0.10206629      -6.54647390
Al      18.66364723      32.32638525      39.99220221      -0.00000000       0.00000000       0.10206629      -5.64590157
N       18.66364723      34.12229555      40.59415201       0.00000000      -0.00000000      -0.10206629      -6.54647390
Al      18.66364723      34.12229555      42.49171485       0.00000000      -0.00000000       0.10206629      -5.64590157
N       18.66364723      32.32638525      43.09366464       0.00000000       0.00000000      -0.10206629      -6.54647390
Al      17.10834329      35.02025069      -0.00000000      -0.00000000      -0.00000000       0.10206629      -5.64590157
N       17.10834329      36.81616098       0.60194979      -0.00000000      -0.00000000      -0.10206629      -6.54647390
Al      17.10834329      36.81616098       2.49951264      -0.00000000      -0.00000000       0.10206629      -5.64590157
N       17.10834329      35.02025069       3.10146243      -0.00000000       0.00000000      -0.10206629      -6.54647390
Al      17.10834329      35.02025069       4.99902528      -0.00000000       0.00000000       0.10206629      -5.64590157
N       17.10834329      36.81616098       5.60097507      -0.00000000      -0.00000000      -0.10206629      -6.54647390
Al      17.10834329      36.81616098       7.49853791      -0.00000000      -0.00000000       0.10206629      -5.64590157
N       17.10834329      35.02025069       8.10048771      -0.00000000       0.00000000      -0.10206629      -6.54647390
Al      17.10834329      35.02025069       9.99805055      -0.00000000       0.00000000       0.10206629      -5.64590157
N       17.10834329      36.81616098      10.60000035      -0.00000000      -0.00000000      -0.10206629      -6.54647390
Al      17.10834329      36.81616098      12.49756319      -0.00000000      -0.00000000       0.10206629      -5.64590157
N       17.10834329      35.02025069      13.09951298      -0.00000000      -0.00000000      -0.10206629      -6.54647390
Al      17.10834329      35.02025069      14.99707583      -0.00000000       0.00000000       0.10206629      -5.64590157
N       17.10834329      36.81616098      15.59902562      -0.00000000      -0.00000000      -0.10206629      -6.54647390
Al      17.10834329      36.81616098      17.49658847      -0.00000000      -0.00000000       0.10206629      -5.64590157
N       17.10834329      35.02025069      18.09853826      -0.00000000      -0.00000000      -0.10206629      -6.54647390
Al      17.10834329      35.02025069      19.99610111      -0.00000000       0.00000000       0.10206629      -5.64590157
N       17.10834329      36.81616098      20.59805090      -0.00000000      -0.00000000      -0.10206629      -6.54647390
Al      17.10834329      36.81616098      22.49561374      -0.00000000      -0.00000000       0.10206629      -5.64590157
N       17.10834329      35.02025069      23.09756354      -0.00000000       0.00000000      -0.10206629      -6.54647390
Al      17.10834329      35.02025069      24.99512638      -0.00000000       0.00000000       0.10206629      -5.64590157
N       17.10834329      36.81616098      25.59707618      -0.00000000      -0.00000000      -0.10206629      -6.54647390
Al      17.10834329      36.81616098      27.49463902      -0.00000000      -0.00000000       0.10206629      -5.64590157
N       17.10834329      35.02025069      28.09658881      -0.00000000       0.00000000      -0.10206629      -6.54647390
Al      17.10834329      35.02025069      29.99415166      -0.00000000      -0.00000000       0.10206629      -5.64590157
N       17.10834329      36.81616098      30.59610145      -0.00000000      -0.00000000      -0.10206629      -6.54647390
Al      17.10834329      36.81616098      32.49366430      -0.00000000      -0.00000000       0.10206629      -5.64590157
N       17.10834329      35.02025069      33.09561409      -0.00000000       0.00000000      -0.10206629      -6.54647390
Al      17.10834329      35.02025069      34.99317694      -0.00000000      -0.00000000       0.10206629      -5.64590157
N       17.10834329      36.81616098      35.59512673      -0.00000000      -0.00000000      -0.10206629      -6.54647390
Al      17.10834329      36.81616098      37.49268957      -0.00000000      -0.00000000       0.10206629      -5.64590157
N       17.10834329      35.02025069      38.09463937      -0.00000000       0.00000000      -0.10206629      -6.54647390
Al      17.10834329      35.02025069      39.99220221      -0.00000000       0.00000000       0.10206629      -5.64590157
N       17.10834329      36.81616098      40.59415201      -0.00000000      -0.00000000      -0.10206629      -6.54647390
Al      17.10834329      36.81616098      42.49171485      -0.00000000      -0.00000000       0.10206629      -5.64590157
N       17.10834329      35.02025069      43.09366464      -0.00000000       0.00000000      -0.10206629      -6.54647390
Al      15.55303936      37.71411613      -0.00000000      -0.00000000      -0.00000000       0.10206629      -5.64590157
N       15.55303936      39.51002642       0.60194979       0.00000000       0.00000000      -0.10206629      -6.54647390
Al      15.55303936      39.51002642       2.49951264       0.00000000       0.00000000       0.10206629      -5.64590157
N       15.55303936      37.71411613       3.10146243      -0.00000000      -0.00000000      -0.10206629      -6.54647390
Al      15.55303936      37.71411613       4.99902528      -0.00000000      -0.00000000       0.10206629      -5.64590157
N       15.55303936      39.51002642       5.60097507       0.00000000       0.00000000      -0.10206629      -6.54647390
Al      15.55303936      39.51002642       7.49853791       0.00000000       0.00000000       0.10206629      -5.64590157
N       15.55303936      37.71411613       8.10048771       0.00000000      -0.00000000      -0.10206629      -6.54647390
Al      15.55303936      37.71411613       9.99805055      -0.00000000      -0.00000000       0.10206629      -5.64590157
N       15.55303936      39.51002642      10.60000035       0.00000000       0.00000000      -0.10206629      -6.54647390
Al      15.55303936      39.51002642      12.49756319       0.00000000       0.00000000       0.10206629      -5.64590157
N       15.55303936      37.71411613      13.09951298       0.00000000      -0.00000000      -0.10206629      -6.54647390
Al      15.55303936      37.71411613      14.99707583      -0.00000000      -0.00000000       0.10206629      -5.64590157
N       15.55303936      39.51002642      15.59902562       0.00000000       0.00000000      -0.10206629      -6.54647390
Al      15.55303936      39.51002642      17.49658847       0.00000000       0.00000000       0.10206629      -5.64590157
N       15.55303936      37.71411613      18.09853826       0.00000000      -0.00000000      -0.10206629      -6.54647390
Al      15.55303936      37.71411613      19.99610111      -0.00000000      -0.00000000       0.10206629      -5.64590157
N       15.55303936      39.51002642      20.59805090       0.00000000       0.00000000      -0.10206629      -6.54647390
Al      15.55303936      39.51002642      22.49561374       0.00000000       0.00000000       0.10206629      -5.64590157
N       15.55303936      37.71411613      23.09756354      -0.00000000      -0.00000000      -0.10206629      -6.54647390
Al      15.55303936      37.71411613      24.99512638      -0.00000000      -0.00000000       0.10206629      -5.64590157
N       15.55303936      39.51002642      25.59707618       0.00000000       0.00000000      -0.10206629      -6.54647390
Al      15.55303936      39.51002642      27.49463902       0.00000000       0.00000000       0.10206629      -5.64590157
N       15.55303936      37.71411613      28.09658881      -0.00000000      -0.00000000      -0.10206629      -6.54647390
Al      15.55303936      37.71411613      29.99415166      -0.00000000      -0.00000000       0.10206629      -5.64590157
N       15.55303936      39.51002642      30.59610145       0.00000000       0.00000000      -0.10206629      -6.54647390
Al      15.55303936      39.51002642      32.49366430       0.00000000       0.00000000       0.10206629      -5.64590157
N       15.55303936      37.71411613      33.09561409      -0.00000000      -0.00000000      -0.10206629      -6.54647390
Al      15.55303936      37.71411613      34.99317694      -0.00000000      -0.00000000       0.10206629      -5.64590157
N       15.55303936      39.51002642      35.59512673       0.00000000       0.00000000      -0.10206629      -6.54647390
Al      15.55303936      39.51002642      37.49268957       0.00000000       0.00000000       0.10206629      -5.64590157
N       15.55303936      37.71411613      38.09463937      -0.00000000      -0.00000000      -0.10206629      -6.54647390
Al      15.55303936      37.71411613      39.99220221      -0.00000000      -0.00000000       0.10206629      -5.64590157
N       15.55303936      39.51002642      40.59415201       0.00000000       0.00000000      -0.10206629      -6.54647390
Al      15.55303936      39.51002642      42.49171485       0.00000000       0.00000000       0.10206629      -5.64590157
N       15.55303936      37.71411613      43.09366464      -0.00000000      -0.00000000      -0.10206629      -6.54647390
Al      40.43790233      -0.00000000       0.00000000      -0.00000000      -0.00000000       0.10206629      -5.64590157
N       40.43790233       1.79591029       0.60194979      -0.00000000      -0.00000000      -0.10206629      -6.54647390
Al      40.43790233       1.79591029       2.49951264      -0.00000000      -0.00000000       0.10206629      -5.64590157
N       40.43790233      -0.00000000       3.10146243      -0.00000000      -0.00000000      -0.10206629      -6.54647390
Al      40.43790233      -0.00000000       4.99902528      -0.00000000      -0.00000000       0.10206629      -5.64590157
N       40.43790233       1.79591029       5.60097507      -0.00000000      -0.00000000      -0.10206629      -6.54647390
Al      40.43790233       1.79591029       7.49853791      -0.00000000      -0.00000000       0.10206629      -5.64590157
N       40.43790233      -0.00000000       8.10048771      -0.00000000      -0.00000000      -0.10206629      -6.54647390
Al      40.43790233      -0.00000000       9.99805055      -0.00000000      -0.00000000       0.10206629      -5.64590157
N       40.43790233       1.79591029      10.60000035      -0.00000000      -0.00000000      -0.10206629      -6.54647390
Al      40.43790233       1.79591029      12.49756319      -0.00000000      -0.00000000       0.10206629      -5.64590157
N       40.43790233      -0.00000000      13.09951298      -0.00000000      -0.00000000      -0.10206629      -6.54647390
Al      40.43790233      -0.00000000      14.99707583      -0.00000000      -0.00000000       0.10206629      -5.64590157
N       40.43790233       1.79591029      15.59902562      -0.00000000       0.00000000      -0.10206629      -6.54647390
Al      40.43790233       1.79591029      17.49658847      -0.00000000      -0.00000000       0.10206629      -5.64590157
N       40.43790233      -0.00000000      18.09853826      -0.00000000      -0.00000000      -0.10206629      -6.54647390
Al      40.43790233      -0.00000000      19.99610111      -0.00000000      -0.00000000       0.10206629      -5.64590157
N       40.43790233       1.79591029      20.59805090      -0.00000000       0.00000000      -0.10206629      -6.54647390
Al      40.43790233       1.79591029      22.49561374      -0.00000000      -0.00000000       0.10206629      -5.64590157
N       40.43790233      -0.00000000      23.09756354      -0.00000000      -0.00000000      -0.10206629      -6.54647390
Al      40.43790233      -0.00000000      24.99512638      -0.00000000      -0.00000000       0.10206629      -5.64590157
N       40.43790233       1.79591029      25.59707618      -0.00000000      -0.00000000      -0.10206629      -6.54647390
Al      40.43790233       1.79591029      27.49463902      -0.00000000      -0.00000000       0.10206629      -5.64590157
N       40.43790233      -0.00000000      28.09658881      -0.00000000      -0.00000000      -0.10206629      -6.54647390
Al      40.43790233      -0.00000000      29.99415166      -0.00000000      -0.00000000       0.10206629      -5.64590157
N       40.43790233       1.79591029      30.59610145      -0.00000000      -0.00000000      -0.10206629      -6.54647390
Al      40.43790233       1.79591029      32.49366430      -0.00000000      -0.00000000       0.10206629      -5.64590157
N       40.43790233      -0.00000000      33.09561409      -0.00000000      -0.00000000      -0.10206629      -6.54647390
Al      40.43790233      -0.00000000      34.99317694      -0.00000000      -0.00000000       0.10206629      -5.64590157
N       40.43790233       1.79591029      35.59512673      -0.00000000      -0.00000000      -0.10206629      -6.54647390
Al      40.43790233       1.79591029      37.49268957      -0.00000000      -0.00000000       0.10206629      -5.64590157
N       40.43790233      -0.00000000      38.09463937      -0.00000000      -0.00000000      -0.10206629      -6.54647390
Al      40.43790233      -0.00000000      39.99220221      -0.00000000      -0.00000000       0.10206629      -5.64590157
N       40.43790233       1.79591029      40.59415201      -0.00000000      -0.00000000      -0.10206629      -6.54647390
Al      40.43790233       1.79591029      42.49171485      -0.00000000      -0.00000000       0.10206629      -5.64590157
N       40.43790233      -0.00000000      43.09366464      -0.00000000      -0.00000000      -0.10206629      -6.54647390
Al      38.88259839       2.69386544       0.00000000       0.00000000       0.00000000       0.10206629      -5.64590157
N       38.88259839       4.48977573       0.60194979      -0.00000000       0.00000000      -0.10206629      -6.54647390
Al      38.88259839       4.48977573       2.49951264      -0.00000000       0.00000000       0.10206629      -5.64590157
N       38.88259839       2.69386544       3.10146243       0.00000000      -0.00000000      -0.10206629      -6.54647390
Al      38.88259839       2.69386544       4.99902528       0.00000000       0.00000000       0.10206629      -5.64590157
N       38.88259839       4.48977573       5.60097507      -0.00000000       0.00000000      -0.10206629      -6.54647390
Al      38.88259839       4.48977573       7.49853791      -0.00000000       0.00000000       0.10206629      -5.64590157
N       38.88259839       2.69386544       8.10048771       0.00000000       0.00000000      -0.10206629      -6.54647390
Al      38.88259839       2.69386544       9.99805055       0.00000000       0.00000000       0.10206629      -5.64590157
N       38.88259839       4.48977573      10.60000035      -0.00000000       0.00000000      -0.10206629      -6.54647390
Al      38.88259839       4.48977573      12.49756319      -0.00000000       0.00000000       0.10206629      -5.64590157
N       38.88259839       2.69386544      13.09951298       0.00000000       0.00000000      -0.10206629      -6.54647390
Al      38.88259839       2.69386544      14.99707583       0.00000000       0.00000000       0.10206629      -5.64590157
N       38.88259839       4.48977573      15.59902562      -0.00000000       0.00000000      -0.10206629      -6.54647390
Al      38.88259839       4.48977573      17.49658847      -0.00000000       0.00000000       0.10206629      -5.64590157
N       38.88259839       2.69386544      18.09853826       0.00000000       0.00000000      -0.10206629      -6.54647390
Al      38.88259839       2.69386544      19.99610111       0.00000000       0.00000000       0.10206629      -5.64590157
N       38.88259839       4.48977573      20.59805090      -0.00000000       0.00000000      -0.10206629      -6.54647390
Al      38.88259839       4.48977573      22.49561374      -0.00000000       0.00000000       0.10206629      -5.64590157
N       38.88259839       2.69386544      23.09756354       0.00000000       0.00000000      -0.10206629      -6.54647390
Al      38.88259839       2.69386544      24.99512638       0.00000000      -0.00000000       0.10206629      -5.64590157
N       38.88259839       4.48977573      25.59707618      -0.00000000       0.00000000      -0.10206629      -6.54647390
Al      38.88259839       4.48977573      27.49463902      -0.00000000       0.00000000       0.10206629      -5.64590157
N       38.88259839       2.69386544      28.09658881       0.00000000       0.00000000      -0.10206629      -6.54647390
Al      38.88259839       2.69386544      29.99415166       0.00000000       0.00000000       0.10206629      -5.64590157
N       38.88259839       4.48977573      30.59610145      -0.00000000       0.00000000      -0.10206629      -6.54647390
Al      38.88259839       4.48977573      32.49366430      -0.00000000      -0.00000000       0.10206629      -5.64590157
N       38.88259839       2.69386544      33.09561409       0.00000000       0.00000000      -0.10206629      -6.54647390
Al      38.88259839       2.69386544      34.99317694       0.00000000       0.00000000       0.10206629      -5.64590157
N       38.88259839       4.48977573      35.59512673      -0.00000000       0.00000000      -0.10206629      -6.54647390
Al      38.88259839       4.48977573      37.49268957      -0.00000000      -0.00000000       0.10206629      -5.64590157
N       38.88259839       2.69386544      38.09463937       0.00000000       0.00000000      -0.10206629      -6.54647390
Al      38.88259839       2.69386544      39.99220221       0.00000000       0.00000000       0.10206629      -5.64590157
N       38.88259839       4.48977573      40.59415201      -0.00000000       0.00000000      -0.10206629      -6.54647390
Al      38.88259839       4.48977573      42.49171485      -0.00000000       0.00000000       0.10206629      -5.64590157
N       38.88259839       2.69386544      43.09366464       0.00000000       0.00000000      -0.10206629      -6.54647390
Al      37.32729446       5.38773088       0.00000000       0.00000000       0.00000000       0.10206629      -5.64590157
N       37.32729446       7.18364117       0.60194979       0.00000000       0.00000000      -0.10206629      -6.54647390
Al      37.32729446       7.18364117       2.49951264       0.00000000       0.00000000       0.10206629      -5.64590157
N       37.32729446       5.38773088       3.10146243       0.00000000       0.00000000      -0.10206629      -6.54647390
Al      37.32729446       5.38773088       4.99902528       0.00000000       0.00000000       0.10206629      -5.64590157
N       37.32729446       7.18364117       5.60097507       0.00000000       0.00000000      -0.10206629      -6.54647390
Al      37.32729446       7.18364117       7.49853791       0.00000000       0.00000000       0.10206629      -5.64590157
N       37.32729446       5.38773088       8.10048771       0.00000000       0.00000000      -0.10206629      -6.54647390
Al      37.32729446       5.38773088       9.99805055       0.00000000       0.00000000       0.10206629      -5.64590157
N       37.32729446       7.18364117      10.60000035       0.00000000       0.00000000      -0.10206629      -6.54647390
Al      37.32729446       7.18364117      12.49756319       0.00000000      -0.00000000       0.10206629      -5.64590157
N       37.32729446       5.38773088      13.09951298       0.00000000       0.00000000      -0.10206629      -6.54647390
Al      37.32729446       5.38773088      14.99707583       0.00000000       0.00000000       0.10206629      -5.64590157
N       37.32729446       7.18364117      15.59902562       0.00000000       0.00000000      -0.10206629      -6.54647390
Al      37.32729446       7.18364117      17.49658847       0.00000000      -0.00000000       0.10206629      -5.64590157
N       37.32729446       5.38773088      18.09853826       0.00000000       0.00000000      -0.10206629      -6.54647390
Al      37.32729446       5.38773088      19.99610111       0.00000000       0.00000000       0.10206629      -5.64590157
N       37.32729446       7.18364117      20.59805090       0.00000000       0.00000000      -0.10206629      -6.54647390
Al      37.32729446       7.18364117      22.49561374       0.00000000       0.00000000       0.10206629      -5.64590157
N       37.32729446       5.38773088      23.09756354       0.00000000       0.00000000      -0.10206629      -6.54647390
Al      37.32729446       5.38773088      24.99512638       0.00000000       0.00000000       0.10206629      -5.64590157
N       37.32729446       7.18364117      25.59707618       0.00000000      -0.00000000      -0.10206629      -6.54647390
Al      37.32729446       7.18364117      27.49463902       0.00000000       0.00000000       0.10206629      -5.64590157
N       37.32729446       5.38773088      28.09658881       0.00000000       0.00000000      -0.10206629      -6.54647390
Al      37.32729446       5.38773088      29.99415166       0.00000000       0.00000000       0.10206629      -5.64590157
N       37.32729446       7.18364117      30.59610145       0.00000000      -0.00000000      -0.10206629      -6.54647390
Al      37.32729446       7.18364117      32.49366430       0.00000000      -0.00000000       0.10206629      -5.64590157
N       37.32729446       5.38773088      33.09561409       0.00000000       0.00000000      -0.10206629      -6.54647390
Al      37.32729446       5.38773088      34.99317694       0.00000000       0.00000000       0.10206629      -5.64590157
N       37.32729446       7.18364117      35.59512673       0.00000000       0.00000000      -0.10206629      -6.54647390
Al      37.32729446       7.18364117      37.49268957       0.00000000       0.00000000       0.10206629      -5.64590157
N       37.32729446       5.38773088      38.09463937       0.00000000       0.00000000      -0.10206629      -6.54647390
Al      37.32729446       5.38773088      39.99220221       0.00000000       0.00000000       0.10206629      -5.64590157
N       37.32729446       7.18364117      40.59415201       0.00000000       0.00000000      -0.10206629      -6.54647390
Al      37.32729446       7.18364117      42.49171485       0.00000000       0.00000000       0.10206629      -5.64590157
N       37.32729446       5.38773088      43.09366464       0.00000000       0.00000000      -0.10206629      -6.54647390
Al      35.77199052       8.08159631       0.00000000      -0.00000000      -0.00000000       0.10206629      -5.64590157
N       35.77199052       9.87750661       0.60194979       0.00000000       0.00000000      -0.10206629      -6.54647390
Al      35.77199052       9.87750661       2.49951264       0.00000000       0.00000000       0.10206629      -5.64590157
N       35.77199052       8.08159631       3.10146243      -0.00000000       0.00000000      -0.10206629      -6.54647390
Al      35.77199052       8.08159631       4.99902528      -0.00000000       0.00000000       0.10206629      -5.64590157
N       35.77199052       9.87750661       5.60097507       0.00000000       0.00000000      -0.10206629      -6.54647390
Al      35.77199052       9.87750661       7.49853791       0.00000000       0.00000000       0.10206629      -5.64590157
N       35.77199052       8.08159631       8.10048771      -0.00000000       0.00000000      -0.10206629      -6.54647390
Al      35.77199052       8.08159631       9.99805055      -0.00000000      -0.00000000       0.10206629      -5.64590157
N       35.77199052       9.87750661      10.60000035       0.00000000       0.00000000      -0.10206629      -6.54647390
Al      35.77199052       9.87750661      12.49756319       0.00000000      -0.00000000       0.10206629      -5.64590157
N       35.77199052       8.08159631      13.09951298      -0.00000000       0.00000000      -0.10206629      -6.54647390
Al      35.77199052       8.08159631      14.99707583      -0.00000000      -0.00000000       0.10206629      -5.64590157
N       35.77199052       9.87750661      15.59902562       0.00000000       0.00000000      -0.10206629      -6.54647390
Al      35.77199052       9.87750661      17.49658847       0.00000000      -0.00000000       0.10206629      -5.64590157
N       35.77199052       8.08159631      18.09853826      -0.00000000       0.00000000      -0.10206629      -6.54647390
Al      35.77199052       8.08159631      19.99610111      -0.00000000      -0.00000000       0.10206629      -5.64590157
N       35.77199052       9.87750661      20.59805090       0.00000000       0.00000000      -0.10206629      -6.54647390
Al      35.77199052       9.87750661      22.49561374       0.00000000      -0.00000000       0.10206629      -5.64590157
N       35.77199052       8.08159631      23.09756354      -0.00000000       0.00000000      -0.10206629      -6.54647390
Al      35.77199052       8.08159631      24.99512638      -0.00000000      -0.00000000       0.10206629      -5.64590157
N       35.77199052       9.87750661      25.59707618       0.00000000       0.00000000      -0.10206629      -6.54647390
Al      35.77199052       9.87750661      27.49463902       0.00000000       0.00000000       0.10206629      -5.64590157
N       35.77199052       8.08159631      28.09658881      -0.00000000      -0.00000000      -0.10206629      -6.54647390
Al      35.77199052       8.08159631      29.99415166      -0.00000000       0.00000000       0.10206629      -5.64590157
N       35.77199052       9.87750661      30.59610145       0.00000000       0.00000000      -0.10206629      -6.54647390
Al      35.77199052       9.87750661      32.49366430       0.00000000       0.00000000       0.10206629      -5.64590157
N       35.77199052       8.08159631      33.09561409      -0.00000000       0.00000000      -0.10206629      -6.54647390
Al      35.77199052       8.08159631      34.99317694      -0.00000000       0.00000000       0.10206629      -5.64590157
N       35.77199052       9.87750661      35.59512673       0.00000000       0.00000000      -0.10206629      -6.54647390
Al      35.77199052       9.87750661      37.49268957       0.00000000       0.00000000       0.10206629      -5.64590157
N       35.77199052       8.08159631      38.09463937      -0.00000000       0.00000000      -0.10206629      -6.54647390
Al      35.77199052       8.08159631      39.99220221      -0.00000000       0.00000000       0.10206629      -5.64590157
N       35.77199052       9.87750661      40.59415201       0.00000000       0.00000000      -0.10206629      -6.54647390
Al      35.77199052       9.87750661      42.49171485       0.00000000       0.00000000       0.10206629      -5.64590157
N       35.77199052       8.08159631      43.09366464      -0.00000000       0.00000000      -0.10206629      -6.54647390
Al      34.21668659      10.77546175       0.00000000       0.00000000       0.00000000       0.10206629      -5.64590157
N       34.21668659      12.57137204       0.60194979      -0.00000000      -0.00000000      -0.10206629      -6.54647390
Al      34.21668659      12.57137204       2.49951264      -0.00000000       0.00000000       0.10206629      -5.64590157
N       34.21668659      10.77546175       3.10146243       0.00000000       0.00000000      -0.10206629      -6.54647390
Al      34.21668659      10.77546175       4.99902528       0.00000000       0.00000000       0.10206629      -5.64590157
N       34.21668659      12.57137204       5.60097507      -0.00000000       0.00000000      -0.10206629      -6.54647390
Al      34.21668659      12.57137204       7.49853791      -0.00000000      -0.00000000       0.10206629      -5.64590157
N       34.21668659      10.77546175       8.10048771       0.00000000       0.00000000      -0.10206629      -6.54647390
Al      34.21668659      10.77546175       9.99805055       0.00000000       0.00000000       0.10206629      -5.64590157
N       34.21668659      12.57137204      10.60000035      -0.00000000       0.00000000      -0.10206629      -6.54647390
Al      34.21668659      12.57137204      12.49756319      -0.00000000       0.00000000       0.10206629      -5.64590157
N       34.21668659      10.77546175      13.09951298       0.00000000       0.00000000      -0.10206629      -6.54647390
Al      34.21668659      10.77546175      14.99707583       0.00000000       0.00000000       0.10206629      -5.64590157
N       34.21668659      12.57137204      15.59902562      -0.00000000       0.00000000      -0.10206629      -6.54647390
Al      34.21668659      12.57137204      17.49658847      -0.00000000       0.00000000       0.10206629      -5.64590157
N       34.21668659      10.77546175      18.09853826       0.00000000       0.00000000      -0.10206629      -6.54647390
Al      34.21668659      10.77546175      19.99610111       0.00000000       0.00000000       0.10206629      -5.64590157
N       34.21668659      12.57137204      20.59805090      -0.00000000       0.00000000      -0.10206629      -6.54647390
Al      34.21668659      12.57137204      22.49561374      -0.00000000       0.00000000       0.10206629      -5.64590157
N       34.21668659      10.77546175      23.09756354       0.00000000       0.00000000      -0.10206629      -6.54647390
Al      34.21668659      10.77546175      24.99512638       0.00000000       0.00000000       0.10206629      -5.64590157
N       34.21668659      12.57137204      25.59707618      -0.00000000       0.00000000      -0.10206629      -6.54647390
Al      34.21668659      12.57137204      27.49463902      -0.00000000       0.00000000       0.10206629      -5.64590157
N       34.21668659      10.77546175      28.09658881       0.00000000       0.00000000      -0.10206629      -6.54647390
Al      34.21668659      10.77546175      29.99415166       0.00000000       0.00000000       0.10206629      -5.64590157
N       34.21668659      12.57137204      30.59610145      -0.00000000       0.00000000      -0.10206629      -6.54647390
Al      34.21668659      12.57137204      32.49366430      -0.00000000       0.00000000       0.10206629      -5.64590157
N       34.21668659      10.77546175      33.09561409       0.00000000       0.00000000      -0.10206629      -6.54647390
Al      34.21668659      10.77546175      34.99317694       0.00000000       0.00000000       0.10206629      -5.64590157
N       34.21668659      12.57137204      35.59512673      -0.00000000       0.00000000      -0.10206629      -6.54647390
Al      34.21668659      12.57137204      37.49268957      -0.00000000       0.00000000       0.10206629      -5.64590157
N       34.21668659      10.77546175      38.09463937       0.00000000       0.00000000      -0.10206629      -6.54647390
Al      34.21668659      10.77546175      39.99220221       0.00000000       0.00000000       0.10206629      -5.64590157
N       34.21668659      12.57137204      40.59415201      -0.00000000      -0.00000000      -0.10206629      -6.54647390
Al      34.21668659      12.57137204      42.49171485      -0.00000000       0.00000000       0.10206629      -5.64590157
N       34.21668659      10.77546175      43.09366464       0.00000000       0.00000000      -0.10206629      -6.54647390
Al      32.66138265      13.46932719       0.00000000       0.00000000       0.00000000       0.10206629      -5.64590157
N       32.66138265      15.26523748       0.60194979      -0.00000000      -0.00000000      -0.10206629      -6.54647390
Al      32.66138265      15.26523748       2.49951264      -0.00000000       0.00000000       0.10206629      -5.64590157
N       32.66138265      13.46932719       3.10146243       0.00000000      -0.00000000      -0.10206629      -6.54647390
Al      32.66138265      13.46932719       4.99902528       0.00000000       0.00000000       0.10206629      -5.64590157
N       32.66138265      15.26523748       5.60097507      -0.00000000       0.00000000      -0.10206629      -6.54647390
Al      32.66138265      15.26523748       7.49853791      -0.00000000       0.00000000       0.10206629      -5.64590157
N       32.66138265      13.46932719       8.10048771       0.00000000       0.00000000      -0.10206629      -6.54647390
Al      32.66138265      13.46932719       9.99805055       0.00000000       0.00000000       0.10206629      -5.64590157
N       32.66138265      15.26523748      10.60000035      -0.00000000       0.00000000      -0.10206629      -6.54647390
Al      32.66138265      15.26523748      12.49756319      -0.00000000       0.00000000       0.10206629      -5.64590157
N       32.66138265      13.46932719      13.09951298       0.00000000       0.00000000      -0.10206629      -6.54647390
Al      32.66138265      13.46932719      14.99707583       0.00000000       0.00000000       0.10206629      -5.64590157
N       32.66138265      15.26523748      15.59902562       0.00000000       0.00000000      -0.10206629      -6.54647390
Al      32.66138265      15.26523748      17.49658847      -0.00000000       0.00000000       0.10206629      -5.64590157
N       32.66138265      13.46932719      18.09853826       0.00000000       0.00000000      -0.10206629      -6.54647390
Al      32.66138265      13.46932719      19.99610111       0.00000000       0.00000000       0.10206629      -5.64590157
N       32.66138265      15.26523748      20.59805090       0.00000000       0.00000000      -0.10206629      -6.54647390
Al      32.66138265      15.26523748      22.49561374      -0.00000000       0.00000000       0.10206629      -5.64590157
N       32.66138265      13.46932719      23.09756354       0.00000000       0.00000000      -0.10206629      -6.54647390
Al      32.66138265      13.46932719      24.99512638       0.00000000       0.00000000       0.10206629      -5.64590157
N       32.66138265      15.26523748      25.59707618      -0.00000000       0.00000000      -0.10206629      -6.54647390
Al      32.66138265      15.26523748      27.49463902      -0.00000000       0.00000000       0.10206629      -5.64590157
N       32.66138265      13.46932719      28.09658881       0.00000000       0.00000000      -0.10206629      -6.54647390
Al      32.66138265      13.46932719      29.99415166       0.00000000       0.00000000       0.10206629      -5.64590157
N       32.66138265      15.26523748      30.59610145      -0.00000000       0.00000000      -0.10206629      -6.54647390
Al      32.66138265      15.26523748      32.49366430      -0.00000000       0.00000000       0.10206629      -5.64590157
N       32.66138265      13.46932719      33.09561409       0.00000000       0.00000000      -0.10206629      -6.54647390
Al      32.66138265      13.46932719      34.99317694       0.00000000       0.00000000       0.10206629      -5.64590157
N       32.66138265      15.26523748      35.59512673      -0.00000000       0.00000000      -0.10206629      -6.54647390
Al      32.66138265      15.26523748      37.49268957      -0.00000000       0.00000000       0.10206629      -5.64590157
N       32.66138265      13.46932719      38.09463937       0.00000000       0.00000000      -0.10206629      -6.54647390
Al      32.66138265      13.46932719      39.99220221       0.00000000       0.00000000       0.10206629      -5.64590157
N       32.66138265      15.26523748      40.59415201      -0.00000000       0.00000000      -0.10206629      -6.54647390
Al      32.66138265      15.26523748      42.49171485      -0.00000000       0.00000000       0.10206629      -5.64590157
N       32.66138265      13.46932719      43.09366464       0.00000000       0.00000000      -0.10206629      -6.54647390
Al      31.10607871      16.16319263       0.00000000       0.00000000       0.00000000       0.10206629      -5.64590157
N       31.10607871      17.95910292       0.60194979       0.00000000       0.00000000      -0.10206629      -6.54647390
Al      31.10607871      17.95910292       2.49951264       0.00000000       0.00000000       0.10206629      -5.64590157
N       31.10607871      16.16319263       3.10146243       0.00000000       0.00000000      -0.10206629      -6.54647390
Al      31.10607871      16.16319263       4.99902528       0.00000000       0.00000000       0.10206629      -5.64590157
N       31.10607871      17.95910292       5.60097507       0.00000000       0.00000000      -0.10206629      -6.54647390
Al      31.10607871      17.95910292       7.49853791       0.00000000       0.00000000       0.10206629      -5.64590157
N       31.10607871      16.16319263       8.10048771       0.00000000       0.00000000      -0.10206629      -6.54647390
Al      31.10607871      16.16319263       9.99805055       0.00000000       0.00000000       0.10206629      -5.64590157
N       31.10607871      17.95910292      10.60000035       0.00000000       0.00000000      -0.10206629      -6.54647390
Al      31.10607871      17.95910292      12.49756319       0.00000000       0.00000000       0.10206629      -5.64590157
N       31.10607871      16.16319263      13.09951298       0.00000000       0.00000000      -0.10206629      -6.54647390
Al      31.10607871      16.16319263      14.99707583       0.00000000       0.00000000       0.10206629      -5.64590157
N       31.10607871      17.95910292      15.59902562       0.00000000       0.00000000      -0.10206629      -6.54647390
Al      31.10607871      17.95910292      17.49658847       0.00000000       0.00000000       0.10206629      -5.64590157
N       31.10607871      16.16319263      18.09853826       0.00000000       0.00000000      -0.10206629      -6.54647390
Al      31.10607871      16.16319263      19.99610111       0.00000000       0.00000000       0.10206629      -5.64590157
N       31.10607871      17.95910292      20.59805090       0.00000000       0.00000000      -0.10206629      -6.54647390
Al      31.10607871      17.95910292      22.49561374       0.00000000       0.00000000       0.10206629      -5.64590157
N       31.10607871      16.16319263      23.09756354       0.00000000       0.00000000      -0.10206629      -6.54647390
Al      31.10607871      16.16319263      24.99512638       0.00000000       0.00000000       0.10206629      -5.64590157
N       31.10607871      17.95910292      25.59707618       0.00000000       0.00000000      -0.10206629      -6.54647390
Al      31.10607871      17.95910292      27.49463902       0.00000000       0.00000000       0.10206629      -5.64590157
N       31.10607871      16.16319263      28.09658881       0.00000000       0.00000000      -0.10206629      -6.54647390
Al      31.10607871      16.16319263      29.99415166       0.00000000       0.00000000       0.10206629      -5.64590157
N       31.10607871      17.95910292      30.59610145       0.00000000       0.00000000      -0.10206629      -6.54647390
Al      31.10607871      17.95910292      32.49366430       0.00000000       0.00000000       0.10206629      -5.64590157
N       31.10607871      16.16319263      33.09561409       0.00000000       0.00000000      -0.10206629      -6.54647390
Al      31.10607871      16.16319263      34.99317694       0.00000000       0.00000000       0.10206629      -5.64590157
N       31.10607871      17.95910292      35.59512673       0.00000000       0.00000000      -0.10206629      -6.54647390
Al      31.10607871      17.95910292      37.49268957       0.00000000       0.00000000       0.10206629      -5.64590157
N       31.10607871      16.16319263      38.09463937       0.00000000       0.00000000      -0.10206629      -6.54647390
Al      31.10607871      16.16319263      39.99220221       0.00000000       0.00000000       0.10206629      -5.64590157
N       31.10607871      17.95910292      40.59415201       0.00000000       0.00000000      -0.10206629      -6.54647390
Al      31.10607871      17.95910292      42.49171485       0.00000000       0.00000000       0.10206629      -5.64590157
N       31.10607871      16.16319263      43.09366464       0.00000000       0.00000000      -0.10206629      -6.54647390
Al      29.55077478      18.85705806       0.00000000       0.00000000      -0.00000000       0.10206629      -5.64590157
N       29.55077478      20.65296836       0.60194979      -0.00000000       0.00000000      -0.10206629      -6.54647390
Al      29.55077478      20.65296836       2.49951264       0.00000000       0.00000000       0.10206629      -5.64590157
N       29.55077478      18.85705806       3.10146243       0.00000000      -0.00000000      -0.10206629      -6.54647390
Al      29.55077478      18.85705806       4.99902528       0.00000000      -0.00000000       0.10206629      -5.64590157
N       29.55077478      20.65296836       5.60097507       0.00000000       0.00000000      -0.10206629      -6.54647390
Al      29.55077478      20.65296836       7.49853791      -0.00000000       0.00000000       0.10206629      -5.64590157
N       29.55077478      18.85705806       8.10048771       0.00000000      -0.00000000      -0.10206629      -6.54647390
Al      29.55077478      18.85705806       9.99805055       0.00000000      -0.00000000       0.10206629      -5.64590157
N       29.55077478      20.65296836      10.60000035       0.00000000       0.00000000      -0.10206629      -6.54647390
Al      29.55077478      20.65296836      12.49756319      -0.00000000       0.00000000       0.10206629      -5.64590157
N       29.55077478      18.85705806      13.09951298       0.00000000      -0.00000000      -0.10206629      -6.54647390
Al      29.55077478      18.85705806      14.99707583       0.00000000      -0.00000000       0.10206629      -5.64590157
N       29.55077478      20.65296836      15.59902562       0.00000000       0.00000000      -0.10206629      -6.54647390
Al      29.55077478      20.65296836      17.49658847      -0.00000000       0.00000000       0.10206629      -5.64590157
N       29.55077478      18.85705806      18.09853826       0.00000000      -0.00000000      -0.10206629      -6.54647390
Al      29.55077478      18.85705806      19.99610111       0.00000000      -0.00000000       0.10206629      -5.64590157
N       29.55077478      20.65296836      20.59805090       0.00000000       0.00000000      -0.10206629      -6.54647390
Al      29.55077478      20.65296836      22.49561374      -0.00000000       0.00000000       0.10206629      -5.64590157
N       29.55077478      18.85705806      23.09756354       0.00000000      -0.00000000      -0.10206629      -6.54647390
Al      29.55077478      18.85705806      24.99512638       0.00000000      -0.00000000       0.10206629      -5.64590157
N       29.55077478      20.65296836      25.59707618       0.00000000       0.00000000      -0.10206629      -6.54647390
Al      29.55077478      20.65296836      27.49463902      -0.00000000       0.00000000       0.10206629      -5.64590157
N       29.55077478      18.85705806      28.09658881       0.00000000      -0.00000000      -0.10206629      -6.54647390
Al      29.55077478      18.85705806      29.99415166       0.00000000      -0.00000000       0.10206629      -5.64590157
N       29.55077478      20.65296836      30.59610145       0.00000000       0.00000000      -0.10206629      -6.54647390
Al      29.55077478      20.65296836      32.49366430      -0.00000000       0.00000000       0.10206629      -5.64590157
N       29.55077478      18.85705806      33.09561409       0.00000000      -0.00000000      -0.10206629      -6.54647390
Al      29.55077478      18.85705806      34.99317694       0.00000000      -0.00000000       0.10206629      -5.64590157
N       29.55077478      20.65296836      35.59512673       0.00000000       0.00000000      -0.10206629      -6.54647390
Al      29.55077478      20.65296836      37.49268957       0.00000000       0.00000000       0.10206629      -5.64590157
N       29.55077478      18.85705806      38.09463937       0.00000000      -0.00000000      -0.10206629      -6.54647390
Al      29.55077478      18.85705806      39.99220221       0.00000000      -0.00000000       0.10206629      -5.64590157
N       29.55077478      20.65296836      40.59415201       0.00000000       0.00000000      -0.10206629      -6.54647390
Al      29.55077478      20.65296836      42.49171485       0.00000000       0.00000000       0.10206629      -5.64590157
N       29.55077478      18.85705806      43.09366464       0.00000000      -0.00000000      -0.10206629      -6.54647390
Al      27.99547084      21.55092350       0.00000000       0.00000000       0.00000000       0.10206629      -5.64590157
N       27.99547084      23.34683379       0.60194979      -0.00000000       0.00000000      -0.10206629      -6.54647390
Al      27.99547084      23.34683379       2.49951264      -0.00000000       0.00000000       0.10206629      -5.64590157
N       27.99547084      21.55092350       3.10146243       0.00000000      -0.00000000      -0.10206629      -6.54647390
Al      27.99547084      21.55092350       4.99902528       0.00000000       0.00000000       0.10206629      -5.64590157
N       27.99547084      23.34683379       5.60097507       0.00000000       0.00000000      -0.10206629      -6.54647390
Al      27.99547084      23.34683379       7.49853791      -0.00000000       0.00000000       0.10206629      -5.64590157
N       27.99547084      21.55092350       8.10048771       0.00000000      -0.00000000      -0.10206629      -6.54647390
Al      27.99547084      21.55092350       9.99805055       0.00000000       0.00000000       0.10206629      -5.64590157
N       27.99547084      23.34683379      10.60000035       0.00000000       0.00000000      -0.10206629      -6.54647390
Al      27.99547084      23.34683379      12.49756319      -0.00000000       0.00000000       0.10206629      -5.64590157
N       27.99547084      21.55092350      13.09951298       0.00000000      -0.00000000      -0.10206629      -6.54647390
Al      27.99547084      21.55092350      14.99707583       0.00000000       0.00000000       0.10206629      -5.64590157
N       27.99547084      23.34683379      15.59902562       0.00000000       0.00000000      -0.10206629      -6.54647390
Al      27.99547084      23.34683379      17.49658847       0.00000000       0.00000000       0.10206629      -5.64590157
N       27.99547084      21.55092350      18.09853826       0.00000000      -0.00000000      -0.10206629      -6.54647390
Al      27.99547084      21.55092350      19.99610111       0.00000000       0.00000000       0.10206629      -5.64590157
N       27.99547084      23.34683379      20.59805090       0.00000000       0.00000000      -0.10206629      -6.54647390
Al      27.99547084      23.34683379      22.49561374      -0.00000000       0.00000000       0.10206629      -5.64590157
N       27.99547084      21.55092350      23.09756354       0.00000000      -0.00000000      -0.10206629      -6.54647390
Al      27.99547084      21.55092350      24.99512638       0.00000000      -0.00000000       0.10206629      -5.64590157
N       27.99547084      23.34683379      25.59707618       0.00000000       0.00000000      -0.10206629      -6.54647390
Al      27.99547084      23.34683379      27.49463902      -0.00000000       0.00000000       0.10206629      -5.64590157
N       27.99547084      21.55092350      28.09658881       0.00000000      -0.00000000      -0.10206629      -6.54647390
Al      27.99547084      21.55092350      29.99415166       0.00000000      -0.00000000       0.10206629      -5.64590157
N       27.99547084      23.34683379      30.59610145       0.00000000       0.00000000      -0.10206629      -6.54647390
Al      27.99547084      23.34683379      32.49366430      -0.00000000       0.00000000       0.10206629      -5.64590157
N       27.99547084      21.55092350      33.09561409       0.00000000      -0.00000000      -0.10206629      -6.54647390
Al      27.99547084      21.55092350      34.99317694       0.00000000      -0.00000000       0.10206629      -5.64590157
N       27.99547084      23.34683379      35.59512673       0.00000000       0.00000000      -0.10206629      -6.54647390
Al      27.99547084      23.34683379      37.49268957      -0.00000000       0.00000000       0.10206629      -5.64590157
N       27.99547084      21.55092350      38.09463937       0.00000000      -0.00000000      -0.10206629      -6.54647390
Al      27.99547084      21.55092350      39.99220221       0.00000000       0.00000000       0.10206629      -5.64590157
N       27.99547084      23.34683379      40.59415201       0.00000000       0.00000000      -0.10206629      -6.54647390
Al      27.99547084      23.34683379      42.49171485       0.00000000       0.00000000       0.10206629      -5.64590157
N       27.99547084      21.55092350      43.09366464       0.00000000      -0.00000000      -0.10206629      -6.54647390
Al      26.44016691      24.24478894       0.00000000       0.00000000      -0.00000000       0.10206629      -5.64590157
N       26.44016691      26.04069923       0.60194979      -0.00000000      -0.00000000      -0.10206629      -6.54647390
Al      26.44016691      26.04069923       2.49951264      -0.00000000      -0.00000000       0.10206629      -5.64590157
N       26.44016691      24.24478894       3.10146243       0.00000000       0.00000000      -0.10206629      -6.54647390
Al      26.44016691      24.24478894       4.99902528       0.00000000      -0.00000000       0.10206629      -5.64590157
N       26.44016691      26.04069923       5.60097507      -0.00000000       0.00000000      -0.10206629      -6.54647390
Al      26.44016691      26.04069923       7.49853791      -0.00000000      -0.00000000       0.10206629      -5.64590157
N       26.44016691      24.24478894       8.10048771       0.00000000      -0.00000000      -0.10206629      -6.54647390
Al      26.44016691      24.24478894       9.99805055       0.00000000      -0.00000000       0.10206629      -5.64590157
N       26.44016691      26.04069923      10.60000035      -0.00000000       0.00000000      -0.10206629      -6.54647390
Al      26.44016691      26.04069923      12.49756319      -0.00000000      -0.00000000       0.10206629      -5.64590157
N       26.44016691      24.24478894      13.09951298       0.00000000      -0.00000000      -0.10206629      -6.54647390
Al      26.44016691      24.24478894      14.99707583       0.00000000      -0.00000000       0.10206629      -5.64590157
N       26.44016691      26.04069923      15.59902562      -0.00000000       0.00000000      -0.10206629      -6.54647390
Al      26.44016691      26.04069923      17.49658847      -0.00000000      -0.00000000       0.10206629      -5.64590157
N       26.44016691      24.24478894      18.09853826       0.00000000      -0.00000000      -0.10206629      -6.54647390
Al      26.44016691      24.24478894      19.99610111       0.00000000      -0.00000000       0.10206629      -5.64590157
N       26.44016691      26.04069923      20.59805090      -0.00000000      -0.00000000      -0.10206629      -6.54647390
Al      26.44016691      26.04069923      22.49561374      -0.00000000      -0.00000000       0.10206629      -5.64590157
N       26.44016691      24.24478894      23.09756354       0.00000000      -0.00000000      -0.10206629      -6.54647390
Al      26.44016691      24.24478894      24.99512638       0.00000000      -0.00000000       0.10206629      -5.64590157
N       26.44016691      26.04069923      25.59707618      -0.00000000       0.00000000      -0.10206629      -6.54647390
Al      26.44016691      26.04069923      27.49463902      -0.00000000      -0.00000000       0.10206629      -5.64590157
N       26.44016691      24.24478894      28.09658881       0.00000000      -0.00000000      -0.10206629      -6.54647390
Al      26.44016691      24.24478894      29.99415166       0.00000000      -0.00000000       0.10206629      -5.64590157
N       26.44016691      26.04069923      30.59610145      -0.00000000      -0.00000000      -0.10206629      -6.54647390
Al      26.44016691      26.04069923      32.49366430      -0.00000000      -0.00000000       0.10206629      -5.64590157
N       26.44016691      24.24478894      33.09561409       0.00000000      -0.00000000      -0.10206629      -6.54647390
Al      26.44016691      24.24478894      34.99317694       0.00000000      -0.00000000       0.10206629      -5.64590157
N       26.44016691      26.04069923      35.59512673      -0.00000000      -0.00000000      -0.10206629      -6.54647390
Al      26.44016691      26.04069923      37.49268957      -0.00000000      -0.00000000       0.10206629      -5.64590157
N       26.44016691      24.24478894      38.09463937       0.00000000      -0.00000000      -0.10206629      -6.54647390
Al      26.44016691      24.24478894      39.99220221       0.00000000      -0.00000000       0.10206629      -5.64590157
N       26.44016691      26.04069923      40.59415201      -0.00000000       0.00000000      -0.10206629      -6.54647390
Al      26.44016691      26.04069923      42.49171485      -0.00000000      -0.00000000       0.10206629      -5.64590157
N       26.44016691      24.24478894      43.09366464       0.00000000      -0.00000000      -0.10206629      -6.54647390
Al      24.88486297      26.93865438       0.00000000       0.00000000       0.00000000       0.10206629      -5.64590157
N       24.88486297      28.73456467       0.60194979       0.00000000       0.00000000      -0.10206629      -6.54647390
Al      24.88486297      28.73456467       2.49951264       0.00000000       0.00000000       0.10206629      -5.64590157
N       24.88486297      26.93865438       3.10146243       0.00000000       0.00000000      -0.10206629      -6.54647390
Al      24.88486297      26.93865438       4.99902528       0.00000000       0.00000000       0.10206629      -5.64590157
N       24.88486297      28.73456467       5.60097507       0.00000000       0.00000000      -0.10206629      -6.54647390
Al      24.88486297      28.73456467       7.49853791       0.00000000       0.00000000       0.10206629      -5.64590157
N       24.88486297      26.93865438       8.10048771       0.00000000       0.00000000      -0.10206629      -6.54647390
Al      24.88486297      26.93865438       9.99805055       0.00000000       0.00000000       0.10206629      -5.64590157
N       24.88486297      28.73456467      10.60000035       0.00000000       0.00000000      -0.10206629      -6.54647390
Al      24.88486297      28.73456467      12.49756319       0.00000000       0.00000000       0.10206629      -5.64590157
N       24.88486297      26.93865438      13.09951298       0.00000000       0.00000000      -0.10206629      -6.54647390
Al      24.88486297      26.93865438      14.99707583       0.00000000      -0.00000000       0.10206629      -5.64590157
N       24.88486297      28.73456467      15.59902562       0.00000000       0.00000000      -0.10206629      -6.54647390
Al      24.88486297      28.73456467      17.49658847       0.00000000       0.00000000       0.10206629      -5.64590157
N       24.88486297      26.93865438      18.09853826       0.00000000      -0.00000000      -0.10206629      -6.54647390
Al      24.88486297      26.93865438      19.99610111       0.00000000      -0.00000000       0.10206629      -5.64590157
N       24.88486297      28.73456467      20.59805090       0.00000000       0.00000000      -0.10206629      -6.54647390
Al      24.88486297      28.73456467      22.49561374       0.00000000       0.00000000       0.10206629      -5.64590157
N       24.88486297      26.93865438      23.09756354       0.00000000       0.00000000      -0.10206629      -6.54647390
Al      24.88486297      26.93865438      24.99512638       0.00000000      -0.00000000       0.10206629      -5.64590157
N       24.88486297      28.73456467      25.59707618       0.00000000       0.00000000      -0.10206629      -6.54647390
Al      24.88486297      28.73456467      27.49463902       0.00000000       0.00000000       0.10206629      -5.64590157
N       24.88486297      26.93865438      28.09658881       0.00000000       0.00000000      -0.10206629      -6.54647390
Al      24.88486297      26.93865438      29.99415166       0.00000000      -0.00000000       0.10206629      -5.64590157
N       24.88486297      28.73456467      30.59610145       0.00000000       0.00000000      -0.10206629      -6.54647390
Al      24.88486297      28.73456467      32.49366430       0.00000000       0.00000000       0.10206629      -5.64590157
N       24.88486297      26.93865438      33.09561409       0.00000000      -0.00000000      -0.10206629      -6.54647390
Al      24.88486297      26.93865438      34.99317694       0.00000000      -0.00000000       0.10206629      -5.64590157
N       24.88486297      28.73456467      35.59512673       0.00000000       0.00000000      -0.10206629      -6.54647390
Al      24.88486297      28.73456467      37.49268957       0.00000000       0.00000000       0.10206629      -5.64590157
N       24.88486297      26.93865438      38.09463937       0.00000000       0.00000000      -0.10206629      -6.54647390
Al      24.88486297      26.93865438      39.99220221       0.00000000       0.00000000       0.10206629      -5.64590157
N       24.88486297      28.73456467      40.59415201       0.00000000       0.00000000      -0.10206629      -6.54647390
Al      24.88486297      28.73456467      42.49171485       0.00000000       0.00000000       0.10206629      -5.64590157
N       24.88486297      26.93865438      43.09366464       0.00000000       0.00000000      -0.10206629      -6.54647390
Al      23.32955904      29.63251982       0.00000000       0.00000000       0.00000000       0.10206629      -5.64590157
N       23.32955904      31.42843011       0.60194979      -0.00000000      -0.00000000      -0.10206629      -6.54647390
Al      23.32955904      31.42843011       2.49951264      -0.00000000      -0.00000000       0.10206629      -5.64590157
N       23.32955904      29.63251982       3.10146243       0.00000000       0.00000000      -0.10206629      -6.54647390
Al      23.32955904      29.63251982       4.99902528       0.00000000       0.00000000       0.10206629      -5.64590157
N       23.32955904      31.42843011       5.60097507      -0.00000000      -0.00000000      -0.10206629      -6.54647390
Al      23.32955904      31.42843011       7.49853791      -0.00000000      -0.00000000       0.10206629      -5.64590157
N       23.32955904      29.63251982       8.10048771       0.00000000       0.00000000      -0.10206629      -6.54647390
Al      23.32955904      29.63251982       9.99805055       0.00000000       0.00000000       0.10206629      -5.64590157
N       23.32955904      31.42843011      10.60000035      -0.00000000      -0.00000000      -0.10206629      -6.54647390
Al      23.32955904      31.42843011      12.49756319      -0.00000000      -0.00000000       0.10206629      -5.64590157
N       23.32955904      29.63251982      13.09951298       0.00000000       0.00000000      -0.10206629      -6.54647390
Al      23.32955904      29.63251982      14.99707583       0.00000000       0.00000000       0.10206629      -5.64590157
N       23.32955904      31.42843011      15.59902562      -0.00000000      -0.00000000      -0.10206629      -6.54647390
Al      23.32955904      31.42843011      17.49658847      -0.00000000      -0.00000000       0.10206629      -5.64590157
N       23.32955904      29.63251982      18.09853826       0.00000000       0.00000000      -0.10206629      -6.54647390
Al      23.32955904      29.63251982      19.99610111       0.00000000       0.00000000       0.10206629      -5.64590157
N       23.32955904      31.42843011      20.59805090      -0.00000000      -0.00000000      -0.10206629      -6.54647390
Al      23.32955904      31.42843011      22.49561374      -0.00000000      -0.00000000       0.10206629      -5.64590157
N       23.32955904      29.63251982      23.09756354       0.00000000       0.00000000      -0.10206629      -6.54647390
Al      23.32955904      29.63251982      24.99512638       0.00000000       0.00000000       0.10206629      -5.64590157
N       23.32955904      31.42843011      25.59707618      -0.00000000      -0.00000000      -0.10206629      -6.54647390
Al      23.32955904      31.42843011      27.49463902      -0.00000000      -0.00000000       0.10206629      -5.64590157
N       23.32955904      29.63251982      28.09658881       0.00000000       0.00000000      -0.10206629      -6.54647390
Al      23.32955904      29.63251982      29.99415166       0.00000000       0.00000000       0.10206629      -5.64590157
N       23.32955904      31.42843011      30.59610145      -0.00000000      -0.00000000      -0.10206629      -6.54647390
Al      23.32955904      31.42843011      32.49366430      -0.00000000      -0.00000000       0.10206629      -5.64590157
N       23.32955904      29.63251982      33.09561409       0.00000000       0.00000000      -0.10206629      -6.54647390
Al      23.32955904      29.63251982      34.99317694       0.00000000       0.00000000       0.10206629      -5.64590157
N       23.32955904      31.42843011      35.59512673      -0.00000000      -0.00000000      -0.10206629      -6.54647390
Al      23.32955904      31.42843011      37.49268957      -0.00000000      -0.00000000       0.10206629      -5.64590157
N       23.32955904      29.63251982      38.09463937       0.00000000       0.00000000      -0.10206629      -6.54647390
Al      23.32955904      29.63251982      39.99220221       0.00000000       0.00000000       0.10206629      -5.64590157
N       23.32955904      31.42843011      40.59415201      -0.00000000      -0.00000000      -0.10206629      -6.54647390
Al      23.32955904      31.42843011      42.49171485      -0.00000000      -0.00000000       0.10206629      -5.64590157
N       23.32955904      29.63251982      43.09366464       0.00000000       0.00000000      -0.10206629      -6.54647390
Al      21.77425510      32.32638525      -0.00000000       0.00000000       0.00000000       0.10206629      -5.64590157
N       21.77425510      34.12229555       0.60194979       0.00000000       0.00000000      -0.10206629      -6.54647390
Al      21.77425510      34.12229555       2.49951264       0.00000000      -0.00000000       0.10206629      -5.64590157
N       21.77425510      32.32638525       3.10146243       0.00000000       0.00000000      -0.10206629      -6.54647390
Al      21.77425510      32.32638525       4.99902528       0.00000000       0.00000000       0.10206629      -5.64590157
N       21.77425510      34.12229555       5.60097507       0.00000000       0.00000000      -0.10206629      -6.54647390
Al      21.77425510      34.12229555       7.49853791       0.00000000       0.00000000       0.10206629      -5.64590157
N       21.77425510      32.32638525       8.10048771       0.00000000       0.00000000      -0.10206629      -6.54647390
Al      21.77425510      32.32638525       9.99805055       0.00000000       0.00000000       0.10206629      -5.64590157
N       21.77425510      34.12229555      10.60000035       0.00000000       0.00000000      -0.10206629      -6.54647390
Al      21.77425510      34.12229555      12.49756319       0.00000000       0.00000000       0.10206629      -5.64590157
N       21.77425510      32.32638525      13.09951298       0.00000000       0.00000000      -0.10206629      -6.54647390
Al      21.77425510      32.32638525      14.99707583       0.00000000       0.00000000       0.10206629      -5.64590157
N       21.77425510      34.12229555      15.59902562       0.00000000      -0.00000000      -0.10206629      -6.54647390
Al      21.77425510      34.12229555      17.49658847       0.00000000       0.00000000       0.10206629      -5.64590157
N       21.77425510      32.32638525      18.09853826       0.00000000       0.00000000      -0.10206629      -6.54647390
Al      21.77425510      32.32638525      19.99610111       0.00000000       0.00000000       0.10206629      -5.64590157
N       21.77425510      34.12229555      20.59805090       0.00000000       0.00000000      -0.10206629      -6.54647390
Al      21.77425510      34.12229555      22.49561374       0.00000000       0.00000000       0.10206629      -5.64590157
N       21.77425510      32.32638525      23.09756354       0.00000000       0.00000000      -0.10206629      -6.54647390
Al      21.77425510      32.32638525      24.99512638       0.00000000       0.00000000       0.10206629      -5.64590157
N       21.77425510      34.12229555      25.59707618       0.00000000       0.00000000      -0.10206629      -6.54647390
Al      21.77425510      34.12229555      27.49463902       0.00000000       0.00000000       0.10206629      -5.64590157
N       21.77425510      32.32638525      28.09658881       0.00000000       0.00000000      -0.10206629      -6.54647390
Al      21.77425510      32.32638525      29.99415166       0.00000000       0.00000000       0.10206629      -5.64590157
N       21.77425510      34.12229555      30.59610145       0.00000000      -0.00000000      -0.10206629      -6.54647390
Al      21.77425510      34.12229555      32.49366430       0.00000000       0.00000000       0.10206629      -5.64590157
N       21.77425510      32.32638525      33.09561409       0.00000000       0.00000000      -0.10206629      -6.54647390
Al      21.77425510      32.32638525      34.99317694       0.00000000       0.00000000       0.10206629      -5.64590157
N       21.77425510      34.12229555      35.59512673       0.00000000      -0.00000000      -0.10206629      -6.54647390
Al      21.77425510      34.12229555      37.49268957       0.00000000       0.00000000       0.10206629      -5.64590157
N       21.77425510      32.32638525      38.09463937       0.00000000       0.00000000      -0.10206629      -6.54647390
Al      21.77425510      32.32638525      39.99220221       0.00000000       0.00000000       0.10206629      -5.64590157
N       21.77425510      34.12229555      40.59415201       0.00000000      -0.00000000      -0.10206629      -6.54647390
Al      21.77425510      34.12229555      42.49171485       0.00000000       0.00000000       0.10206629      -5.64590157
N       21.77425510      32.32638525      43.09366464       0.00000000       0.00000000      -0.10206629      -6.54647390
Al      20.21895116      35.02025069      -0.00000000       0.00000000       0.00000000       0.10206629      -5.64590157
N       20.21895116      36.81616098       0.60194979      -0.00000000      -0.00000000      -0.10206629      -6.54647390
Al      20.21895116      36.81616098       2.49951264      -0.00000000      -0.00000000       0.10206629      -5.64590157
N       20.21895116      35.02025069       3.10146243       0.00000000       0.00000000      -0.10206629      -6.54647390
Al      20.21895116      35.02025069       4.99902528       0.00000000       0.00000000       0.10206629      -5.64590157
N       20.21895116      36.81616098       5.60097507      -0.00000000      -0.00000000      -0.10206629      -6.54647390
Al      20.21895116      36.81616098       7.49853791      -0.00000000      -0.00000000       0.10206629      -5.64590157
N       20.21895116      35.02025069       8.10048771       0.00000000       0.00000000      -0.10206629      -6.54647390
Al      20.21895116      35.02025069       9.99805055      -0.00000000       0.00000000       0.10206629      -5.64590157
N       20.21895116      36.81616098      10.60000035      -0.00000000      -0.00000000      -0.10206629      -6.54647390
Al      20.21895116      36.81616098      12.49756319      -0.00000000      -0.00000000       0.10206629      -5.64590157
N       20.21895116      35.02025069      13.09951298       0.00000000       0.00000000      -0.10206629      -6.54647390
Al      20.21895116      35.02025069      14.99707583       0.00000000       0.00000000       0.10206629      -5.64590157
N       20.21895116      36.81616098      15.59902562      -0.00000000      -0.00000000      -0.10206629      -6.54647390
Al      20.21895116      36.81616098      17.49658847      -0.00000000      -0.00000000       0.10206629      -5.64590157
N       20.21895116      35.02025069      18.09853826       0.00000000       0.00000000      -0.10206629      -6.54647390
Al      20.21895116      35.02025069      19.99610111       0.00000000       0.00000000       0.10206629      -5.64590157
N       20.21895116      36.81616098      20.59805090      -0.00000000      -0.00000000      -0.10206629      -6.54647390
Al      20.21895116      36.81616098      22.49561374      -0.00000000      -0.00000000       0.10206629      -5.64590157
N       20.21895116      35.02025069      23.09756354       0.00000000       0.00000000      -0.10206629      -6.54647390
Al      20.21895116      35.02025069      24.99512638       0.00000000       0.00000000       0.10206629      -5.64590157
N       20.21895116      36.81616098      25.59707618      -0.00000000       0.00000000      -0.10206629      -6.54647390
Al      20.21895116      36.81616098      27.49463902      -0.00000000      -0.00000000       0.10206629      -5.64590157
N       20.21895116      35.02025069      28.09658881       0.00000000       0.00000000      -0.10206629      -6.54647390
Al      20.21895116      35.02025069      29.99415166       0.00000000       0.00000000       0.10206629      -5.64590157
N       20.21895116      36.81616098      30.59610145      -0.00000000      -0.00000000      -0.10206629      -6.54647390
Al      20.21895116      36.81616098      32.49366430      -0.00000000      -0.00000000       0.10206629      -5.64590157
N       20.21895116      35.02025069      33.09561409       0.00000000       0.00000000      -0.10206629      -6.54647390
Al      20.21895116      35.02025069      34.99317694       0.00000000       0.00000000       0.10206629      -5.64590157
N       20.21895116      36.81616098      35.59512673      -0.00000000      -0.00000000      -0.10206629      -6.54647390
Al      20.21895116      36.81616098      37.49268957      -0.00000000      -0.00000000       0.10206629      -5.64590157
N       20.21895116      35.02025069      38.09463937       0.00000000       0.00000000      -0.10206629      -6.54647390
Al      20.21895116      35.02025069      39.99220221       0.00000000       0.00000000       0.10206629      -5.64590157
N       20.21895116      36.81616098      40.59415201      -0.00000000      -0.00000000      -0.10206629      -6.54647390
Al      20.21895116      36.81616098      42.49171485      -0.00000000      -0.00000000       0.10206629      -5.64590157
N       20.21895116      35.02025069      43.09366464       0.00000000       0.00000000      -0.10206629      -6.54647390
Al      18.66364723      37.71411613      -0.00000000       0.00000000      -0.00000000       0.10206629      -5.64590157
N       18.66364723      39.51002642       0.60194979       0.00000000       0.00000000      -0.10206629      -6.54647390
Al      18.66364723      39.51002642       2.49951264       0.00000000       0.00000000       0.10206629      -5.64590157
N       18.66364723      37.71411613       3.10146243       0.00000000      -0.00000000      -0.10206629      -6.54647390
Al      18.66364723      37.71411613       4.99902528       0.00000000      -0.00000000       0.10206629      -5.64590157
N       18.66364723      39.51002642       5.60097507       0.00000000       0.00000000      -0.10206629      -6.54647390
Al      18.66364723      39.51002642       7.49853791       0.00000000       0.00000000       0.10206629      -5.64590157
N       18.66364723      37.71411613       8.10048771       0.00000000      -0.00000000      -0.10206629      -6.54647390
Al      18.66364723      37.71411613       9.99805055       0.00000000      -0.00000000       0.10206629      -5.64590157
N       18.66364723      39.51002642      10.60000035       0.00000000       0.00000000      -0.10206629      -6.54647390
Al      18.66364723      39.51002642      12.49756319       0.00000000       0.00000000       0.10206629      -5.64590157
N       18.66364723      37.71411613      13.09951298       0.00000000      -0.00000000      -0.10206629      -6.54647390
Al      18.66364723      37.71411613      14.99707583       0.00000000      -0.00000000       0.10206629      -5.64590157
N       18.66364723      39.51002642      15.59902562       0.00000000       0.00000000      -0.10206629      -6.54647390
Al      18.66364723      39.51002642      17.49658847       0.00000000       0.00000000       0.10206629      -5.64590157
N       18.66364723      37.71411613      18.09853826       0.00000000      -0.00000000      -0.10206629      -6.54647390
Al      18.66364723      37.71411613      19.99610111       0.00000000      -0.00000000       0.10206629      -5.64590157
N       18.66364723      39.51002642      20.59805090       0.00000000       0.00000000      -0.10206629      -6.54647390
Al      18.66364723      39.51002642      22.49561374       0.00000000       0.00000000       0.10206629      -5.64590157
N       18.66364723      37.71411613      23.09756354       0.00000000      -0.00000000      -0.10206629      -6.54647390
Al      18.66364723      37.71411613      24.99512638       0.00000000      -0.00000000       0.10206629      -5.64590157
N       18.66364723      39.51002642      25.59707618       0.00000000       0.00000000      -0.10206629      -6.54647390
Al      18.66364723      39.51002642      27.49463902       0.00000000       0.00000000       0.10206629      -5.64590157
N       18.66364723      37.71411613      28.09658881       0.00000000      -0.00000000      -0.10206629      -6.54647390
Al      18.66364723      37.71411613      29.99415166       0.00000000      -0.00000000       0.10206629      -5.64590157
N       18.66364723      39.51002642      30.59610145       0.00000000       0.00000000      -0.10206629      -6.54647390
Al      18.66364723      39.51002642      32.49366430       0.00000000       0.00000000       0.10206629      -5.64590157
N       18.66364723      37.71411613      33.09561409       0.00000000      -0.00000000      -0.10206629      -6.54647390
Al      18.66364723      37.71411613      34.99317694       0.00000000      -0.00000000       0.10206629      -5.64590157
N       18.66364723      39.51002642      35.59512673       0.00000000       0.00000000      -0.10206629      -6.54647390
Al      18.66364723      39.51002642      37.49268957       0.00000000       0.00000000       0.10206629      -5.64590157
N       18.66364723      37.71411613      38.09463937       0.00000000      -0.00000000      -0.10206629      -6.54647390
Al      18.66364723      37.71411613      39.99220221       0.00000000      -0.00000000       0.10206629      -5.64590157
N       18.66364723      39.51002642      40.59415201       0.00000000       0.00000000      -0.10206629      -6.54647390
Al      18.66364723      39.51002642      42.49171485       0.00000000       0.00000000       0.10206629      -5.64590157
N       18.66364723      37.71411613      43.09366464       0.00000000      -0.00000000      -0.10206629      -6.54647390
Al      43.54851020      -0.00000000       0.00000000      -0.00000000      -0.00000000       0.10206629      -5.64590157
N       43.54851020       1.79591029       0.60194979      -0.00000000      -0.00000000      -0.10206629      -6.54647390
Al      43.54851020       1.79591029       2.49951264      -0.00000000      -0.00000000       0.10206629      -5.64590157
N       43.54851020      -0.00000000       3.10146243      -0.00000000      -0.00000000      -0.10206629      -6.54647390
Al      43.54851020      -0.00000000       4.99902528      -0.00000000      -0.00000000       0.10206629      -5.64590157
N       43.54851020       1.79591029       5.60097507      -0.00000000      -0.00000000      -0.10206629      -6.54647390
Al      43.54851020       1.79591029       7.49853791      -0.00000000      -0.00000000       0.10206629      -5.64590157
N       43.54851020      -0.00000000       8.10048771      -0.00000000      -0.00000000      -0.10206629      -6.54647390
Al      43.54851020      -0.00000000       9.99805055      -0.00000000      -0.00000000       0.10206629      -5.64590157
N       43.54851020       1.79591029      10.60000035      -0.00000000      -0.00000000      -0.10206629      -6.54647390
Al      43.54851020       1.79591029      12.49756319      -0.00000000      -0.00000000       0.10206629      -5.64590157
N       43.54851020      -0.00000000      13.09951298      -0.00000000      -0.00000000      -0.10206629      -6.54647390
Al      43.54851020      -0.00000000      14.99707583      -0.00000000      -0.00000000       0.10206629      -5.64590157
N       43.54851020       1.79591029      15.59902562      -0.00000000      -0.00000000      -0.10206629      -6.54647390
Al      43.54851020       1.79591029      17.49658847      -0.00000000      -0.00000000       0.10206629      -5.64590157
N       43.54851020      -0.00000000      18.09853826      -0.00000000      -0.00000000      -0.10206629      -6.54647390
Al      43.54851020      -0.00000000      19.99610111      -0.00000000      -0.00000000       0.10206629      -5.64590157
N       43.54851020       1.79591029      20.59805090      -0.00000000      -0.00000000      -0.10206629      -6.54647390
Al      43.54851020       1.79591029      22.49561374      -0.00000000      -0.00000000       0.10206629      -5.64590157
N       43.54851020      -0.00000000      23.09756354      -0.00000000      -0.00000000      -0.10206629      -6.54647390
Al      43.54851020      -0.00000000      24.99512638      -0.00000000      -0.00000000       0.10206629      -5.64590157
N       43.54851020       1.79591029      25.59707618      -0.00000000      -0.00000000      -0.10206629      -6.54647390
Al      43.54851020       1.79591029      27.49463902      -0.00000000      -0.00000000       0.10206629      -5.64590157
N       43.54851020      -0.00000000      28.09658881      -0.00000000      -0.00000000      -0.10206629      -6.54647390
Al      43.54851020      -0.00000000      29.99415166      -0.00000000      -0.00000000       0.10206629      -5.64590157
N       43.54851020       1.79591029      30.59610145      -0.00000000      -0.00000000      -0.10206629      -6.54647390
Al      43.54851020       1.79591029      32.49366430      -0.00000000      -0.00000000       0.10206629      -5.64590157
N       43.54851020      -0.00000000      33.09561409      -0.00000000      -0.00000000      -0.10206629      -6.54647390
Al      43.54851020      -0.00000000      34.99317694      -0.00000000      -0.00000000       0.10206629      -5.64590157
N       43.54851020       1.79591029      35.59512673      -0.00000000      -0.00000000      -0.10206629      -6.54647390
Al      43.54851020       1.79591029      37.49268957      -0.00000000      -0.00000000       0.10206629      -5.64590157
N       43.54851020      -0.00000000      38.09463937      -0.00000000      -0.00000000      -0.10206629      -6.54647390
Al      43.54851020      -0.00000000      39.99220221      -0.00000000      -0.00000000       0.10206629      -5.64590157
N       43.54851020       1.79591029      40.59415201      -0.00000000      -0.00000000      -0.10206629      -6.54647390
Al      43.54851020       1.79591029      42.49171485      -0.00000000      -0.00000000       0.10206629      -5.64590157
N       43.54851020      -0.00000000      43.09366464      -0.00000000      -0.00000000      -0.10206629      -6.54647390
Al      41.99320626       2.69386544       0.00000000       0.00000000      -0.00000000       0.10206629      -5.64590157
N       41.99320626       4.48977573       0.60194979      -0.00000000       0.00000000      -0.10206629      -6.54647390
Al      41.99320626       4.48977573       2.49951264      -0.00000000      -0.00000000       0.10206629      -5.64590157
N       41.99320626       2.69386544       3.10146243       0.00000000      -0.00000000      -0.10206629      -6.54647390
Al      41.99320626       2.69386544       4.99902528       0.00000000      -0.00000000       0.10206629      -5.64590157
N       41.99320626       4.48977573       5.60097507      -0.00000000      -0.00000000      -0.10206629      -6.54647390
Al      41.99320626       4.48977573       7.49853791      -0.00000000      -0.00000000       0.10206629      -5.64590157
N       41.99320626       2.69386544       8.10048771       0.00000000      -0.00000000      -0.10206629      -6.54647390
Al      41.99320626       2.69386544       9.99805055       0.00000000      -0.00000000       0.10206629      -5.64590157
N       41.99320626       4.48977573      10.60000035      -0.00000000       0.00000000      -0.10206629      -6.54647390
Al      41.99320626       4.48977573      12.49756319      -0.00000000      -0.00000000       0.10206629      -5.64590157
N       41.99320626       2.69386544      13.09951298       0.00000000      -0.00000000      -0.10206629      -6.54647390
Al      41.99320626       2.69386544      14.99707583       0.00000000      -0.00000000       0.10206629      -5.64590157
N       41.99320626       4.48977573      15.59902562      -0.00000000       0.00000000      -0.10206629      -6.54647390
Al      41.99320626       4.48977573      17.49658847      -0.00000000      -0.00000000       0.10206629      -5.64590157
N       41.99320626       2.69386544      18.09853826       0.00000000       0.00000000      -0.10206629      -6.54647390
Al      41.99320626       2.69386544      19.99610111       0.00000000      -0.00000000       0.10206629      -5.64590157
N       41.99320626       4.48977573      20.59805090      -0.00000000       0.00000000      -0.10206629      -6.54647390
Al      41.99320626       4.48977573      22.49561374      -0.00000000      -0.00000000       0.10206629      -5.64590157
N       41.99320626       2.69386544      23.09756354       0.00000000       0.00000000      -0.10206629      -6.54647390
Al      41.99320626       2.69386544      24.99512638       0.00000000      -0.00000000       0.10206629      -5.64590157
N       41.99320626       4.48977573      25.59707618      -0.00000000       0.00000000      -0.10206629      -6.54647390
Al      41.99320626       4.48977573      27.49463902      -0.00000000      -0.00000000       0.10206629      -5.64590157
N       41.99320626       2.69386544      28.09658881       0.00000000       0.00000000      -0.10206629      -6.54647390
Al      41.99320626       2.69386544      29.99415166       0.00000000      -0.00000000       0.10206629      -5.64590157
N       41.99320626       4.48977573      30.59610145      -0.00000000       0.00000000      -0.10206629      -6.54647390
Al      41.99320626       4.48977573      32.49366430      -0.00000000      -0.00000000       0.10206629      -5.64590157
N       41.99320626       2.69386544      33.09561409       0.00000000       0.00000000      -0.10206629      -6.54647390
Al      41.99320626       2.69386544      34.99317694       0.00000000      -0.00000000       0.10206629      -5.64590157
N       41.99320626       4.48977573      35.59512673      -0.00000000       0.00000000      -0.10206629      -6.54647390
Al      41.99320626       4.48977573      37.49268957      -0.00000000      -0.00000000       0.10206629      -5.64590157
N       41.99320626       2.69386544      38.09463937       0.00000000       0.00000000      -0.10206629      -6.54647390
Al      41.99320626       2.69386544      39.99220221       0.00000000      -0.00000000       0.10206629      -5.64590157
N       41.99320626       4.48977573      40.59415201      -0.00000000      -0.00000000      -0.10206629      -6.54647390
Al      41.99320626       4.48977573      42.49171485      -0.00000000      -0.00000000       0.10206629      -5.64590157
N       41.99320626       2.69386544      43.09366464       0.00000000      -0.00000000      -0.10206629      -6.54647390
Al      40.43790233       5.38773088       0.00000000       0.00000000      -0.00000000       0.10206629      -5.64590157
N       40.43790233       7.18364117       0.60194979      -0.00000000      -0.00000000      -0.10206629      -6.54647390
Al      40.43790233       7.18364117       2.49951264      -0.00000000      -0.00000000       0.10206629      -5.64590157
N       40.43790233       5.38773088       3.10146243       0.00000000      -0.00000000      -0.10206629      -6.54647390
Al      40.43790233       5.38773088       4.99902528       0.00000000      -0.00000000       0.10206629      -5.64590157
N       40.43790233       7.18364117       5.60097507      -0.00000000      -0.00000000      -0.10206629      -6.54647390
Al      40.43790233       7.18364117       7.49853791      -0.00000000      -0.00000000       0.10206629      -5.64590157
N       40.43790233       5.38773088       8.10048771       0.00000000       0.00000000      -0.10206629      -6.54647390
Al      40.43790233       5.38773088       9.99805055       0.00000000      -0.00000000       0.10206629      -5.64590157
N       40.43790233       7.18364117      10.60000035      -0.00000000      -0.00000000      -0.10206629      -6.54647390
Al      40.43790233       7.18364117      12.49756319      -0.00000000      -0.00000000       0.10206629      -5.64590157
N       40.43790233       5.38773088      13.09951298       0.00000000       0.00000000      -0.10206629      -6.54647390
Al      40.43790233       5.38773088      14.99707583       0.00000000      -0.00000000       0.10206629      -5.64590157
N       40.43790233       7.18364117      15.59902562      -0.00000000      -0.00000000      -0.10206629      -6.54647390
Al      40.43790233       7.18364117      17.49658847      -0.00000000      -0.00000000       0.10206629      -5.64590157
N       40.43790233       5.38773088      18.09853826       0.00000000       0.00000000      -0.10206629      -6.54647390
Al      40.43790233       5.38773088      19.99610111       0.00000000      -0.00000000       0.10206629      -5.64590157
N       40.43790233       7.18364117      20.59805090      -0.00000000      -0.00000000      -0.10206629      -6.54647390
Al      40.43790233       7.18364117      22.49561374      -0.00000000      -0.00000000       0.10206629      -5.64590157
N       40.43790233       5.38773088      23.09756354       0.00000000      -0.00000000      -0.10206629      -6.54647390
Al      40.43790233       5.38773088      24.99512638       0.00000000      -0.00000000       0.10206629      -5.64590157
N       40.43790233       7.18364117      25.59707618      -0.00000000      -0.00000000      -0.10206629      -6.54647390
Al      40.43790233       7.18364117      27.49463902      -0.00000000      -0.00000000       0.10206629      -5.64590157
N       40.43790233       5.38773088      28.09658881       0.00000000      -0.00000000      -0.10206629      -6.54647390
Al      40.43790233       5.38773088      29.99415166       0.00000000      -0.00000000       0.10206629      -5.64590157
N       40.43790233       7.18364117      30.59610145      -0.00000000      -0.00000000      -0.10206629      -6.54647390
Al      40.43790233       7.18364117      32.49366430      -0.00000000      -0.00000000       0.10206629      -5.64590157
N       40.43790233       5.38773088      33.09561409       0.00000000      -0.00000000      -0.10206629      -6.54647390
Al      40.43790233       5.38773088      34.99317694       0.00000000      -0.00000000       0.10206629      -5.64590157
N       40.43790233       7.18364117      35.59512673      -0.00000000      -0.00000000      -0.10206629      -6.54647390
Al      40.43790233       7.18364117      37.49268957      -0.00000000      -0.00000000       0.10206629      -5.64590157
N       40.43790233       5.38773088      38.09463937       0.00000000       0.00000000      -0.10206629      -6.54647390
Al      40.43790233       5.38773088      39.99220221       0.00000000      -0.00000000       0.10206629      -5.64590157
N       40.43790233       7.18364117      40.59415201      -0.00000000      -0.00000000      -0.10206629      -6.54647390
Al      40.43790233       7.18364117      42.49171485      -0.00000000      -0.00000000       0.10206629      -5.64590157
N       40.43790233       5.38773088      43.09366464       0.00000000       0.00000000      -0.10206629      -6.54647390
Al      38.88259839       8.08159631       0.00000000      -0.00000000      -0.00000000       0.10206629      -5.64590157
N       38.88259839       9.87750661       0.60194979      -0.00000000      -0.00000000      -0.10206629      -6.54647390
Al      38.88259839       9.87750661       2.49951264      -0.00000000      -0.00000000       0.10206629      -5.64590157
N       38.88259839       8.08159631       3.10146243      -0.00000000      -0.00000000      -0.10206629      -6.54647390
Al      38.88259839       8.08159631       4.99902528      -0.00000000      -0.00000000       0.10206629      -5.64590157
N       38.88259839       9.87750661       5.60097507      -0.00000000      -0.00000000      -0.10206629      -6.54647390
Al      38.88259839       9.87750661       7.49853791      -0.00000000      -0.00000000       0.10206629      -5.64590157
N       38.88259839       8.08159631       8.10048771      -0.00000000      -0.00000000      -0.10206629      -6.54647390
Al      38.88259839       8.08159631       9.99805055      -0.00000000      -0.00000000       0.10206629      -5.64590157
N       38.88259839       9.87750661      10.60000035      -0.00000000      -0.00000000      -0.10206629      -6.54647390
Al      38.88259839       9.87750661      12.49756319      -0.00000000      -0.00000000       0.10206629      -5.64590157
N       38.88259839       8.08159631      13.09951298      -0.00000000      -0.00000000      -0.10206629      -6.54647390
Al      38.88259839       8.08159631      14.99707583      -0.00000000      -0.00000000       0.10206629      -5.64590157
N       38.88259839       9.87750661      15.59902562      -0.00000000      -0.00000000      -0.10206629      -6.54647390
Al      38.88259839       9.87750661      17.49658847      -0.00000000      -0.00000000       0.10206629      -5.64590157
N       38.88259839       8.08159631      18.09853826      -0.00000000      -0.00000000      -0.10206629      -6.54647390
Al      38.88259839       8.08159631      19.99610111      -0.00000000      -0.00000000       0.10206629      -5.64590157
N       38.88259839       9.87750661      20.59805090      -0.00000000      -0.00000000      -0.10206629      -6.54647390
Al      38.88259839       9.87750661      22.49561374      -0.00000000      -0.00000000       0.10206629      -5.64590157
N       38.88259839       8.08159631      23.09756354      -0.00000000      -0.00000000      -0.10206629      -6.54647390
Al      38.88259839       8.08159631      24.99512638      -0.00000000      -0.00000000       0.10206629      -5.64590157
N       38.88259839       9.87750661      25.59707618      -0.00000000      -0.00000000      -0.10206629      -6.54647390
Al      38.88259839       9.87750661      27.49463902      -0.00000000      -0.00000000       0.10206629      -5.64590157
N       38.88259839       8.08159631      28.09658881      -0.00000000      -0.00000000      -0.10206629      -6.54647390
Al      38.88259839       8.08159631      29.99415166      -0.00000000      -0.00000000       0.10206629      -5.64590157
N       38.88259839       9.87750661      30.59610145      -0.00000000      -0.00000000      -0.10206629      -6.54647390
Al      38.88259839       9.87750661      32.49366430      -0.00000000      -0.00000000       0.10206629      -5.64590157
N       38.88259839       8.08159631      33.09561409      -0.00000000      -0.00000000      -0.10206629      -6.54647390
Al      38.88259839       8.08159631      34.99317694      -0.00000000      -0.00000000       0.10206629      -5.64590157
N       38.88259839       9.87750661      35.59512673      -0.00000000      -0.00000000      -0.10206629      -6.54647390
Al      38.88259839       9.87750661      37.49268957      -0.00000000      -0.00000000       0.10206629      -5.64590157
N       38.88259839       8.08159631      38.09463937      -0.00000000      -0.00000000      -0.10206629      -6.54647390
Al      38.88259839       8.08159631      39.99220221      -0.00000000      -0.00000000       0.10206629      -5.64590157
N       38.88259839       9.87750661      40.59415201      -0.00000000      -0.00000000      -0.10206629      -6.54647390
Al      38.88259839       9.87750661      42.49171485      -0.00000000      -0.00000000       0.10206629      -5.64590157
N       38.88259839       8.08159631      43.09366464      -0.00000000      -0.00000000      -0.10206629      -6.54647390
Al      37.32729446      10.77546175       0.00000000       0.00000000       0.00000000       0.10206629      -5.64590157
N       37.32729446      12.57137204       0.60194979      -0.00000000      -0.00000000      -0.10206629      -6.54647390
Al      37.32729446      12.57137204       2.49951264      -0.00000000      -0.00000000       0.10206629      -5.64590157
N       37.32729446      10.77546175       3.10146243      -0.00000000       0.00000000      -0.10206629      -6.54647390
Al      37.32729446      10.77546175       4.99902528      -0.00000000      -0.00000000       0.10206629      -5.64590157
N       37.32729446      12.57137204       5.60097507      -0.00000000      -0.00000000      -0.10206629      -6.54647390
Al      37.32729446      12.57137204       7.49853791      -0.00000000      -0.00000000       0.10206629      -5.64590157
N       37.32729446      10.77546175       8.10048771      -0.00000000       0.00000000      -0.10206629      -6.54647390
Al      37.32729446      10.77546175       9.99805055      -0.00000000      -0.00000000       0.10206629      -5.64590157
N       37.32729446      12.57137204      10.60000035      -0.00000000      -0.00000000      -0.10206629      -6.54647390
Al      37.32729446      12.57137204      12.49756319      -0.00000000      -0.00000000       0.10206629      -5.64590157
N       37.32729446      10.77546175      13.09951298       0.00000000       0.00000000      -0.10206629      -6.54647390
Al      37.32729446      10.77546175      14.99707583       0.00000000      -0.00000000       0.10206629      -5.64590157
N       37.32729446      12.57137204      15.59902562      -0.00000000      -0.00000000      -0.10206629      -6.54647390
Al      37.32729446      12.57137204      17.49658847      -0.00000000      -0.00000000       0.10206629      -5.64590157
N       37.32729446      10.77546175      18.09853826       0.00000000       0.00000000      -0.10206629      -6.54647390
Al      37.32729446      10.77546175      19.99610111      -0.00000000      -0.00000000       0.10206629      -5.64590157
N       37.32729446      12.57137204      20.59805090      -0.00000000      -0.00000000      -0.10206629      -6.54647390
Al      37.32729446      12.57137204      22.49561374      -0.00000000      -0.00000000       0.10206629      -5.64590157
N       37.32729446      10.77546175      23.09756354       0.00000000       0.00000000      -0.10206629      -6.54647390
Al      37.32729446      10.77546175      24.99512638       0.00000000       0.00000000       0.10206629      -5.64590157
N       37.32729446      12.57137204      25.59707618      -0.00000000      -0.00000000      -0.10206629      -6.54647390
Al      37.32729446      12.57137204      27.49463902      -0.00000000      -0.00000000       0.10206629      -5.64590157
N       37.32729446      10.77546175      28.09658881      -0.00000000       0.00000000      -0.10206629      -6.54647390
Al      37.32729446      10.77546175      29.99415166      -0.00000000       0.00000000       0.10206629      -5.64590157
N       37.32729446      12.57137204      30.59610145      -0.00000000      -0.00000000      -0.10206629      -6.54647390
Al      37.32729446      12.57137204      32.49366430      -0.00000000      -0.00000000       0.10206629      -5.64590157
N       37.32729446      10.77546175      33.09561409       0.00000000       0.00000000      -0.10206629      -6.54647390
Al      37.32729446      10.77546175      34.99317694      -0.00000000       0.00000000       0.10206629      -5.64590157
N       37.32729446      12.57137204      35.59512673      -0.00000000      -0.00000000      -0.10206629      -6.54647390
Al      37.32729446      12.57137204      37.49268957      -0.00000000      -0.00000000       0.10206629      -5.64590157
N       37.32729446      10.77546175      38.09463937       0.00000000       0.00000000      -0.10206629      -6.54647390
Al      37.32729446      10.77546175      39.99220221      -0.00000000       0.00000000       0.10206629      -5.64590157
N       37.32729446      12.57137204      40.59415201      -0.00000000      -0.00000000      -0.10206629      -6.54647390
Al      37.32729446      12.57137204      42.49171485      -0.00000000      -0.00000000       0.10206629      -5.64590157
N       37.32729446      10.77546175      43.09366464       0.00000000       0.00000000      -0.10206629      -6.54647390
Al      35.77199052      13.46932719       0.00000000       0.00000000      -0.00000000       0.10206629      -5.64590157
N       35.77199052      15.26523748       0.60194979      -0.00000000      -0.00000000      -0.10206629      -6.54647390
Al      35.77199052      15.26523748       2.49951264      -0.00000000      -0.00000000       0.10206629      -5.64590157
N       35.77199052      13.46932719       3.10146243       0.00000000      -0.00000000      -0.10206629      -6.54647390
Al      35.77199052      13.46932719       4.99902528       0.00000000      -0.00000000       0.10206629      -5.64590157
N       35.77199052      15.26523748       5.60097507      -0.00000000      -0.00000000      -0.10206629      -6.54647390
Al      35.77199052      15.26523748       7.49853791      -0.00000000      -0.00000000       0.10206629      -5.64590157
N       35.77199052      13.46932719       8.10048771       0.00000000      -0.00000000      -0.10206629      -6.54647390
Al      35.77199052      13.46932719       9.99805055       0.00000000      -0.00000000       0.10206629      -5.64590157
N       35.77199052      15.26523748      10.60000035      -0.00000000      -0.00000000      -0.10206629      -6.54647390
Al      35.77199052      15.26523748      12.49756319      -0.00000000      -0.00000000       0.10206629      -5.64590157
N       35.77199052      13.46932719      13.09951298       0.00000000      -0.00000000      -0.10206629      -6.54647390
Al      35.77199052      13.46932719      14.99707583       0.00000000      -0.00000000       0.10206629      -5.64590157
N       35.77199052      15.26523748      15.59902562      -0.00000000      -0.00000000      -0.10206629      -6.54647390
Al      35.77199052      15.26523748      17.49658847      -0.00000000      -0.00000000       0.10206629      -5.64590157
N       35.77199052      13.46932719      18.09853826       0.00000000      -0.00000000      -0.10206629      -6.54647390
Al      35.77199052      13.46932719      19.99610111       0.00000000      -0.00000000       0.10206629      -5.64590157
N       35.77199052      15.26523748      20.59805090      -0.00000000      -0.00000000      -0.10206629      -6.54647390
Al      35.77199052      15.26523748      22.49561374      -0.00000000      -0.00000000       0.10206629      -5.64590157
N       35.77199052      13.46932719      23.09756354       0.00000000      -0.00000000      -0.10206629      -6.54647390
Al      35.77199052      13.46932719      24.99512638       0.00000000      -0.00000000       0.10206629      -5.64590157
N       35.77199052      15.26523748      25.59707618      -0.00000000      -0.00000000      -0.10206629      -6.54647390
Al      35.77199052      15.26523748      27.49463902      -0.00000000      -0.00000000       0.10206629      -5.64590157
N       35.77199052      13.46932719      28.09658881       0.00000000      -0.00000000      -0.10206629      -6.54647390
Al      35.77199052      13.46932719      29.99415166       0.00000000      -0.00000000       0.10206629      -5.64590157
N       35.77199052      15.26523748      30.59610145      -0.00000000      -0.00000000      -0.10206629      -6.54647390
Al      35.77199052      15.26523748      32.49366430      -0.00000000      -0.00000000       0.10206629      -5.64590157
N       35.77199052      13.46932719      33.09561409       0.00000000      -0.00000000      -0.10206629      -6.54647390
Al      35.77199052      13.46932719      34.99317694       0.00000000      -0.00000000       0.10206629      -5.64590157
N       35.77199052      15.26523748      35.59512673      -0.00000000      -0.00000000      -0.10206629      -6.54647390
Al      35.77199052      15.26523748      37.49268957      -0.00000000      -0.00000000       0.10206629      -5.64590157
N       35.77199052      13.46932719      38.09463937       0.00000000      -0.00000000      -0.10206629      -6.54647390
Al      35.77199052      13.46932719      39.99220221       0.00000000      -0.00000000       0.10206629      -5.64590157
N       35.77199052      15.26523748      40.59415201      -0.00000000      -0.00000000      -0.10206629      -6.54647390
Al      35.77199052      15.26523748      42.49171485      -0.00000000      -0.00000000       0.10206629      -5.64590157
N       35.77199052      13.46932719      43.09366464       0.00000000      -0.00000000      -0.10206629      -6.54647390
Al      34.21668659      16.16319263       0.00000000      -0.00000000       0.00000000       0.10206629      -5.64590157
N       34.21668659      17.95910292       0.60194979       0.00000000      -0.00000000      -0.10206629      -6.54647390
Al      34.21668659      17.95910292       2.49951264       0.00000000      -0.00000000       0.10206629      -5.64590157
N       34.21668659      16.16319263       3.10146243      -0.00000000       0.00000000      -0.10206629      -6.54647390
Al      34.21668659      16.16319263       4.99902528      -0.00000000       0.00000000       0.10206629      -5.64590157
N       34.21668659      17.95910292       5.60097507       0.00000000      -0.00000000      -0.10206629      -6.54647390
Al      34.21668659      17.95910292       7.49853791       0.00000000      -0.00000000       0.10206629      -5.64590157
N       34.21668659      16.16319263       8.10048771      -0.00000000       0.00000000      -0.10206629      -6.54647390
Al      34.21668659      16.16319263       9.99805055      -0.00000000       0.00000000       0.10206629      -5.64590157
N       34.21668659      17.95910292      10.60000035       0.00000000      -0.00000000      -0.10206629      -6.54647390
Al      34.21668659      17.95910292      12.49756319       0.00000000      -0.00000000       0.10206629      -5.64590157
N       34.21668659      16.16319263      13.09951298      -0.00000000       0.00000000      -0.10206629      -6.54647390
Al      34.21668659      16.16319263      14.99707583      -0.00000000       0.00000000       0.10206629      -5.64590157
N       34.21668659      17.95910292      15.59902562       0.00000000      -0.00000000      -0.10206629      -6.54647390
Al      34.21668659      17.95910292      17.49658847       0.00000000      -0.00000000       0.10206629      -5.64590157
N       34.21668659      16.16319263      18.09853826      -0.00000000       0.00000000      -0.10206629      -6.54647390
Al      34.21668659      16.16319263      19.99610111      -0.00000000       0.00000000       0.10206629      -5.64590157
N       34.21668659      17.95910292      20.59805090       0.00000000      -0.00000000      -0.10206629      -6.54647390
Al      34.21668659      17.95910292      22.49561374       0.00000000      -0.00000000       0.10206629      -5.64590157
N       34.21668659      16.16319263      23.09756354      -0.00000000       0.00000000      -0.10206629      -6.54647390
Al      34.21668659      16.16319263      24.99512638      -0.00000000       0.00000000       0.10206629      -5.64590157
N       34.21668659      17.95910292      25.59707618       0.00000000      -0.00000000      -0.10206629      -6.54647390
Al      34.21668659      17.95910292      27.49463902       0.00000000      -0.00000000       0.10206629      -5.64590157
N       34.21668659      16.16319263      28.09658881      -0.00000000       0.00000000      -0.10206629      -6.54647390
Al      34.21668659      16.16319263      29.99415166      -0.00000000       0.00000000       0.10206629      -5.64590157
N       34.21668659      17.95910292      30.59610145       0.00000000      -0.00000000      -0.10206629      -6.54647390
Al      34.21668659      17.95910292      32.49366430       0.00000000      -0.00000000       0.10206629      -5.64590157
N       34.21668659      16.16319263      33.09561409      -0.00000000       0.00000000      -0.10206629      -6.54647390
Al      34.21668659      16.16319263      34.99317694      -0.00000000       0.00000000       0.10206629      -5.64590157
N       34.21668659      17.95910292      35.59512673       0.00000000      -0.00000000      -0.10206629      -6.54647390
Al      34.21668659      17.95910292      37.49268957       0.00000000      -0.00000000       0.10206629      -5.64590157
N       34.21668659      16.16319263      38.09463937      -0.00000000       0.00000000      -0.10206629      -6.54647390
Al      34.21668659      16.16319263      39.99220221      -0.00000000       0.00000000       0.10206629      -5.64590157
N       34.21668659      17.95910292      40.59415201       0.00000000      -0.00000000      -0.10206629      -6.54647390
Al      34.21668659      17.95910292      42.49171485       0.00000000      -0.00000000       0.10206629      -5.64590157
N       34.21668659      16.16319263      43.09366464      -0.00000000       0.00000000      -0.10206629      -6.54647390
Al      32.66138265      18.85705806       0.00000000      -0.00000000      -0.00000000       0.10206629      -5.64590157
N       32.66138265      20.65296836       0.60194979      -0.00000000       0.00000000      -0.10206629      -6.54647390
Al      32.66138265      20.65296836       2.49951264      -0.00000000       0.00000000       0.10206629      -5.64590157
N       32.66138265      18.85705806       3.10146243      -0.00000000      -0.00000000      -0.10206629      -6.54647390
Al      32.66138265      18.85705806       4.99902528      -0.00000000      -0.00000000       0.10206629      -5.64590157
N       32.66138265      20.65296836       5.60097507      -0.00000000      -0.00000000      -0.10206629      -6.54647390
Al      32.66138265      20.65296836       7.49853791      -0.00000000      -0.00000000       0.10206629      -5.64590157
N       32.66138265      18.85705806       8.10048771      -0.00000000      -0.00000000      -0.10206629      -6.54647390
Al      32.66138265      18.85705806       9.99805055      -0.00000000      -0.00000000       0.10206629      -5.64590157
N       32.66138265      20.65296836      10.60000035      -0.00000000      -0.00000000      -0.10206629      -6.54647390
Al      32.66138265      20.65296836      12.49756319      -0.00000000      -0.00000000       0.10206629      -5.64590157
N       32.66138265      18.85705806      13.09951298      -0.00000000      -0.00000000      -0.10206629      -6.54647390
Al      32.66138265      18.85705806      14.99707583      -0.00000000      -0.00000000       0.10206629      -5.64590157
N       32.66138265      20.65296836      15.59902562      -0.00000000      -0.00000000      -0.10206629      -6.54647390
Al      32.66138265      20.65296836      17.49658847      -0.00000000      -0.00000000       0.10206629      -5.64590157
N       32.66138265      18.85705806      18.09853826      -0.00000000      -0.00000000      -0.10206629      -6.54647390
Al      32.66138265      18.85705806      19.99610111      -0.00000000      -0.00000000       0.10206629      -5.64590157
N       32.66138265      20.65296836      20.59805090      -0.00000000      -0.00000000      -0.10206629      -6.54647390
Al      32.66138265      20.65296836      22.49561374      -0.00000000      -0.00000000       0.10206629      -5.64590157
N       32.66138265      18.85705806      23.09756354      -0.00000000      -0.00000000      -0.10206629      -6.54647390
Al      32.66138265      18.85705806      24.99512638      -0.00000000      -0.00000000       0.10206629      -5.64590157
N       32.66138265      20.65296836      25.59707618      -0.00000000      -0.00000000      -0.10206629      -6.54647390
Al      32.66138265      20.65296836      27.49463902      -0.00000000       0.00000000       0.10206629      -5.64590157
N       32.66138265      18.85705806      28.09658881      -0.00000000      -0.00000000      -0.10206629      -6.54647390
Al      32.66138265      18.85705806      29.99415166      -0.00000000      -0.00000000       0.10206629      -5.64590157
N       32.66138265      20.65296836      30.59610145      -0.00000000      -0.00000000      -0.10206629      -6.54647390
Al      32.66138265      20.65296836      32.49366430      -0.00000000      -0.00000000       0.10206629      -5.64590157
N       32.66138265      18.85705806      33.09561409      -0.00000000      -0.00000000      -0.10206629      -6.54647390
Al      32.66138265      18.85705806      34.99317694      -0.00000000      -0.00000000       0.10206629      -5.64590157
N       32.66138265      20.65296836      35.59512673      -0.00000000      -0.00000000      -0.10206629      -6.54647390
Al      32.66138265      20.65296836      37.49268957      -0.00000000      -0.00000000       0.10206629      -5.64590157
N       32.66138265      18.85705806      38.09463937      -0.00000000      -0.00000000      -0.10206629      -6.54647390
Al      32.66138265      18.85705806      39.99220221      -0.00000000      -0.00000000       0.10206629      -5.64590157
N       32.66138265      20.65296836      40.59415201      -0.00000000       0.00000000      -0.10206629      -6.54647390
Al      32.66138265      20.65296836      42.49171485      -0.00000000       0.00000000       0.10206629      -5.64590157
N       32.66138265      18.85705806      43.09366464      -0.00000000      -0.00000000      -0.10206629      -6.54647390
Al      31.10607871      21.55092350       0.00000000      -0.00000000      -0.00000000       0.10206629      -5.64590157
N       31.10607871      23.34683379       0.60194979      -0.00000000      -0.00000000      -0.10206629      -6.54647390
Al      31.10607871      23.34683379       2.49951264      -0.00000000      -0.00000000       0.10206629      -5.64590157
N       31.10607871      21.55092350       3.10146243      -0.00000000      -0.00000000      -0.10206629      -6.54647390
Al      31.10607871      21.55092350       4.99902528      -0.00000000      -0.00000000       0.10206629      -5.64590157
N       31.10607871      23.34683379       5.60097507      -0.00000000      -0.00000000      -0.10206629      -6.54647390
Al      31.10607871      23.34683379       7.49853791      -0.00000000      -0.00000000       0.10206629      -5.64590157
N       31.10607871      21.55092350       8.10048771      -0.00000000      -0.00000000      -0.10206629      -6.54647390
Al      31.10607871      21.55092350       9.99805055      -0.00000000      -0.00000000       0.10206629      -5.64590157
N       31.10607871      23.34683379      10.60000035      -0.00000000       0.00000000      -0.10206629      -6.54647390
Al      31.10607871      23.34683379      12.49756319      -0.00000000      -0.00000000       0.10206629      -5.64590157
N       31.10607871      21.55092350      13.09951298      -0.00000000      -0.00000000      -0.10206629      -6.54647390
Al      31.10607871      21.55092350      14.99707583      -0.00000000      -0.00000000       0.10206629      -5.64590157
N       31.10607871      23.34683379      15.59902562      -0.00000000       0.00000000      -0.10206629      -6.54647390
Al      31.10607871      23.34683379      17.49658847      -0.00000000      -0.00000000       0.10206629      -5.64590157
N       31.10607871      21.55092350      18.09853826      -0.00000000      -0.00000000      -0.10206629      -6.54647390
Al      31.10607871      21.55092350      19.99610111      -0.00000000      -0.00000000       0.10206629      -5.64590157
N       31.10607871      23.34683379      20.59805090      -0.00000000      -0.00000000      -0.10206629      -6.54647390
Al      31.10607871      23.34683379      22.49561374      -0.00000000      -0.00000000       0.10206629      -5.64590157
N       31.10607871      21.55092350      23.09756354      -0.00000000      -0.00000000      -0.10206629      -6.54647390
Al      31.10607871      21.55092350      24.99512638      -0.00000000      -0.00000000       0.10206629      -5.64590157
N       31.10607871      23.34683379      25.59707618      -0.00000000       0.00000000      -0.10206629      -6.54647390
Al      31.10607871      23.34683379      27.49463902      -0.00000000      -0.00000000       0.10206629      -5.64590157
N       31.10607871      21.55092350      28.09658881      -0.00000000      -0.00000000      -0.10206629      -6.54647390
Al      31.10607871      21.55092350      29.99415166      -0.00000000      -0.00000000       0.10206629      -5.64590157
N       31.10607871      23.34683379      30.59610145      -0.00000000      -0.00000000      -0.10206629      -6.54647390
Al      31.10607871      23.34683379      32.49366430      -0.00000000      -0.00000000       0.10206629      -5.64590157
N       31.10607871      21.55092350      33.09561409      -0.00000000      -0.00000000      -0.10206629      -6.54647390
Al      31.10607871      21.55092350      34.99317694      -0.00000000      -0.00000000       0.10206629      -5.64590157
N       31.10607871      23.34683379      35.59512673      -0.00000000      -0.00000000      -0.10206629      -6.54647390
Al      31.10607871      23.34683379      37.49268957      -0.00000000      -0.00000000       0.10206629      -5.64590157
N       31.10607871      21.55092350      38.09463937      -0.00000000      -0.00000000      -0.10206629      -6.54647390
Al      31.10607871      21.55092350      39.99220221      -0.00000000      -0.00000000       0.10206629      -5.64590157
N       31.10607871      23.34683379      40.59415201      -0.00000000      -0.00000000      -0.10206629      -6.54647390
Al      31.10607871      23.34683379      42.49171485      -0.00000000      -0.00000000       0.10206629      -5.64590157
N       31.10607871      21.55092350      43.09366464      -0.00000000      -0.00000000      -0.10206629      -6.54647390
Al      29.55077478      24.24478894       0.00000000      -0.00000000      -0.00000000       0.10206629      -5.64590157
N       29.55077478      26.04069923       0.60194979      -0.00000000      -0.00000000      -0.10206629      -6.54647390
Al      29.55077478      26.04069923       2.49951264      -0.00000000      -0.00000000       0.10206629      -5.64590157
N       29.55077478      24.24478894       3.10146243      -0.00000000      -0.00000000      -0.10206629      -6.54647390
Al      29.55077478      24.24478894       4.99902528      -0.00000000      -0.00000000       0.10206629      -5.64590157
N       29.55077478      26.04069923       5.60097507      -0.00000000      -0.00000000      -0.10206629      -6.54647390
Al      29.55077478      26.04069923       7.49853791      -0.00000000      -0.00000000       0.10206629      -5.64590157
N       29.55077478      24.24478894       8.10048771      -0.00000000      -0.00000000      -0.10206629      -6.54647390
Al      29.55077478      24.24478894       9.99805055      -0.00000000      -0.00000000       0.10206629      -5.64590157
N       29.55077478      26.04069923      10.60000035      -0.00000000      -0.00000000      -0.10206629      -6.54647390
Al      29.55077478      26.04069923      12.49756319      -0.00000000      -0.00000000       0.10206629      -5.64590157
N       29.55077478      24.24478894      13.09951298      -0.00000000      -0.00000000      -0.10206629      -6.54647390
Al      29.55077478      24.24478894      14.99707583      -0.00000000      -0.00000000       0.10206629      -5.64590157
N       29.55077478      26.04069923      15.59902562      -0.00000000      -0.00000000      -0.10206629      -6.54647390
Al      29.55077478      26.04069923      17.49658847      -0.00000000      -0.00000000       0.10206629      -5.64590157
N       29.55077478      24.24478894      18.09853826      -0.00000000      -0.00000000      -0.10206629      -6.54647390
Al      29.55077478      24.24478894      19.99610111      -0.00000000      -0.00000000       0.10206629      -5.64590157
N       29.55077478      26.04069923      20.59805090      -0.00000000      -0.00000000      -0.10206629      -6.54647390
Al      29.55077478      26.04069923      22.49561374      -0.00000000      -0.00000000       0.10206629      -5.64590157
N       29.55077478      24.24478894      23.09756354       0.00000000      -0.00000000      -0.10206629      -6.54647390
Al      29.55077478      24.24478894      24.99512638      -0.00000000      -0.00000000       0.10206629      -5.64590157
N       29.55077478      26.04069923      25.59707618      -0.00000000      -0.00000000      -0.10206629      -6.54647390
Al      29.55077478      26.04069923      27.49463902      -0.00000000      -0.00000000       0.10206629      -5.64590157
N       29.55077478      24.24478894      28.09658881      -0.00000000      -0.00000000      -0.10206629      -6.54647390
Al      29.55077478      24.24478894      29.99415166      -0.00000000      -0.00000000       0.10206629      -5.64590157
N       29.55077478      26.04069923      30.59610145      -0.00000000      -0.00000000      -0.10206629      -6.54647390
Al      29.55077478      26.04069923      32.49366430      -0.00000000      -0.00000000       0.10206629      -5.64590157
N       29.55077478      24.24478894      33.09561409       0.00000000      -0.00000000      -0.10206629      -6.54647390
Al      29.55077478      24.24478894      34.99317694      -0.00000000      -0.00000000       0.10206629      -5.64590157
N       29.55077478      26.04069923      35.59512673      -0.00000000      -0.00000000      -0.10206629      -6.54647390
Al      29.55077478      26.04069923      37.49268957      -0.00000000      -0.00000000       0.10206629      -5.64590157
N       29.55077478      24.24478894      38.09463937       0.00000000      -0.00000000      -0.10206629      -6.54647390
Al      29.55077478      24.24478894      39.99220221      -0.00000000      -0.00000000       0.10206629      -5.64590157
N       29.55077478      26.04069923      40.59415201      -0.00000000      -0.00000000      -0.10206629      -6.54647390
Al      29.55077478      26.04069923      42.49171485      -0.00000000      -0.00000000       0.10206629      -5.64590157
N       29.55077478      24.24478894      43.09366464      -0.00000000      -0.00000000      -0.10206629      -6.54647390
Al      27.99547084      26.93865438       0.00000000       0.00000000      -0.00000000       0.10206629      -5.64590157
N       27.99547084      28.73456467       0.60194979      -0.00000000       0.00000000      -0.10206629      -6.54647390
Al      27.99547084      28.73456467       2.49951264      -0.00000000       0.00000000       0.10206629      -5.64590157
N       27.99547084      26.93865438       3.10146243       0.00000000      -0.00000000      -0.10206629      -6.54647390
Al      27.99547084      26.93865438       4.99902528       0.00000000      -0.00000000       0.10206629      -5.64590157
N       27.99547084      28.73456467       5.60097507      -0.00000000       0.00000000      -0.10206629      -6.54647390
Al      27.99547084      28.73456467       7.49853791      -0.00000000       0.00000000       0.10206629      -5.64590157
N       27.99547084      26.93865438       8.10048771       0.00000000      -0.00000000      -0.10206629      -6.54647390
Al      27.99547084      26.93865438       9.99805055       0.00000000      -0.00000000       0.10206629      -5.64590157
N       27.99547084      28.73456467      10.60000035      -0.00000000       0.00000000      -0.10206629      -6.54647390
Al      27.99547084      28.73456467      12.49756319      -0.00000000       0.00000000       0.10206629      -5.64590157
N       27.99547084      26.93865438      13.09951298       0.00000000      -0.00000000      -0.10206629      -6.54647390
Al      27.99547084      26.93865438      14.99707583       0.00000000      -0.00000000       0.10206629      -5.64590157
N       27.99547084      28.73456467      15.59902562      -0.00000000       0.00000000      -0.10206629      -6.54647390
Al      27.99547084      28.73456467      17.49658847      -0.00000000       0.00000000       0.10206629      -5.64590157
N       27.99547084      26.93865438      18.09853826       0.00000000      -0.00000000      -0.10206629      -6.54647390
Al      27.99547084      26.93865438      19.99610111       0.00000000      -0.00000000       0.10206629      -5.64590157
N       27.99547084      28.73456467      20.59805090      -0.00000000       0.00000000      -0.10206629      -6.54647390
Al      27.99547084      28.73456467      22.49561374      -0.00000000       0.00000000       0.10206629      -5.64590157
N       27.99547084      26.93865438      23.09756354       0.00000000      -0.00000000      -0.10206629      -6.54647390
Al      27.99547084      26.93865438      24.99512638       0.00000000      -0.00000000       0.10206629      -5.64590157
N       27.99547084      28.73456467      25.59707618      -0.00000000       0.00000000      -0.10206629      -6.54647390
Al      27.99547084      28.73456467      27.49463902      -0.00000000       0.00000000       0.10206629      -5.64590157
N       27.99547084      26.93865438      28.09658881       0.00000000      -0.00000000      -0.10206629      -6.54647390
Al      27.99547084      26.93865438      29.99415166       0.00000000      -0.00000000       0.10206629      -5.64590157
N       27.99547084      28.73456467      30.59610145      -0.00000000       0.00000000      -0.10206629      -6.54647390
Al      27.99547084      28.73456467      32.49366430      -0.00000000       0.00000000       0.10206629      -5.64590157
N       27.99547084      26.93865438      33.09561409       0.00000000      -0.00000000      -0.10206629      -6.54647390
Al      27.99547084      26.93865438      34.99317694       0.00000000      -0.00000000       0.10206629      -5.64590157
N       27.99547084      28.73456467      35.59512673      -0.00000000       0.00000000      -0.10206629      -6.54647390
Al      27.99547084      28.73456467      37.49268957      -0.00000000       0.00000000       0.10206629      -5.64590157
N       27.99547084      26.93865438      38.09463937       0.00000000       0.00000000      -0.10206629      -6.54647390
Al      27.99547084      26.93865438      39.99220221       0.00000000      -0.00000000       0.10206629      -5.64590157
N       27.99547084      28.73456467      40.59415201      -0.00000000       0.00000000      -0.10206629      -6.54647390
Al      27.99547084      28.73456467      42.49171485      -0.00000000       0.00000000       0.10206629      -5.64590157
N       27.99547084      26.93865438      43.09366464       0.00000000      -0.00000000      -0.10206629      -6.54647390
Al      26.44016691      29.63251982       0.00000000      -0.00000000      -0.00000000       0.10206629      -5.64590157
N       26.44016691      31.42843011       0.60194979      -0.00000000      -0.00000000      -0.10206629      -6.54647390
Al      26.44016691      31.42843011       2.49951264      -0.00000000      -0.00000000       0.10206629      -5.64590157
N       26.44016691      29.63251982       3.10146243      -0.00000000       0.00000000      -0.10206629      -6.54647390
Al      26.44016691      29.63251982       4.99902528      -0.00000000       0.00000000       0.10206629      -5.64590157
N       26.44016691      31.42843011       5.60097507      -0.00000000      -0.00000000      -0.10206629      -6.54647390
Al      26.44016691      31.42843011       7.49853791      -0.00000000      -0.00000000       0.10206629      -5.64590157
N       26.44016691      29.63251982       8.10048771      -0.00000000       0.00000000      -0.10206629      -6.54647390
Al      26.44016691      29.63251982       9.99805055      -0.00000000       0.00000000       0.10206629      -5.64590157
N       26.44016691      31.42843011      10.60000035      -0.00000000      -0.00000000      -0.10206629      -6.54647390
Al      26.44016691      31.42843011      12.49756319      -0.00000000      -0.00000000       0.10206629      -5.64590157
N       26.44016691      29.63251982      13.09951298       0.00000000       0.00000000      -0.10206629      -6.54647390
Al      26.44016691      29.63251982      14.99707583      -0.00000000       0.00000000       0.10206629      -5.64590157
N       26.44016691      31.42843011      15.59902562      -0.00000000      -0.00000000      -0.10206629      -6.54647390
Al      26.44016691      31.42843011      17.49658847      -0.00000000      -0.00000000       0.10206629      -5.64590157
N       26.44016691      29.63251982      18.09853826       0.00000000       0.00000000      -0.10206629      -6.54647390
Al      26.44016691      29.63251982      19.99610111      -0.00000000       0.00000000       0.10206629      -5.64590157
N       26.44016691      31.42843011      20.59805090      -0.00000000      -0.00000000      -0.10206629      -6.54647390
Al      26.44016691      31.42843011      22.49561374      -0.00000000      -0.00000000       0.10206629      -5.64590157
N       26.44016691      29.63251982      23.09756354      -0.00000000       0.00000000      -0.10206629      -6.54647390
Al      26.44016691      29.63251982      24.99512638       0.00000000       0.00000000       0.10206629      -5.64590157
N       26.44016691      31.42843011      25.59707618      -0.00000000      -0.00000000      -0.10206629      -6.54647390
Al      26.44016691      31.42843011      27.49463902      -0.00000000      -0.00000000       0.10206629      -5.64590157
N       26.44016691      29.63251982      28.09658881       0.00000000       0.00000000      -0.10206629      -6.54647390
Al      26.44016691      29.63251982      29.99415166      -0.00000000       0.00000000       0.10206629      -5.64590157
N       26.44016691      31.42843011      30.59610145      -0.00000000      -0.00000000      -0.10206629      -6.54647390
Al      26.44016691      31.42843011      32.49366430      -0.00000000      -0.00000000       0.10206629      -5.64590157
N       26.44016691      29.63251982      33.09561409       0.00000000       0.00000000      -0.10206629      -6.54647390
Al      26.44016691      29.63251982      34.99317694      -0.00000000       0.00000000       0.10206629      -5.64590157
N       26.44016691      31.42843011      35.59512673      -0.00000000      -0.00000000      -0.10206629      -6.54647390
Al      26.44016691      31.42843011      37.49268957      -0.00000000      -0.00000000       0.10206629      -5.64590157
N       26.44016691      29.63251982      38.09463937       0.00000000      -0.00000000      -0.10206629      -6.54647390
Al      26.44016691      29.63251982      39.99220221      -0.00000000       0.00000000       0.10206629      -5.64590157
N       26.44016691      31.42843011      40.59415201      -0.00000000      -0.00000000      -0.10206629      -6.54647390
Al      26.44016691      31.42843011      42.49171485      -0.00000000      -0.00000000       0.10206629      -5.64590157
N       26.44016691      29.63251982      43.09366464       0.00000000       0.00000000      -0.10206629      -6.54647390
Al      24.88486297      32.32638525       0.00000000       0.00000000       0.00000000       0.10206629      -5.64590157
N       24.88486297      34.12229555       0.60194979      -0.00000000      -0.00000000      -0.10206629      -6.54647390
Al      24.88486297      34.12229555       2.49951264      -0.00000000      -0.00000000       0.10206629      -5.64590157
N       24.88486297      32.32638525       3.10146243       0.00000000       0.00000000      -0.10206629      -6.54647390
Al      24.88486297      32.32638525       4.99902528       0.00000000       0.00000000       0.10206629      -5.64590157
N       24.88486297      34.12229555       5.60097507      -0.00000000      -0.00000000      -0.10206629      -6.54647390
Al      24.88486297      34.12229555       7.49853791      -0.00000000      -0.00000000       0.10206629      -5.64590157
N       24.88486297      32.32638525       8.10048771       0.00000000       0.00000000      -0.10206629      -6.54647390
Al      24.88486297      32.32638525       9.99805055       0.00000000       0.00000000       0.10206629      -5.64590157
N       24.88486297      34.12229555      10.60000035      -0.00000000      -0.00000000      -0.10206629      -6.54647390
Al      24.88486297      34.12229555      12.49756319      -0.00000000      -0.00000000       0.10206629      -5.64590157
N       24.88486297      32.32638525      13.09951298       0.00000000       0.00000000      -0.10206629      -6.54647390
Al      24.88486297      32.32638525      14.99707583       0.00000000       0.00000000       0.10206629      -5.64590157
N       24.88486297      34.12229555      15.59902562      -0.00000000      -0.00000000      -0.10206629      -6.54647390
Al      24.88486297      34.12229555      17.49658847      -0.00000000      -0.00000000       0.10206629      -5.64590157
N       24.88486297      32.32638525      18.09853826       0.00000000       0.00000000      -0.10206629      -6.54647390
Al      24.88486297      32.32638525      19.99610111       0.00000000       0.00000000       0.10206629      -5.64590157
N       24.88486297      34.12229555      20.59805090      -0.00000000      -0.00000000      -0.10206629      -6.54647390
Al      24.88486297      34.12229555      22.49561374      -0.00000000      -0.00000000       0.10206629      -5.64590157
N       24.88486297      32.32638525      23.09756354       0.00000000       0.00000000      -0.10206629      -6.54647390
Al      24.88486297      32.32638525      24.99512638       0.00000000       0.00000000       0.10206629      -5.64590157
N       24.88486297      34.12229555      25.59707618      -0.00000000      -0.00000000      -0.10206629      -6.54647390
Al      24.88486297      34.12229555      27.49463902      -0.00000000      -0.00000000       0.10206629      -5.64590157
N       24.88486297      32.32638525      28.09658881       0.00000000       0.00000000      -0.10206629      -6.54647390
Al      24.88486297      32.32638525      29.99415166       0.00000000       0.00000000       0.10206629      -5.64590157
N       24.88486297      34.12229555      30.59610145      -0.00000000      -0.00000000      -0.10206629      -6.54647390
Al      24.88486297      34.12229555      32.49366430      -0.00000000      -0.00000000       0.10206629      -5.64590157
N       24.88486297      32.32638525      33.09561409       0.00000000       0.00000000      -0.10206629      -6.54647390
Al      24.88486297      32.32638525      34.99317694       0.00000000       0.00000000       0.10206629      -5.64590157
N       24.88486297      34.12229555      35.59512673      -0.00000000      -0.00000000      -0.10206629      -6.54647390
Al      24.88486297      34.12229555      37.49268957      -0.00000000      -0.00000000       0.10206629      -5.64590157
N       24.88486297      32.32638525      38.09463937       0.00000000       0.00000000      -0.10206629      -6.54647390
Al      24.88486297      32.32638525      39.99220221       0.00000000       0.00000000       0.10206629      -5.64590157
N       24.88486297      34.12229555      40.59415201      -0.00000000      -0.00000000      -0.10206629      -6.54647390
Al      24.88486297      34.12229555      42.49171485      -0.00000000      -0.00000000       0.10206629      -5.64590157
N       24.88486297      32.32638525      43.09366464       0.00000000       0.00000000      -0.10206629      -6.54647390
Al      23.32955904      35.02025069      -0.00000000      -0.00000000      -0.00000000       0.10206629      -5.64590157
N       23.32955904      36.81616098       0.60194979      -0.00000000      -0.00000000      -0.10206629      -6.54647390
Al      23.32955904      36.81616098       2.49951264      -0.00000000      -0.00000000       0.10206629      -5.64590157
N       23.32955904      35.02025069       3.10146243      -0.00000000       0.00000000      -0.10206629      -6.54647390
Al      23.32955904      35.02025069       4.99902528      -0.00000000      -0.00000000       0.10206629      -5.64590157
N       23.32955904      36.81616098       5.60097507      -0.00000000      -0.00000000      -0.10206629      -6.54647390
Al      23.32955904      36.81616098       7.49853791      -0.00000000      -0.00000000       0.10206629      -5.64590157
N       23.32955904      35.02025069       8.10048771      -0.00000000       0.00000000      -0.10206629      -6.54647390
Al      23.32955904      35.02025069       9.99805055      -0.00000000      -0.00000000       0.10206629      -5.64590157
N       23.32955904      36.81616098      10.60000035      -0.00000000      -0.00000000      -0.10206629      -6.54647390
Al      23.32955904      36.81616098      12.49756319      -0.00000000      -0.00000000       0.10206629      -5.64590157
N       23.32955904      35.02025069      13.09951298      -0.00000000      -0.00000000      -0.10206629      -6.54647390
Al      23.32955904      35.02025069      14.99707583      -0.00000000      -0.00000000       0.10206629      -5.64590157
N       23.32955904      36.81616098      15.59902562      -0.00000000      -0.00000000      -0.10206629      -6.54647390
Al      23.32955904      36.81616098      17.49658847      -0.00000000      -0.00000000       0.10206629      -5.64590157
N       23.32955904      35.02025069      18.09853826      -0.00000000      -0.00000000      -0.10206629      -6.54647390
Al      23.32955904      35.02025069      19.99610111      -0.00000000      -0.00000000       0.10206629      -5.64590157
N       23.32955904      36.81616098      20.59805090      -0.00000000      -0.00000000      -0.10206629      -6.54647390
Al      23.32955904      36.81616098      22.49561374      -0.00000000      -0.00000000       0.10206629      -5.64590157
N       23.32955904      35.02025069      23.09756354       0.00000000      -0.00000000      -0.10206629      -6.54647390
Al      23.32955904      35.02025069      24.99512638       0.00000000      -0.00000000       0.10206629      -5.64590157
N       23.32955904      36.81616098      25.59707618      -0.00000000      -0.00000000      -0.10206629      -6.54647390
Al      23.32955904      36.81616098      27.49463902      -0.00000000      -0.00000000       0.10206629      -5.64590157
N       23.32955904      35.02025069      28.09658881       0.00000000      -0.00000000      -0.10206629      -6.54647390
Al      23.32955904      35.02025069      29.99415166      -0.00000000      -0.00000000       0.10206629      -5.64590157
N       23.32955904      36.81616098      30.59610145      -0.00000000      -0.00000000      -0.10206629      -6.54647390
Al      23.32955904      36.81616098      32.49366430      -0.00000000      -0.00000000       0.10206629      -5.64590157
N       23.32955904      35.02025069      33.09561409      -0.00000000      -0.00000000      -0.10206629      -6.54647390
Al      23.32955904      35.02025069      34.99317694      -0.00000000      -0.00000000       0.10206629      -5.64590157
N       23.32955904      36.81616098      35.59512673      -0.00000000      -0.00000000      -0.10206629      -6.54647390
Al      23.32955904      36.81616098      37.49268957      -0.00000000      -0.00000000       0.10206629      -5.64590157
N       23.32955904      35.02025069      38.09463937      -0.00000000      -0.00000000      -0.10206629      -6.54647390
Al      23.32955904      35.02025069      39.99220221      -0.00000000      -0.00000000       0.10206629      -5.64590157
N       23.32955904      36.81616098      40.59415201      -0.00000000      -0.00000000      -0.10206629      -6.54647390
Al      23.32955904      36.81616098      42.49171485      -0.00000000      -0.00000000       0.10206629      -5.64590157
N       23.32955904      35.02025069      43.09366464      -0.00000000      -0.00000000      -0.10206629      -6.54647390
Al      21.77425510      37.71411613      -0.00000000       0.00000000      -0.00000000       0.10206629      -5.64590157
N       21.77425510      39.51002642       0.60194979      -0.00000000       0.00000000      -0.10206629      -6.54647390
Al      21.77425510      39.51002642       2.49951264      -0.00000000       0.00000000       0.10206629      -5.64590157
N       21.77425510      37.71411613       3.10146243       0.00000000      -0.00000000      -0.10206629      -6.54647390
Al      21.77425510      37.71411613       4.99902528       0.00000000      -0.00000000       0.10206629      -5.64590157
N       21.77425510      39.51002642       5.60097507      -0.00000000       0.00000000      -0.10206629      -6.54647390
Al      21.77425510      39.51002642       7.49853791      -0.00000000       0.00000000       0.10206629      -5.64590157
N       21.77425510      37.71411613       8.10048771       0.00000000      -0.00000000      -0.10206629      -6.54647390
Al      21.77425510      37.71411613       9.99805055       0.00000000      -0.00000000       0.10206629      -5.64590157
N       21.77425510      39.51002642      10.60000035      -0.00000000       0.00000000      -0.10206629      -6.54647390
Al      21.77425510      39.51002642      12.49756319      -0.00000000       0.00000000       0.10206629      -5.64590157
N       21.77425510      37.71411613      13.09951298       0.00000000      -0.00000000      -0.10206629      -6.54647390
Al      21.77425510      37.71411613      14.99707583       0.00000000      -0.00000000       0.10206629      -5.64590157
N       21.77425510      39.51002642      15.59902562      -0.00000000       0.00000000      -0.10206629      -6.54647390
Al      21.77425510      39.51002642      17.49658847      -0.00000000       0.00000000       0.10206629      -5.64590157
N       21.77425510      37.71411613      18.09853826       0.00000000      -0.00000000      -0.10206629      -6.54647390
Al      21.77425510      37.71411613      19.99610111       0.00000000      -0.00000000       0.10206629      -5.64590157
N       21.77425510      39.51002642      20.59805090      -0.00000000       0.00000000      -0.10206629      -6.54647390
Al      21.77425510      39.51002642      22.49561374      -0.00000000       0.00000000       0.10206629      -5.64590157
N       21.77425510      37.71411613      23.09756354       0.00000000      -0.00000000      -0.10206629      -6.54647390
Al      21.77425510      37.71411613      24.99512638       0.00000000      -0.00000000       0.10206629      -5.64590157
N       21.77425510      39.51002642      25.59707618      -0.00000000       0.00000000      -0.10206629      -6.54647390
Al      21.77425510      39.51002642      27.49463902      -0.00000000       0.00000000       0.10206629      -5.64590157
N       21.77425510      37.71411613      28.09658881       0.00000000      -0.00000000      -0.10206629      -6.54647390
Al      21.77425510      37.71411613      29.99415166       0.00000000      -0.00000000       0.10206629      -5.64590157
N       21.77425510      39.51002642      30.59610145      -0.00000000       0.00000000      -0.10206629      -6.54647390
Al      21.77425510      39.51002642      32.49366430      -0.00000000       0.00000000       0.10206629      -5.64590157
N       21.77425510      37.71411613      33.09561409       0.00000000      -0.00000000      -0.10206629      -6.54647390
Al      21.77425510      37.71411613      34.99317694       0.00000000      -0.00000000       0.10206629      -5.64590157
N       21.77425510      39.51002642      35.59512673      -0.00000000       0.00000000      -0.10206629      -6.54647390
Al      21.77425510      39.51002642      37.49268957      -0.00000000       0.00000000       0.10206629      -5.64590157
N       21.77425510      37.71411613      38.09463937       0.00000000      -0.00000000      -0.10206629      -6.54647390
Al      21.77425510      37.71411613      39.99220221       0.00000000      -0.00000000       0.10206629      -5.64590157
N       21.77425510      39.51002642      40.59415201      -0.00000000       0.00000000      -0.10206629      -6.54647390
Al      21.77425510      39.51002642      42.49171485      -0.00000000       0.00000000       0.10206629      -5.64590157
N       21.77425510      37.71411613      43.09366464       0.00000000      -0.00000000      -0.10206629      -6.54647390
