192
Lattice="12.442431485630822 -2.2692007064878493e-16 1.401816915376735e-16 -6.221215742815411 10.77546175140365 -1.5231865326019441e-16 1.6862110819148262e-16 -1.1421120713378939e-16 14.997075829603313" Properties=species:S:1:pos:R:3:forces:R:3:energies:R:1 energy=-1170.468065740195 stress="-2.603457097283943e-07 2.392883481765023e-13 3.5753916816011545e-13 2.392883481765023e-13 -2.6034575539690755e-07 5.957720787968656e-13 3.5753916816011545e-13 5.957720787968656e-13 1.69779005719441e-06" free_energy=-1170.468065740195 pbc="T T T"
Al       0.00000000       0.00000000       0.00000000       0.00004487       0.00003855       0.10216809      -5.64594867
N       -0.00000000       1.79591029       0.60194979      -0.00000794       0.00011386      -0.10216425      -6.54639007
Al      -0.00000000       1.79591029       2.49951264       0.00000267       0.00020723       0.10177814      -5.64601791
N        0.00000000      -0.00000000       3.10146243      -0.00001129      -0.00000919      -0.10005427      -6.54647185
Al       0.00000000      -0.00000000       4.99902528       0.00000092       0.00000120       0.10125280      -5.64553376
N       -0.00000000       1.79591029       5.60097507      -0.00000031      -0.00008918      -0.10218373      -6.54656210
Al      -0.00000000       1.79591029       7.49853791       0.00000061      -0.00000541       0.10212877      -5.64588431
N        0.00000000      -0.00000000       8.10048771       0.00001430       0.00001022      -0.10212234      -6.54648120
Al       0.00000000      -0.00000000       9.99805055      -0.00005045      -0.00003019       0.10210446      -5.64591982
N       -0.00000000       1.79591029      10.60000035       0.00000930       0.00001486      -0.10208092      -6.54647166
Al      -0.00000000       1.79591029      12.49756319      -0.00000155      -0.00000733       0.10208453      -5.64590259
N        0.00000000      -0.00000000      13.09951298      -0.00000535      -0.00001101      -0.10205225      -6.54646440
Al      -1.55530394       2.69386544      -0.00000000       0.00005045      -0.00002242       0.10206480      -5.64592002
N       -1.55530394       4.48977573       0.60194979      -0.00000930       0.00001457      -0.10205435      -6.54647166
Al      -1.55530394       4.48977573       2.49951264       0.00000155       0.00000064       0.10205407      -5.64590375
N       -1.55530394       2.69386544       3.10146243       0.00000535      -0.00001480      -0.10202358      -6.54647229
Al      -1.55530394       2.69386544       4.99902528      -0.00004487       0.00003880       0.10204646      -5.64588184
N       -1.55530394       4.48977573       5.60097507       0.00000794      -0.00001321      -0.10206639      -6.54647595
Al      -1.55530394       4.48977573       7.49853791      -0.00000267       0.00001031       0.10207942      -5.64590404
N       -1.55530394       2.69386544       8.10048771       0.00001129      -0.00000387      -0.10209458      -6.54647552
Al      -1.55530394       2.69386544       9.99805055      -0.00000092      -0.00000766       0.10208563      -5.64589993
N       -1.55530394       4.48977573      10.60000035       0.00000031       0.00000009      -0.10207384      -6.54647390
Al      -1.55530394       4.48977573      12.49756319      -0.00000061      -0.00000771       0.10206586      -5.64590157
N       -1.55530394       2.69386544      13.09951298      -0.00001430       0.00001157      -0.10207827      -6.54647278
Al      -3.11060787       5.38773088      -0.00000000       0.00001110      -0.00000136       0.10205747      -5.64590197
N       -3.11060787       7.18364117       0.60194979      -0.00000745      -0.00001561      -0.10205097      -6.54647370
Al      -3.11060787       7.18364117       2.49951264       0.00001159      -0.00000182       0.10205736      -5.64590622
N       -3.11060787       5.38773088       3.10146243      -0.00000200       0.00000263      -0.10205654      -6.54647392
Al      -3.11060787       5.38773088       4.99902528      -0.00000357      -0.00000231       0.10206473      -5.64590361
N       -3.11060787       7.18364117       5.60097507      -0.00000755       0.00001317      -0.10207047      -6.54647595
Al      -3.11060787       7.18364117       7.49853791       0.00000122      -0.00000308       0.10208111      -5.64590404
N       -3.11060787       5.38773088       8.10048771       0.00000534      -0.00000223      -0.10207805      -6.54647390
Al      -3.11060787       5.38773088       9.99805055      -0.00000781       0.00000435       0.10207666      -5.64589993
N       -3.11060787       7.18364117      10.60000035       0.00001750       0.00000100      -0.10207046      -6.54647166
Al      -3.11060787       7.18364117      12.49756319      -0.00000720       0.00000166       0.10206131      -5.64590375
N       -3.11060787       5.38773088      13.09951298       0.00000036      -0.00000113      -0.10206174      -6.54647403
Al      -4.66591181       8.08159631      -0.00000000       0.00005490       0.00007837       0.10204658      -5.64589984
N       -4.66591181       9.87750661       0.60194979       0.00009217      -0.00007386      -0.10216270      -6.54639664
Al      -4.66591181       9.87750661       2.49951264       0.00018129      -0.00009226       0.10178039      -5.64601668
N       -4.66591181       8.08159631       3.10146243      -0.00002046       0.00000496      -0.10204079      -6.54647391
Al      -4.66591181       8.08159631       4.99902528       0.00001245      -0.00005794       0.10205717      -5.64588184
N       -4.66591181       9.87750661       5.60097507      -0.00007695       0.00004485      -0.10219073      -6.54656210
Al      -4.66591181       9.87750661       7.49853791      -0.00000523      -0.00000532       0.10213317      -5.64588241
N       -4.66591181       8.08159631       8.10048771       0.00001369       0.00002164      -0.10211088      -6.54647427
Al      -4.66591181       8.08159631       9.99805055      -0.00005079      -0.00002999       0.10209216      -5.64591957
N       -4.66591181       9.87750661      10.60000035       0.00001874       0.00001052      -0.10207938      -6.54646474
Al      -4.66591181       9.87750661      12.49756319      -0.00001568      -0.00000109       0.10207261      -5.64590627
N       -4.66591181       8.08159631      13.09951298      -0.00001051      -0.00001663      -0.10204079      -6.54647103
Al       3.11060787      -0.00000000       0.00000000      -0.00004417      -0.00002443       0.10206451      -5.64591998
N        3.11060787       1.79591029       0.60194979       0.00001557       0.00001235      -0.10205420      -6.54646474
Al       3.11060787       1.79591029       2.49951264      -0.00000950      -0.00000466       0.10204128      -5.64590743
N        3.11060787      -0.00000000       3.10146243      -0.00001654      -0.00000163      -0.10202449      -6.54647229
Al       3.11060787      -0.00000000       4.99902528       0.00005602       0.00001970       0.10204832      -5.64588184
N        3.11060787       1.79591029       5.60097507      -0.00001772      -0.00001041      -0.10206207      -6.54648252
Al       3.11060787       1.79591029       7.49853791       0.00001051       0.00000634       0.10207867      -5.64590282
N        3.11060787      -0.00000000       8.10048771      -0.00000787      -0.00000187      -0.10209367      -6.54647552
Al       3.11060787      -0.00000000       9.99805055      -0.00000795      -0.00000526       0.10208459      -5.64590000
N        3.11060787       1.79591029      10.60000035       0.00000341      -0.00000155      -0.10208224      -6.54647391
Al       3.11060787       1.79591029      12.49756319      -0.00000845      -0.00000346       0.10207497      -5.64589902
N        3.11060787      -0.00000000      13.09951298       0.00001678       0.00000772      -0.10207827      -6.54647278
Al       1.55530394       2.69386544      -0.00000000      -0.00004666      -0.00003238       0.10206485      -5.64592161
N        1.55530394       4.48977573       0.60194979       0.00001678       0.00002805      -0.10205097      -6.54647370
Al       1.55530394       4.48977573       2.49951264      -0.00000914      -0.00000683       0.10205736      -5.64590622
N        1.55530394       2.69386544       3.10146243      -0.00000609      -0.00001058      -0.10202426      -6.54647229
Al       1.55530394       2.69386544       4.99902528       0.00004501       0.00003847       0.10204820      -5.64588184
N        1.55530394       4.48977573       5.60097507      -0.00000817      -0.00001299      -0.10207047      -6.54647595
Al       1.55530394       4.48977573       7.49853791       0.00000966       0.00001363       0.10208111      -5.64590404
N        1.55530394       2.69386544       8.10048771      -0.00001049      -0.00000965      -0.10209435      -6.54647552
Al       1.55530394       2.69386544       9.99805055      -0.00000345       0.00000372       0.10208483      -5.64590152
N        1.55530394       4.48977573      10.60000035      -0.00000827      -0.00001525      -0.10207046      -6.54647166
Al       1.55530394       4.48977573      12.49756319      -0.00000071      -0.00000669       0.10206131      -5.64590375
N        1.55530394       2.69386544      13.09951298       0.00001302       0.00001096      -0.10207374      -6.54647267
Al       0.00000000       5.38773088      -0.00000000      -0.00000673      -0.00001274       0.10205827      -5.64590038
N       -0.00000000       7.18364117       0.60194979       0.00001541      -0.00000027      -0.10205435      -6.54647595
Al      -0.00000000       7.18364117       2.49951264      -0.00001027      -0.00000284       0.10206190      -5.64590404
N        0.00000000       5.38773088       3.10146243       0.00000328       0.00000324      -0.10206106      -6.54647403
Al       0.00000000       5.38773088       4.99902528      -0.00000022       0.00000764       0.10206468      -5.64590202
N       -0.00000000       7.18364117       5.60097507       0.00000008      -0.00000031      -0.10207384      -6.54647390
Al      -0.00000000       7.18364117       7.49853791       0.00000637       0.00000439       0.10207782      -5.64590157
N        0.00000000       5.38773088       8.10048771      -0.00000461      -0.00000645      -0.10207737      -6.54647390
Al       0.00000000       5.38773088       9.99805055       0.00000767       0.00000468       0.10207492      -5.64589993
N       -0.00000000       7.18364117      10.60000035      -0.00001727       0.00000077      -0.10206639      -6.54647166
Al      -0.00000000       7.18364117      12.49756319       0.00000022      -0.00000166       0.10205962      -5.64590375
N        0.00000000       5.38773088      13.09951298      -0.00000116       0.00000465      -0.10206197      -6.54647403
Al      -1.55530394       8.08159631      -0.00000000      -0.00000767       0.00000880       0.10205832      -5.64590196
N       -1.55530394       9.87750661       0.60194979       0.00001727      -0.00000258      -0.10205575      -6.54647166
Al      -1.55530394       9.87750661       2.49951264      -0.00000022      -0.00000248       0.10205320      -5.64590375
N       -1.55530394       8.08159631       3.10146243       0.00000116      -0.00000152      -0.10206174      -6.54647403
Al      -1.55530394       8.08159631       4.99902528       0.00000673      -0.00000372       0.10206642      -5.64590202
N       -1.55530394       9.87750661       5.60097507      -0.00001541      -0.00000009      -0.10206362      -6.54647595
Al      -1.55530394       9.87750661       7.49853791       0.00001027      -0.00000311       0.10207642      -5.64590404
N       -1.55530394       8.08159631       8.10048771      -0.00000328       0.00000282      -0.10207714      -6.54647390
Al      -1.55530394       8.08159631       9.99805055       0.00000022      -0.00000517       0.10207412      -5.64590152
N       -1.55530394       9.87750661      10.60000035      -0.00000008       0.00000321      -0.10207524      -6.54647391
Al      -1.55530394       9.87750661      12.49756319      -0.00000637       0.00000296       0.10207058      -5.64590092
N       -1.55530394       8.08159631      13.09951298       0.00000461      -0.00000414      -0.10205745      -6.54647392
Al       6.22121574      -0.00000000       0.00000000      -0.00000721      -0.00000089       0.10205718      -5.64590193
N        6.22121574       1.79591029       0.60194979       0.00000291       0.00000520      -0.10206053      -6.54647391
Al       6.22121574       1.79591029       2.49951264       0.00000071      -0.00000101       0.10206247      -5.64590092
N        6.22121574      -0.00000000       3.10146243       0.00000433      -0.00000398      -0.10205745      -6.54647392
Al       6.22121574      -0.00000000       4.99902528      -0.00000020       0.00000449       0.10206659      -5.64590361
N        6.22121574       1.79591029       5.60097507      -0.00000016      -0.00000345      -0.10206839      -6.54647390
Al       6.22121574       1.79591029       7.49853791       0.00000024      -0.00000069       0.10207226      -5.64590157
N        6.22121574      -0.00000000       8.10048771      -0.00000573       0.00000245      -0.10207714      -6.54647390
Al       6.22121574      -0.00000000       9.99805055       0.00000945      -0.00000530       0.10207563      -5.64590000
N        6.22121574       1.79591029      10.60000035      -0.00000305      -0.00000158      -0.10206839      -6.54647391
Al       6.22121574       1.79591029      12.49756319       0.00000123       0.00000044       0.10206589      -5.64590092
N        6.22121574      -0.00000000      13.09951298      -0.00000078       0.00000137      -0.10206174      -6.54647403
Al       4.66591181       2.69386544       0.00000000      -0.00000945      -0.00001378       0.10205694      -5.64590040
N        4.66591181       4.48977573       0.60194979       0.00000305       0.00001888      -0.10205421      -6.54648252
Al       4.66591181       4.48977573       2.49951264      -0.00000123      -0.00001170       0.10206887      -5.64590216
N        4.66591181       2.69386544       3.10146243       0.00000078       0.00000545      -0.10206197      -6.54647403
Al       4.66591181       2.69386544       4.99902528       0.00000721       0.00000393       0.10206625      -5.64590198
N        4.66591181       4.48977573       5.60097507      -0.00000291       0.00000126      -0.10208224      -6.54647390
Al       4.66591181       4.48977573       7.49853791      -0.00000071       0.00000875       0.10208135      -5.64589967
N        4.66591181       2.69386544       8.10048771      -0.00000433      -0.00000911      -0.10207737      -6.54647390
Al       4.66591181       2.69386544       9.99805055       0.00000020       0.00001103       0.10207575      -5.64590000
N        4.66591181       4.48977573      10.60000035       0.00000016      -0.00002143      -0.10206207      -6.54646474
Al       4.66591181       4.48977573      12.49756319      -0.00000024       0.00001028       0.10204470      -5.64590743
N        4.66591181       2.69386544      13.09951298       0.00000573       0.00000240      -0.10206106      -6.54647403
Al       3.11060787       5.38773088      -0.00000000      -0.00001532      -0.00005561       0.10203925      -5.64588179
N        3.11060787       7.18364117       0.60194979       0.00006935       0.00002929      -0.10216423      -6.54655986
Al       3.11060787       7.18364117       2.49951264      -0.00000332      -0.00000013       0.10210502      -5.64588649
N        3.11060787       5.38773088       3.10146243       0.00000103       0.00001511      -0.10207374      -6.54647554
Al       3.11060787       5.38773088       4.99902528       0.00000320      -0.00000358       0.10207544      -5.64590361
N        3.11060787       7.18364117       5.60097507       0.00000722       0.00001333      -0.10208093      -6.54647595
Al       3.11060787       7.18364117       7.49853791      -0.00000069      -0.00000349       0.10210432      -5.64590288
N        3.11060787       5.38773088       8.10048771      -0.00000244      -0.00001707      -0.10209435      -6.54647265
Al       3.11060787       5.38773088       9.99805055       0.00000106       0.00005871       0.10208319      -5.64591957
N        3.11060787       7.18364117      10.60000035      -0.00011028      -0.00006332      -0.10218374      -6.54638802
Al       3.11060787       7.18364117      12.49756319      -0.00016356      -0.00009514       0.10178209      -5.64601544
N        3.11060787       5.38773088      13.09951298       0.00000766       0.00000968      -0.10202426      -6.54647229
Al       1.55530394       8.08159631      -0.00000000      -0.00004815       0.00002401       0.10204005      -5.64588020
N        1.55530394       9.87750661       0.60194979       0.00000061      -0.00000955      -0.10204943      -6.54648027
Al       1.55530394       9.87750661       2.49951264      -0.00001053       0.00000455       0.10205960      -5.64590500
N        1.55530394       8.08159631       3.10146243       0.00001244      -0.00000585      -0.10207827      -6.54647565
Al       1.55530394       8.08159631       4.99902528      -0.00000822      -0.00000369       0.10207539      -5.64590202
N        1.55530394       9.87750661       5.60097507       0.00001505      -0.00000006      -0.10207747      -6.54647595
Al       1.55530394       9.87750661       7.49853791      -0.00000305      -0.00000701       0.10208550      -5.64590214
N        1.55530394       8.08159631       8.10048771      -0.00001272       0.00000916      -0.10209367      -6.54647265
Al       1.55530394       8.08159631       9.99805055       0.00005116      -0.00002872       0.10208146      -5.64591957
N        1.55530394       9.87750661      10.60000035      -0.00001840       0.00001036      -0.10206892      -6.54646474
Al       1.55530394       9.87750661      12.49756319       0.00001515      -0.00000068       0.10204939      -5.64590743
N        1.55530394       8.08159631      13.09951298       0.00000761      -0.00000179      -0.10202449      -6.54647229
Al       9.33182361      -0.00000000       0.00000000       0.00000650       0.00000996       0.10204658      -5.64589984
N        9.33182361       1.79591029       0.60194979      -0.00001054      -0.00000254      -0.10204943      -6.54646679
Al       9.33182361       1.79591029       2.49951264       0.00000611       0.00000524       0.10204543      -5.64590991
N        9.33182361      -0.00000000       3.10146243       0.00002350      -0.00000832      -0.10204079      -6.54647391
Al       9.33182361      -0.00000000       4.99902528      -0.00005674       0.00002078       0.10205717      -5.64588184
N        9.33182361       1.79591029       5.60097507       0.00001818      -0.00001024      -0.10206892      -6.54648252
Al       9.33182361       1.79591029       7.49853791      -0.00001136      -0.00000150       0.10208336      -5.64590282
N        9.33182361      -0.00000000       8.10048771      -0.00000070       0.00000505      -0.10211088      -6.54647427
Al       9.33182361      -0.00000000       9.99805055       0.00004895      -0.00003000       0.10209216      -5.64591957
N        9.33182361       1.79591029      10.60000035      -0.00000967       0.00001478      -0.10207747      -6.54647166
Al       9.33182361       1.79591029      12.49756319       0.00000877      -0.00000353       0.10206571      -5.64590185
N        9.33182361      -0.00000000      13.09951298      -0.00001065      -0.00000374      -0.10204079      -6.54647103
Al       7.77651968       2.69386544       0.00000000       0.00000567      -0.00000764       0.10205728      -5.64590203
N        7.77651968       4.48977573       0.60194979      -0.00001052       0.00001172      -0.10205575      -6.54647595
Al       7.77651968       4.48977573       2.49951264       0.00000883      -0.00000676       0.10206662      -5.64590339
N        7.77651968       2.69386544       3.10146243      -0.00000004       0.00000088      -0.10206174      -6.54647403
Al       7.77651968       2.69386544       4.99902528      -0.00000734       0.00000408       0.10206613      -5.64590198
N        7.77651968       4.48977573       5.60097507       0.00000314       0.00000190      -0.10207524      -6.54647390
Al       7.77651968       4.48977573       7.49853791      -0.00000627       0.00000373       0.10207695      -5.64590157
N        7.77651968       2.69386544       8.10048771       0.00000353      -0.00000296      -0.10207805      -6.54647390
Al       7.77651968       2.69386544       9.99805055       0.00000417       0.00000264       0.10207598      -5.64590152
N        7.77651968       4.48977573      10.60000035       0.00000781      -0.00001543      -0.10206362      -6.54647166
Al       7.77651968       4.48977573      12.49756319       0.00000156       0.00000115       0.10205662      -5.64590375
N        7.77651968       2.69386544      13.09951298      -0.00000445       0.00000405      -0.10205654      -6.54647392
Al       6.22121574       5.38773088       0.00000000       0.00001095      -0.00004722       0.10203902      -5.64588027
N        6.22121574       7.18364117       0.60194979      -0.00007731       0.00002329      -0.10216269      -6.54655294
Al       6.22121574       7.18364117       2.49951264       0.00000199       0.00000899       0.10209310      -5.64589018
N        6.22121574       5.38773088       3.10146243      -0.00000232       0.00001347      -0.10207827      -6.54647565
Al       6.22121574       5.38773088       4.99902528       0.00000058      -0.00000971       0.10207510      -5.64590198
N        6.22121574       7.18364117       5.60097507       0.00000026       0.00002049      -0.10207938      -6.54648252
Al       6.22121574       7.18364117       7.49853791      -0.00000690      -0.00000843       0.10210657      -5.64590165
N        6.22121574       5.38773088       8.10048771       0.00000171      -0.00001249      -0.10209458      -6.54647265
Al       6.22121574       5.38773088       9.99805055      -0.00000092       0.00005855       0.10208331      -5.64591957
N        6.22121574       7.18364117      10.60000035       0.00011005      -0.00006396      -0.10219074      -6.54638802
Al       6.22121574       7.18364117      12.49756319       0.00017054      -0.00009012       0.10178649      -5.64601354
N        6.22121574       5.38773088      13.09951298      -0.00000686       0.00000353      -0.10202358      -6.54647229
Al       4.66591181       8.08159631      -0.00000000       0.00000092       0.00005879       0.10124222      -5.64555176
N        4.66591181       9.87750661       0.60194979      -0.00011005      -0.00015281      -0.10227751      -6.54647622
Al       4.66591181       9.87750661       2.49951264      -0.00017054      -0.00009616       0.10182580      -5.64599818
N        4.66591181       8.08159631       3.10146243       0.00000686       0.00001014      -0.10205225      -6.54648085
Al       4.66591181       8.08159631       4.99902528      -0.00001095      -0.00005814       0.10206947      -5.64588209
N        4.66591181       9.87750661       5.60097507       0.00007731       0.00004493      -0.10219419      -6.54656210
Al       4.66591181       9.87750661       7.49853791      -0.00000199      -0.00000912       0.10215199      -5.64588315
N        4.66591181       8.08159631       8.10048771       0.00000232       0.00001437      -0.10212234      -6.54646764
Al       4.66591181       8.08159631       9.99805055      -0.00000058      -0.00000139       0.10221367      -5.64596840
N        4.66591181       9.87750661      10.60000035      -0.00000026       0.00012693      -0.10219420      -6.54638802
Al       4.66591181       9.87750661      12.49756319       0.00000690       0.00020091       0.10180531      -5.64601427
N        4.66591181       8.08159631      13.09951298      -0.00000171      -0.00001749      -0.10005427      -6.54646898
