
     Program PWSCF v.7.2 starts on 22Dec2024 at 16:42: 5 

     This program is part of the open-source Quantum ESPRESSO suite
     for quantum simulation of materials; please cite
         "P. Giannozzi et al., J. Phys.:Condens. Matter 21 395502 (2009);
         "P. Giannozzi et al., J. Phys.:Condens. Matter 29 465901 (2017);
         "P. Giannozzi et al., J. Chem. Phys. 152 154105 (2020);
          URL http://www.quantum-espresso.org", 
     in publications or presentations arising from this work. More details at
     http://www.quantum-espresso.org/quote

     Parallel version (MPI), running on    16 processors

     MPI processes distributed on     1 nodes
     60438 MiB available memory on the printing compute node when the environment starts

     Waiting for input...
     Reading input from standard input

     Current dimensions of program PWSCF are:
     Max number of different atomic species (ntypx) = 10
     Max number of k-points (npk) =  40000
     Max angular momentum in pseudopotentials (lmaxx) =  4
     Message from routine volume:
     axis vectors are left-handed

     File tmp/si.update deleted, as requested
     Message from routine setup:
     using ibrav=0 with symmetry is DISCOURAGED, use correct ibrav instead

     K-points division:     npool     =       4
     R & G space division:  proc/nbgrp/npool/nimage =       4
     Subspace diagonalization in iterative solution of the eigenvalue problem:
     a serial algorithm will be used


     Parallelization info
     --------------------
     sticks:   dense  smooth     PW     G-vecs:    dense   smooth      PW
     Min         214     108     37                 4221     1495     284
     Max         215     109     38                 4224     1498     285
     Sum         859     433    151                16889     5985    1139

     Using Slab Decomposition



     bravais-lattice index     =            0
     lattice parameter (alat)  =       7.2571  a.u.
     unit-cell volume          =     270.2504 (a.u.)^3
     number of atoms/cell      =            2
     number of atomic types    =            1
     number of electrons       =         8.00
     number of Kohn-Sham states=            4
     kinetic-energy cutoff     =      30.0000  Ry
     charge density cutoff     =     240.0000  Ry
     scf convergence threshold =      4.0E-10
     mixing beta               =       0.4000
     number of iterations used =            8  plain     mixing
     energy convergence thresh.=      2.0E-05
     force convergence thresh. =      1.0E-04
     press convergence thresh. =      2.0E-03
     Exchange-correlation= PBESOL
                           (   1   4  10   8   0   0   0)
     nstep                     =           50


     celldm(1)=   7.257056  celldm(2)=   0.000000  celldm(3)=   0.000000
     celldm(4)=   0.000000  celldm(5)=   0.000000  celldm(6)=   0.000000

     crystal axes: (cart. coord. in units of alat)
               a(1) = (   0.707107   0.707107   0.000000 )  
               a(2) = (   0.707107   0.000000   0.707107 )  
               a(3) = (   0.000000   0.707107   0.707107 )  

     reciprocal axes: (cart. coord. in units 2 pi/alat)
               b(1) = (  0.707107  0.707107 -0.707107 )  
               b(2) = (  0.707107 -0.707107  0.707107 )  
               b(3) = ( -0.707107  0.707107  0.707107 )  


     PseudoPot. # 1 for Si read from file:
     ../pseudo/Si.pbesol-n-rrkjus_psl.1.0.0.UPF
     MD5 check sum: c4212819de858c94c3a1644338846ac9
     Pseudo is Ultrasoft + core correction, Zval =  4.0
     Generated using "atomic" code by A. Dal Corso  v.6.0 svn rev. 13079
     Using radial grid of 1141 points,  6 beta functions with: 
                l(1) =   0
                l(2) =   0
                l(3) =   1
                l(4) =   1
                l(5) =   2
                l(6) =   2
     Q(r) pseudized with 0 coefficients 


     atomic species   valence    mass     pseudopotential
        Si             4.00    28.08550     Si( 1.00)

     48 Sym. Ops., with inversion, found (24 have fractional translation)


                                    s                        frac. trans.

      isym =  1     identity                                     

 cryst.   s( 1) = (     1          0          0      )
                  (     0          1          0      )
                  (     0          0          1      )

 cart.    s( 1) = (  1.0000000  0.0000000 -0.0000000 )
                  (  0.0000000  1.0000000 -0.0000000 )
                  (  0.0000000 -0.0000000  1.0000000 )


      isym =  2     180 deg rotation - cart. axis [0,0,1]        

 cryst.   s( 2) = (    -1          0          0      )
                  (    -1          0          1      )
                  (    -1          1          0      )

 cart.    s( 2) = ( -1.0000000 -0.0000000 -0.0000000 )
                  ( -0.0000000 -1.0000000 -0.0000000 )
                  ( -0.0000000  0.0000000  1.0000000 )


      isym =  3     180 deg rotation - cart. axis [0,1,0]        

 cryst.   s( 3) = (     0         -1          1      )
                  (     0         -1          0      )
                  (     1         -1          0      )

 cart.    s( 3) = ( -1.0000000  0.0000000  0.0000000 )
                  ( -0.0000000  1.0000000  0.0000000 )
                  ( -0.0000000 -0.0000000 -1.0000000 )


      isym =  4     180 deg rotation - cart. axis [1,0,0]        

 cryst.   s( 4) = (     0          1         -1      )
                  (     1          0         -1      )
                  (     0          0         -1      )

 cart.    s( 4) = (  1.0000000 -0.0000000  0.0000000 )
                  (  0.0000000 -1.0000000  0.0000000 )
                  (  0.0000000  0.0000000 -1.0000000 )


      isym =  5     180 deg rotation - cart. axis [1,1,0]        

 cryst.   s( 5) = (     1          0          0      )    f =( -0.2500000 )
                  (     1         -1          0      )       ( -0.2500000 )
                  (     1          0         -1      )       ( -0.2500000 )

 cart.    s( 5) = (  0.0000000  1.0000000  0.0000000 )    f =( -0.3535534 )
                  (  1.0000000  0.0000000  0.0000000 )       ( -0.3535534 )
                  ( -0.0000000  0.0000000 -1.0000000 )       ( -0.3535534 )


      isym =  6     180 deg rotation - cart. axis [1,-1,0]       

 cryst.   s( 6) = (    -1          0          0      )    f =( -0.2500000 )
                  (     0          0         -1      )       ( -0.2500000 )
                  (     0         -1          0      )       ( -0.2500000 )

 cart.    s( 6) = ( -0.0000000 -1.0000000  0.0000000 )    f =( -0.3535534 )
                  ( -1.0000000 -0.0000000  0.0000000 )       ( -0.3535534 )
                  (  0.0000000 -0.0000000 -1.0000000 )       ( -0.3535534 )


      isym =  7      90 deg rotation - cart. axis [0,0,-1]       

 cryst.   s( 7) = (     0          1         -1      )    f =( -0.2500000 )
                  (    -1          1          0      )       ( -0.2500000 )
                  (     0          1          0      )       ( -0.2500000 )

 cart.    s( 7) = ( -0.0000000  1.0000000 -0.0000000 )    f =( -0.3535534 )
                  ( -1.0000000  0.0000000 -0.0000000 )       ( -0.3535534 )
                  (  0.0000000  0.0000000  1.0000000 )       ( -0.3535534 )


      isym =  8      90 deg rotation - cart. axis [0,0,1]        

 cryst.   s( 8) = (     0         -1          1      )    f =( -0.2500000 )
                  (     0          0          1      )       ( -0.2500000 )
                  (    -1          0          1      )       ( -0.2500000 )

 cart.    s( 8) = (  0.0000000 -1.0000000 -0.0000000 )    f =( -0.3535534 )
                  (  1.0000000 -0.0000000 -0.0000000 )       ( -0.3535534 )
                  ( -0.0000000 -0.0000000  1.0000000 )       ( -0.3535534 )


      isym =  9     180 deg rotation - cart. axis [1,0,1]        

 cryst.   s( 9) = (    -1          1          0      )    f =( -0.2500000 )
                  (     0          1          0      )       ( -0.2500000 )
                  (     0          1         -1      )       ( -0.2500000 )

 cart.    s( 9) = ( -0.0000000 -0.0000000  1.0000000 )    f =( -0.3535534 )
                  ( -0.0000000 -1.0000000  0.0000000 )       ( -0.3535534 )
                  (  1.0000000  0.0000000  0.0000000 )       ( -0.3535534 )


      isym = 10     180 deg rotation - cart. axis [-1,0,1]       

 cryst.   s(10) = (     0          0         -1      )    f =( -0.2500000 )
                  (     0         -1          0      )       ( -0.2500000 )
                  (    -1          0          0      )       ( -0.2500000 )

 cart.    s(10) = (  0.0000000 -0.0000000 -1.0000000 )    f =( -0.3535534 )
                  (  0.0000000 -1.0000000 -0.0000000 )       ( -0.3535534 )
                  ( -1.0000000  0.0000000 -0.0000000 )       ( -0.3535534 )


      isym = 11      90 deg rotation - cart. axis [0,1,0]        

 cryst.   s(11) = (     1         -1          0      )    f =( -0.2500000 )
                  (     1          0         -1      )       ( -0.2500000 )
                  (     1          0          0      )       ( -0.2500000 )

 cart.    s(11) = (  0.0000000  0.0000000  1.0000000 )    f =( -0.3535534 )
                  (  0.0000000  1.0000000  0.0000000 )       ( -0.3535534 )
                  ( -1.0000000 -0.0000000  0.0000000 )       ( -0.3535534 )


      isym = 12      90 deg rotation - cart. axis [0,-1,0]       

 cryst.   s(12) = (     0          0          1      )    f =( -0.2500000 )
                  (    -1          0          1      )       ( -0.2500000 )
                  (     0         -1          1      )       ( -0.2500000 )

 cart.    s(12) = ( -0.0000000  0.0000000 -1.0000000 )    f =( -0.3535534 )
                  ( -0.0000000  1.0000000 -0.0000000 )       ( -0.3535534 )
                  (  1.0000000 -0.0000000 -0.0000000 )       ( -0.3535534 )


      isym = 13     180 deg rotation - cart. axis [0,1,1]        

 cryst.   s(13) = (    -1          0          1      )    f =( -0.2500000 )
                  (     0         -1          1      )       ( -0.2500000 )
                  (     0          0          1      )       ( -0.2500000 )

 cart.    s(13) = ( -1.0000000 -0.0000000  0.0000000 )    f =( -0.3535534 )
                  ( -0.0000000 -0.0000000  1.0000000 )       ( -0.3535534 )
                  ( -0.0000000  1.0000000 -0.0000000 )       ( -0.3535534 )


      isym = 14     180 deg rotation - cart. axis [0,1,-1]       

 cryst.   s(14) = (     0         -1          0      )    f =( -0.2500000 )
                  (    -1          0          0      )       ( -0.2500000 )
                  (     0          0         -1      )       ( -0.2500000 )

 cart.    s(14) = ( -1.0000000  0.0000000 -0.0000000 )    f =( -0.3535534 )
                  ( -0.0000000  0.0000000 -1.0000000 )       ( -0.3535534 )
                  ( -0.0000000 -1.0000000  0.0000000 )       ( -0.3535534 )


      isym = 15      90 deg rotation - cart. axis [-1,0,0]       

 cryst.   s(15) = (     1          0         -1      )    f =( -0.2500000 )
                  (     1          0          0      )       ( -0.2500000 )
                  (     1         -1          0      )       ( -0.2500000 )

 cart.    s(15) = (  1.0000000  0.0000000  0.0000000 )    f =( -0.3535534 )
                  (  0.0000000  0.0000000  1.0000000 )       ( -0.3535534 )
                  (  0.0000000 -1.0000000 -0.0000000 )       ( -0.3535534 )


      isym = 16      90 deg rotation - cart. axis [1,0,0]        

 cryst.   s(16) = (     0          1          0      )    f =( -0.2500000 )
                  (     0          1         -1      )       ( -0.2500000 )
                  (    -1          1          0      )       ( -0.2500000 )

 cart.    s(16) = (  1.0000000 -0.0000000 -0.0000000 )    f =( -0.3535534 )
                  (  0.0000000 -0.0000000 -1.0000000 )       ( -0.3535534 )
                  (  0.0000000  1.0000000  0.0000000 )       ( -0.3535534 )


      isym = 17     120 deg rotation - cart. axis [-1,-1,-1]     

 cryst.   s(17) = (     0          1          0      )
                  (     0          0          1      )
                  (     1          0          0      )

 cart.    s(17) = ( -0.0000000  1.0000000  0.0000000 )
                  ( -0.0000000  0.0000000  1.0000000 )
                  (  1.0000000  0.0000000 -0.0000000 )


      isym = 18     120 deg rotation - cart. axis [-1,1,1]       

 cryst.   s(18) = (     0         -1          0      )
                  (     1         -1          0      )
                  (     0         -1          1      )

 cart.    s(18) = (  0.0000000 -1.0000000  0.0000000 )
                  (  0.0000000 -0.0000000  1.0000000 )
                  ( -1.0000000 -0.0000000 -0.0000000 )


      isym = 19     120 deg rotation - cart. axis [1,1,-1]       

 cryst.   s(19) = (     1          0         -1      )
                  (     0          0         -1      )
                  (     0          1         -1      )

 cart.    s(19) = (  0.0000000  1.0000000 -0.0000000 )
                  (  0.0000000  0.0000000 -1.0000000 )
                  ( -1.0000000  0.0000000  0.0000000 )


      isym = 20     120 deg rotation - cart. axis [1,-1,1]       

 cryst.   s(20) = (    -1          0          1      )
                  (    -1          1          0      )
                  (    -1          0          0      )

 cart.    s(20) = ( -0.0000000 -1.0000000 -0.0000000 )
                  ( -0.0000000 -0.0000000 -1.0000000 )
                  (  1.0000000 -0.0000000  0.0000000 )


      isym = 21     120 deg rotation - cart. axis [1,1,1]        

 cryst.   s(21) = (     0          0          1      )
                  (     1          0          0      )
                  (     0          1          0      )

 cart.    s(21) = (  0.0000000 -0.0000000  1.0000000 )
                  (  1.0000000 -0.0000000  0.0000000 )
                  ( -0.0000000  1.0000000  0.0000000 )


      isym = 22     120 deg rotation - cart. axis [-1,1,-1]      

 cryst.   s(22) = (     0          0         -1      )
                  (     0          1         -1      )
                  (     1          0         -1      )

 cart.    s(22) = ( -0.0000000  0.0000000  1.0000000 )
                  ( -1.0000000  0.0000000  0.0000000 )
                  (  0.0000000 -1.0000000  0.0000000 )


      isym = 23     120 deg rotation - cart. axis [1,-1,-1]      

 cryst.   s(23) = (    -1          1          0      )
                  (    -1          0          0      )
                  (    -1          0          1      )

 cart.    s(23) = ( -0.0000000 -0.0000000 -1.0000000 )
                  ( -1.0000000 -0.0000000 -0.0000000 )
                  (  0.0000000  1.0000000 -0.0000000 )


      isym = 24     120 deg rotation - cart. axis [-1,-1,1]      

 cryst.   s(24) = (     1         -1          0      )
                  (     0         -1          1      )
                  (     0         -1          0      )

 cart.    s(24) = (  0.0000000  0.0000000 -1.0000000 )
                  (  1.0000000  0.0000000 -0.0000000 )
                  ( -0.0000000 -1.0000000 -0.0000000 )


      isym = 25     inversion                                    

 cryst.   s(25) = (    -1          0          0      )    f =( -0.2500000 )
                  (     0         -1          0      )       ( -0.2500000 )
                  (     0          0         -1      )       ( -0.2500000 )

 cart.    s(25) = ( -1.0000000 -0.0000000  0.0000000 )    f =( -0.3535534 )
                  ( -0.0000000 -1.0000000  0.0000000 )       ( -0.3535534 )
                  ( -0.0000000  0.0000000 -1.0000000 )       ( -0.3535534 )


      isym = 26     inv. 180 deg rotation - cart. axis [0,0,1]   

 cryst.   s(26) = (     1          0          0      )    f =( -0.2500000 )
                  (     1          0         -1      )       ( -0.2500000 )
                  (     1         -1          0      )       ( -0.2500000 )

 cart.    s(26) = (  1.0000000  0.0000000  0.0000000 )    f =( -0.3535534 )
                  (  0.0000000  1.0000000  0.0000000 )       ( -0.3535534 )
                  (  0.0000000 -0.0000000 -1.0000000 )       ( -0.3535534 )


      isym = 27     inv. 180 deg rotation - cart. axis [0,1,0]   

 cryst.   s(27) = (     0          1         -1      )    f =( -0.2500000 )
                  (     0          1          0      )       ( -0.2500000 )
                  (    -1          1          0      )       ( -0.2500000 )

 cart.    s(27) = (  1.0000000 -0.0000000 -0.0000000 )    f =( -0.3535534 )
                  (  0.0000000 -1.0000000 -0.0000000 )       ( -0.3535534 )
                  (  0.0000000  0.0000000  1.0000000 )       ( -0.3535534 )


      isym = 28     inv. 180 deg rotation - cart. axis [1,0,0]   

 cryst.   s(28) = (     0         -1          1      )    f =( -0.2500000 )
                  (    -1          0          1      )       ( -0.2500000 )
                  (     0          0          1      )       ( -0.2500000 )

 cart.    s(28) = ( -1.0000000  0.0000000 -0.0000000 )    f =( -0.3535534 )
                  ( -0.0000000  1.0000000 -0.0000000 )       ( -0.3535534 )
                  ( -0.0000000 -0.0000000  1.0000000 )       ( -0.3535534 )


      isym = 29     inv. 180 deg rotation - cart. axis [1,1,0]   

 cryst.   s(29) = (    -1          0          0      )
                  (    -1          1          0      )
                  (    -1          0          1      )

 cart.    s(29) = ( -0.0000000 -1.0000000 -0.0000000 )
                  ( -1.0000000 -0.0000000 -0.0000000 )
                  (  0.0000000 -0.0000000  1.0000000 )


      isym = 30     inv. 180 deg rotation - cart. axis [1,-1,0]  

 cryst.   s(30) = (     1          0          0      )
                  (     0          0          1      )
                  (     0          1          0      )

 cart.    s(30) = (  0.0000000  1.0000000 -0.0000000 )
                  (  1.0000000  0.0000000 -0.0000000 )
                  ( -0.0000000  0.0000000  1.0000000 )


      isym = 31     inv.  90 deg rotation - cart. axis [0,0,-1]  

 cryst.   s(31) = (     0         -1          1      )
                  (     1         -1          0      )
                  (     0         -1          0      )

 cart.    s(31) = (  0.0000000 -1.0000000  0.0000000 )
                  (  1.0000000 -0.0000000  0.0000000 )
                  ( -0.0000000 -0.0000000 -1.0000000 )


      isym = 32     inv.  90 deg rotation - cart. axis [0,0,1]   

 cryst.   s(32) = (     0          1         -1      )
                  (     0          0         -1      )
                  (     1          0         -1      )

 cart.    s(32) = ( -0.0000000  1.0000000  0.0000000 )
                  ( -1.0000000  0.0000000  0.0000000 )
                  (  0.0000000  0.0000000 -1.0000000 )


      isym = 33     inv. 180 deg rotation - cart. axis [1,0,1]   

 cryst.   s(33) = (     1         -1          0      )
                  (     0         -1          0      )
                  (     0         -1          1      )

 cart.    s(33) = (  0.0000000  0.0000000 -1.0000000 )
                  (  0.0000000  1.0000000 -0.0000000 )
                  ( -1.0000000 -0.0000000 -0.0000000 )


      isym = 34     inv. 180 deg rotation - cart. axis [-1,0,1]  

 cryst.   s(34) = (     0          0          1      )
                  (     0          1          0      )
                  (     1          0          0      )

 cart.    s(34) = ( -0.0000000  0.0000000  1.0000000 )
                  ( -0.0000000  1.0000000  0.0000000 )
                  (  1.0000000 -0.0000000  0.0000000 )


      isym = 35     inv.  90 deg rotation - cart. axis [0,1,0]   

 cryst.   s(35) = (    -1          1          0      )
                  (    -1          0          1      )
                  (    -1          0          0      )

 cart.    s(35) = ( -0.0000000 -0.0000000 -1.0000000 )
                  ( -0.0000000 -1.0000000 -0.0000000 )
                  (  1.0000000  0.0000000 -0.0000000 )


      isym = 36     inv.  90 deg rotation - cart. axis [0,-1,0]  

 cryst.   s(36) = (     0          0         -1      )
                  (     1          0         -1      )
                  (     0          1         -1      )

 cart.    s(36) = (  0.0000000 -0.0000000  1.0000000 )
                  (  0.0000000 -1.0000000  0.0000000 )
                  ( -1.0000000  0.0000000  0.0000000 )


      isym = 37     inv. 180 deg rotation - cart. axis [0,1,1]   

 cryst.   s(37) = (     1          0         -1      )
                  (     0          1         -1      )
                  (     0          0         -1      )

 cart.    s(37) = (  1.0000000  0.0000000 -0.0000000 )
                  (  0.0000000  0.0000000 -1.0000000 )
                  (  0.0000000 -1.0000000  0.0000000 )


      isym = 38     inv. 180 deg rotation - cart. axis [0,1,-1]  

 cryst.   s(38) = (     0          1          0      )
                  (     1          0          0      )
                  (     0          0          1      )

 cart.    s(38) = (  1.0000000 -0.0000000  0.0000000 )
                  (  0.0000000 -0.0000000  1.0000000 )
                  (  0.0000000  1.0000000 -0.0000000 )


      isym = 39     inv.  90 deg rotation - cart. axis [-1,0,0]  

 cryst.   s(39) = (    -1          0          1      )
                  (    -1          0          0      )
                  (    -1          1          0      )

 cart.    s(39) = ( -1.0000000 -0.0000000 -0.0000000 )
                  ( -0.0000000 -0.0000000 -1.0000000 )
                  ( -0.0000000  1.0000000  0.0000000 )


      isym = 40     inv.  90 deg rotation - cart. axis [1,0,0]   

 cryst.   s(40) = (     0         -1          0      )
                  (     0         -1          1      )
                  (     1         -1          0      )

 cart.    s(40) = ( -1.0000000  0.0000000  0.0000000 )
                  ( -0.0000000  0.0000000  1.0000000 )
                  ( -0.0000000 -1.0000000 -0.0000000 )


      isym = 41     inv. 120 deg rotation - cart. axis [-1,-1,-1]

 cryst.   s(41) = (     0         -1          0      )    f =( -0.2500000 )
                  (     0          0         -1      )       ( -0.2500000 )
                  (    -1          0          0      )       ( -0.2500000 )

 cart.    s(41) = (  0.0000000 -1.0000000 -0.0000000 )    f =( -0.3535534 )
                  (  0.0000000 -0.0000000 -1.0000000 )       ( -0.3535534 )
                  ( -1.0000000 -0.0000000  0.0000000 )       ( -0.3535534 )


      isym = 42     inv. 120 deg rotation - cart. axis [-1,1,1]  

 cryst.   s(42) = (     0          1          0      )    f =( -0.2500000 )
                  (    -1          1          0      )       ( -0.2500000 )
                  (     0          1         -1      )       ( -0.2500000 )

 cart.    s(42) = ( -0.0000000  1.0000000 -0.0000000 )    f =( -0.3535534 )
                  ( -0.0000000  0.0000000 -1.0000000 )       ( -0.3535534 )
                  (  1.0000000  0.0000000  0.0000000 )       ( -0.3535534 )


      isym = 43     inv. 120 deg rotation - cart. axis [1,1,-1]  

 cryst.   s(43) = (    -1          0          1      )    f =( -0.2500000 )
                  (     0          0          1      )       ( -0.2500000 )
                  (     0         -1          1      )       ( -0.2500000 )

 cart.    s(43) = ( -0.0000000 -1.0000000  0.0000000 )    f =( -0.3535534 )
                  ( -0.0000000 -0.0000000  1.0000000 )       ( -0.3535534 )
                  (  1.0000000 -0.0000000 -0.0000000 )       ( -0.3535534 )


      isym = 44     inv. 120 deg rotation - cart. axis [1,-1,1]  

 cryst.   s(44) = (     1          0         -1      )    f =( -0.2500000 )
                  (     1         -1          0      )       ( -0.2500000 )
                  (     1          0          0      )       ( -0.2500000 )

 cart.    s(44) = (  0.0000000  1.0000000  0.0000000 )    f =( -0.3535534 )
                  (  0.0000000  0.0000000  1.0000000 )       ( -0.3535534 )
                  ( -1.0000000  0.0000000 -0.0000000 )       ( -0.3535534 )


      isym = 45     inv. 120 deg rotation - cart. axis [1,1,1]   

 cryst.   s(45) = (     0          0         -1      )    f =( -0.2500000 )
                  (    -1          0          0      )       ( -0.2500000 )
                  (     0         -1          0      )       ( -0.2500000 )

 cart.    s(45) = ( -0.0000000  0.0000000 -1.0000000 )    f =( -0.3535534 )
                  ( -1.0000000  0.0000000 -0.0000000 )       ( -0.3535534 )
                  (  0.0000000 -1.0000000 -0.0000000 )       ( -0.3535534 )


      isym = 46     inv. 120 deg rotation - cart. axis [-1,1,-1] 

 cryst.   s(46) = (     0          0          1      )    f =( -0.2500000 )
                  (     0         -1          1      )       ( -0.2500000 )
                  (    -1          0          1      )       ( -0.2500000 )

 cart.    s(46) = (  0.0000000 -0.0000000 -1.0000000 )    f =( -0.3535534 )
                  (  1.0000000 -0.0000000 -0.0000000 )       ( -0.3535534 )
                  ( -0.0000000  1.0000000 -0.0000000 )       ( -0.3535534 )


      isym = 47     inv. 120 deg rotation - cart. axis [1,-1,-1] 

 cryst.   s(47) = (     1         -1          0      )    f =( -0.2500000 )
                  (     1          0          0      )       ( -0.2500000 )
                  (     1          0         -1      )       ( -0.2500000 )

 cart.    s(47) = (  0.0000000  0.0000000  1.0000000 )    f =( -0.3535534 )
                  (  1.0000000  0.0000000  0.0000000 )       ( -0.3535534 )
                  ( -0.0000000 -1.0000000  0.0000000 )       ( -0.3535534 )


      isym = 48     inv. 120 deg rotation - cart. axis [-1,-1,1] 

 cryst.   s(48) = (    -1          1          0      )    f =( -0.2500000 )
                  (     0          1         -1      )       ( -0.2500000 )
                  (     0          1          0      )       ( -0.2500000 )

 cart.    s(48) = ( -0.0000000 -0.0000000  1.0000000 )    f =( -0.3535534 )
                  ( -1.0000000 -0.0000000  0.0000000 )       ( -0.3535534 )
                  (  0.0000000  1.0000000  0.0000000 )       ( -0.3535534 )


   Cartesian axes

     site n.     atom                  positions (alat units)
         1           Si  tau(   1) = (   0.0000000   0.0000000   0.0000000  )
         2           Si  tau(   2) = (   0.3535534   0.3535534   0.3535534  )

   Crystallographic axes

     site n.     atom                  positions (cryst. coord.)
         1           Si  tau(   1) = (  0.0000000  0.0000000  0.0000000  )
         2           Si  tau(   2) = (  0.2500000  0.2500000  0.2500000  )

     number of k points=   104
                       cart. coord. in units 2pi/alat
        k(    1) = (   0.0000000   0.0000000   0.0000000), wk =   0.0007289
        k(    2) = (  -0.0505076   0.0505076   0.0505076), wk =   0.0058309
        k(    3) = (  -0.1010153   0.1010153   0.1010153), wk =   0.0058309
        k(    4) = (  -0.1515229   0.1515229   0.1515229), wk =   0.0058309
        k(    5) = (  -0.2020305   0.2020305   0.2020305), wk =   0.0058309
        k(    6) = (  -0.2525381   0.2525381   0.2525381), wk =   0.0058309
        k(    7) = (  -0.3030458   0.3030458   0.3030458), wk =   0.0058309
        k(    8) = (   0.3535534  -0.3535534  -0.3535534), wk =   0.0029155
        k(    9) = (   0.0000000  -0.0000000   0.1010153), wk =   0.0043732
        k(   10) = (  -0.0505076   0.0505076   0.1515229), wk =   0.0174927
        k(   11) = (  -0.1010153   0.1010153   0.2020305), wk =   0.0174927
        k(   12) = (  -0.1515229   0.1515229   0.2525381), wk =   0.0174927
        k(   13) = (  -0.2020305   0.2020305   0.3030458), wk =   0.0174927
        k(   14) = (  -0.2525381   0.2525381   0.3535534), wk =   0.0174927
        k(   15) = (   0.4040610  -0.4040610  -0.3030458), wk =   0.0174927
        k(   16) = (   0.3535534  -0.3535534  -0.2525381), wk =   0.0174927
        k(   17) = (   0.3030458  -0.3030458  -0.2020305), wk =   0.0174927
        k(   18) = (   0.2525381  -0.2525381  -0.1515229), wk =   0.0174927
        k(   19) = (   0.2020305  -0.2020305  -0.1010153), wk =   0.0174927
        k(   20) = (   0.1515229  -0.1515229  -0.0505076), wk =   0.0174927
        k(   21) = (   0.1010153  -0.1010153   0.0000000), wk =   0.0087464
        k(   22) = (   0.0000000  -0.0000000   0.2020305), wk =   0.0043732
        k(   23) = (  -0.0505076   0.0505076   0.2525381), wk =   0.0174927
        k(   24) = (  -0.1010153   0.1010153   0.3030458), wk =   0.0174927
        k(   25) = (  -0.1515229   0.1515229   0.3535534), wk =   0.0174927
        k(   26) = (  -0.2020305   0.2020305   0.4040610), wk =   0.0174927
        k(   27) = (   0.4545686  -0.4545686  -0.2525381), wk =   0.0174927
        k(   28) = (   0.4040610  -0.4040610  -0.2020305), wk =   0.0174927
        k(   29) = (   0.3535534  -0.3535534  -0.1515229), wk =   0.0174927
        k(   30) = (   0.3030458  -0.3030458  -0.1010153), wk =   0.0174927
        k(   31) = (   0.2525381  -0.2525381  -0.0505076), wk =   0.0174927
        k(   32) = (   0.2020305  -0.2020305  -0.0000000), wk =   0.0087464
        k(   33) = (   0.0000000  -0.0000000   0.3030458), wk =   0.0043732
        k(   34) = (  -0.0505076   0.0505076   0.3535534), wk =   0.0174927
        k(   35) = (  -0.1010153   0.1010153   0.4040610), wk =   0.0174927
        k(   36) = (  -0.1515229   0.1515229   0.4545686), wk =   0.0174927
        k(   37) = (   0.5050763  -0.5050763  -0.2020305), wk =   0.0174927
        k(   38) = (   0.4545686  -0.4545686  -0.1515229), wk =   0.0174927
        k(   39) = (   0.4040610  -0.4040610  -0.1010153), wk =   0.0174927
        k(   40) = (   0.3535534  -0.3535534  -0.0505076), wk =   0.0174927
        k(   41) = (   0.3030458  -0.3030458  -0.0000000), wk =   0.0087464
        k(   42) = (   0.0000000  -0.0000000   0.4040610), wk =   0.0043732
        k(   43) = (  -0.0505076   0.0505076   0.4545686), wk =   0.0174927
        k(   44) = (  -0.1010153   0.1010153   0.5050763), wk =   0.0174927
        k(   45) = (   0.5555839  -0.5555839  -0.1515229), wk =   0.0174927
        k(   46) = (   0.5050763  -0.5050763  -0.1010153), wk =   0.0174927
        k(   47) = (   0.4545686  -0.4545686  -0.0505076), wk =   0.0174927
        k(   48) = (   0.4040610  -0.4040610   0.0000000), wk =   0.0087464
        k(   49) = (  -0.0000000   0.0000000   0.5050763), wk =   0.0043732
        k(   50) = (  -0.0505076   0.0505076   0.5555839), wk =   0.0174927
        k(   51) = (   0.6060915  -0.6060915  -0.1010153), wk =   0.0174927
        k(   52) = (   0.5555839  -0.5555839  -0.0505076), wk =   0.0174927
        k(   53) = (   0.5050763  -0.5050763   0.0000000), wk =   0.0087464
        k(   54) = (   0.0000000  -0.0000000   0.6060915), wk =   0.0043732
        k(   55) = (   0.6565992  -0.6565992  -0.0505076), wk =   0.0174927
        k(   56) = (   0.6060915  -0.6060915  -0.0000000), wk =   0.0087464
        k(   57) = (   0.0000000   0.0000000  -0.7071068), wk =   0.0021866
        k(   58) = (   0.0000000   0.1010153   0.2020305), wk =   0.0174927
        k(   59) = (  -0.0505076   0.1515229   0.2525381), wk =   0.0349854
        k(   60) = (  -0.1010153   0.2020305   0.3030458), wk =   0.0349854
        k(   61) = (  -0.1515229   0.2525381   0.3535534), wk =   0.0349854
        k(   62) = (   0.5050763  -0.4040610  -0.3030458), wk =   0.0349854
        k(   63) = (   0.4545686  -0.3535534  -0.2525381), wk =   0.0174927
        k(   64) = (   0.0000000   0.1010153   0.3030458), wk =   0.0174927
        k(   65) = (  -0.0505076   0.1515229   0.3535534), wk =   0.0349854
        k(   66) = (  -0.1010153   0.2020305   0.4040610), wk =   0.0349854
        k(   67) = (   0.5555839  -0.4545686  -0.2525381), wk =   0.0349854
        k(   68) = (   0.5050763  -0.4040610  -0.2020305), wk =   0.0349854
        k(   69) = (   0.4545686  -0.3535534  -0.1515229), wk =   0.0349854
        k(   70) = (   0.4040610  -0.3030458  -0.1010153), wk =   0.0349854
        k(   71) = (   0.3535534  -0.2525381  -0.0505076), wk =   0.0349854
        k(   72) = (   0.3030458  -0.2020305  -0.0000000), wk =   0.0174927
        k(   73) = (  -0.0000000   0.1010153   0.4040610), wk =   0.0174927
        k(   74) = (  -0.0505076   0.1515229   0.4545686), wk =   0.0349854
        k(   75) = (   0.6060915  -0.5050763  -0.2020305), wk =   0.0349854
        k(   76) = (   0.5555839  -0.4545686  -0.1515229), wk =   0.0349854
        k(   77) = (   0.5050763  -0.4040610  -0.1010153), wk =   0.0349854
        k(   78) = (   0.4545686  -0.3535534  -0.0505076), wk =   0.0349854
        k(   79) = (   0.4040610  -0.3030458  -0.0000000), wk =   0.0174927
        k(   80) = (   0.0000000   0.1010153   0.5050763), wk =   0.0174927
        k(   81) = (   0.6565992  -0.5555839  -0.1515229), wk =   0.0349854
        k(   82) = (   0.6060915  -0.5050763  -0.1010153), wk =   0.0349854
        k(   83) = (   0.5555839  -0.4545686  -0.0505076), wk =   0.0349854
        k(   84) = (   0.5050763  -0.4040610   0.0000000), wk =   0.0174927
        k(   85) = (   0.7071068  -0.6060915  -0.1010153), wk =   0.0174927
        k(   86) = (   0.6565992  -0.5555839  -0.0505076), wk =   0.0349854
        k(   87) = (   0.6060915  -0.5050763   0.0000000), wk =   0.0174927
        k(   88) = (   0.0000000   0.1010153  -0.7071068), wk =   0.0087464
        k(   89) = (   0.0000000   0.2020305   0.4040610), wk =   0.0174927
        k(   90) = (   0.6565992  -0.4545686  -0.2525381), wk =   0.0349854
        k(   91) = (   0.6060915  -0.4040610  -0.2020305), wk =   0.0349854
        k(   92) = (   0.5555839  -0.3535534  -0.1515229), wk =   0.0174927
        k(   93) = (   0.7071068  -0.5050763  -0.2020305), wk =   0.0174927
        k(   94) = (   0.6565992  -0.4545686  -0.1515229), wk =   0.0349854
        k(   95) = (   0.6060915  -0.4040610  -0.1010153), wk =   0.0349854
        k(   96) = (   0.5555839  -0.3535534  -0.0505076), wk =   0.0349854
        k(   97) = (   0.5050763  -0.3030458  -0.0000000), wk =   0.0174927
        k(   98) = (   0.7071068  -0.5050763  -0.1010153), wk =   0.0174927
        k(   99) = (   0.6565992  -0.4545686  -0.0505076), wk =   0.0349854
        k(  100) = (   0.6060915  -0.4040610   0.0000000), wk =   0.0174927
        k(  101) = (  -0.0000000   0.2020305  -0.7071068), wk =   0.0087464
        k(  102) = (   0.7071068  -0.4040610  -0.1010153), wk =   0.0174927
        k(  103) = (   0.6565992  -0.3535534  -0.0505076), wk =   0.0174927
        k(  104) = (  -0.0000000   0.3030458  -0.7071068), wk =   0.0087464

                       cryst. coord.
        k(    1) = (   0.0000000   0.0000000   0.0000000), wk =   0.0007289
        k(    2) = (   0.0000000  -0.0000000   0.0714286), wk =   0.0058309
        k(    3) = (   0.0000000  -0.0000000   0.1428571), wk =   0.0058309
        k(    4) = (  -0.0000000   0.0000000   0.2142857), wk =   0.0058309
        k(    5) = (   0.0000000  -0.0000000   0.2857143), wk =   0.0058309
        k(    6) = (   0.0000000  -0.0000000   0.3571429), wk =   0.0058309
        k(    7) = (  -0.0000000   0.0000000   0.4285714), wk =   0.0058309
        k(    8) = (  -0.0000000   0.0000000  -0.5000000), wk =   0.0029155
        k(    9) = (  -0.0000000   0.0714286   0.0714286), wk =   0.0043732
        k(   10) = (  -0.0000000   0.0714286   0.1428571), wk =   0.0174927
        k(   11) = (  -0.0000000   0.0714286   0.2142857), wk =   0.0174927
        k(   12) = (  -0.0000000   0.0714286   0.2857143), wk =   0.0174927
        k(   13) = (   0.0000000   0.0714286   0.3571429), wk =   0.0174927
        k(   14) = (   0.0000000   0.0714286   0.4285714), wk =   0.0174927
        k(   15) = (  -0.0000000   0.0714286  -0.5000000), wk =   0.0174927
        k(   16) = (  -0.0000000   0.0714286  -0.4285714), wk =   0.0174927
        k(   17) = (   0.0000000   0.0714286  -0.3571429), wk =   0.0174927
        k(   18) = (  -0.0000000   0.0714286  -0.2857143), wk =   0.0174927
        k(   19) = (  -0.0000000   0.0714286  -0.2142857), wk =   0.0174927
        k(   20) = (  -0.0000000   0.0714286  -0.1428571), wk =   0.0174927
        k(   21) = (  -0.0000000   0.0714286  -0.0714286), wk =   0.0087464
        k(   22) = (  -0.0000000   0.1428571   0.1428571), wk =   0.0043732
        k(   23) = (  -0.0000000   0.1428571   0.2142857), wk =   0.0174927
        k(   24) = (  -0.0000000   0.1428571   0.2857143), wk =   0.0174927
        k(   25) = (  -0.0000000   0.1428571   0.3571429), wk =   0.0174927
        k(   26) = (  -0.0000000   0.1428571   0.4285714), wk =   0.0174927
        k(   27) = (   0.0000000   0.1428571  -0.5000000), wk =   0.0174927
        k(   28) = (  -0.0000000   0.1428571  -0.4285714), wk =   0.0174927
        k(   29) = (  -0.0000000   0.1428571  -0.3571429), wk =   0.0174927
        k(   30) = (   0.0000000   0.1428571  -0.2857143), wk =   0.0174927
        k(   31) = (  -0.0000000   0.1428571  -0.2142857), wk =   0.0174927
        k(   32) = (  -0.0000000   0.1428571  -0.1428571), wk =   0.0087464
        k(   33) = (   0.0000000   0.2142857   0.2142857), wk =   0.0043732
        k(   34) = (   0.0000000   0.2142857   0.2857143), wk =   0.0174927
        k(   35) = (   0.0000000   0.2142857   0.3571429), wk =   0.0174927
        k(   36) = (  -0.0000000   0.2142857   0.4285714), wk =   0.0174927
        k(   37) = (  -0.0000000   0.2142857  -0.5000000), wk =   0.0174927
        k(   38) = (   0.0000000   0.2142857  -0.4285714), wk =   0.0174927
        k(   39) = (   0.0000000   0.2142857  -0.3571429), wk =   0.0174927
        k(   40) = (  -0.0000000   0.2142857  -0.2857143), wk =   0.0174927
        k(   41) = (   0.0000000   0.2142857  -0.2142857), wk =   0.0087464
        k(   42) = (  -0.0000000   0.2857143   0.2857143), wk =   0.0043732
        k(   43) = (   0.0000000   0.2857143   0.3571429), wk =   0.0174927
        k(   44) = (  -0.0000000   0.2857143   0.4285714), wk =   0.0174927
        k(   45) = (   0.0000000   0.2857143  -0.5000000), wk =   0.0174927
        k(   46) = (  -0.0000000   0.2857143  -0.4285714), wk =   0.0174927
        k(   47) = (  -0.0000000   0.2857143  -0.3571429), wk =   0.0174927
        k(   48) = (  -0.0000000   0.2857143  -0.2857143), wk =   0.0087464
        k(   49) = (   0.0000000   0.3571429   0.3571429), wk =   0.0043732
        k(   50) = (   0.0000000   0.3571429   0.4285714), wk =   0.0174927
        k(   51) = (   0.0000000   0.3571429  -0.5000000), wk =   0.0174927
        k(   52) = (  -0.0000000   0.3571429  -0.4285714), wk =   0.0174927
        k(   53) = (  -0.0000000   0.3571429  -0.3571429), wk =   0.0087464
        k(   54) = (   0.0000000   0.4285714   0.4285714), wk =   0.0043732
        k(   55) = (  -0.0000000   0.4285714  -0.5000000), wk =   0.0174927
        k(   56) = (   0.0000000   0.4285714  -0.4285714), wk =   0.0087464
        k(   57) = (   0.0000000  -0.5000000  -0.5000000), wk =   0.0021866
        k(   58) = (   0.0714286   0.1428571   0.2142857), wk =   0.0174927
        k(   59) = (   0.0714286   0.1428571   0.2857143), wk =   0.0349854
        k(   60) = (   0.0714286   0.1428571   0.3571429), wk =   0.0349854
        k(   61) = (   0.0714286   0.1428571   0.4285714), wk =   0.0349854
        k(   62) = (   0.0714286   0.1428571  -0.5000000), wk =   0.0349854
        k(   63) = (   0.0714286   0.1428571  -0.4285714), wk =   0.0174927
        k(   64) = (   0.0714286   0.2142857   0.2857143), wk =   0.0174927
        k(   65) = (   0.0714286   0.2142857   0.3571429), wk =   0.0349854
        k(   66) = (   0.0714286   0.2142857   0.4285714), wk =   0.0349854
        k(   67) = (   0.0714286   0.2142857  -0.5000000), wk =   0.0349854
        k(   68) = (   0.0714286   0.2142857  -0.4285714), wk =   0.0349854
        k(   69) = (   0.0714286   0.2142857  -0.3571429), wk =   0.0349854
        k(   70) = (   0.0714286   0.2142857  -0.2857143), wk =   0.0349854
        k(   71) = (   0.0714286   0.2142857  -0.2142857), wk =   0.0349854
        k(   72) = (   0.0714286   0.2142857  -0.1428571), wk =   0.0174927
        k(   73) = (   0.0714286   0.2857143   0.3571429), wk =   0.0174927
        k(   74) = (   0.0714286   0.2857143   0.4285714), wk =   0.0349854
        k(   75) = (   0.0714286   0.2857143  -0.5000000), wk =   0.0349854
        k(   76) = (   0.0714286   0.2857143  -0.4285714), wk =   0.0349854
        k(   77) = (   0.0714286   0.2857143  -0.3571429), wk =   0.0349854
        k(   78) = (   0.0714286   0.2857143  -0.2857143), wk =   0.0349854
        k(   79) = (   0.0714286   0.2857143  -0.2142857), wk =   0.0174927
        k(   80) = (   0.0714286   0.3571429   0.4285714), wk =   0.0174927
        k(   81) = (   0.0714286   0.3571429  -0.5000000), wk =   0.0349854
        k(   82) = (   0.0714286   0.3571429  -0.4285714), wk =   0.0349854
        k(   83) = (   0.0714286   0.3571429  -0.3571429), wk =   0.0349854
        k(   84) = (   0.0714286   0.3571429  -0.2857143), wk =   0.0174927
        k(   85) = (   0.0714286   0.4285714  -0.5000000), wk =   0.0174927
        k(   86) = (   0.0714286   0.4285714  -0.4285714), wk =   0.0349854
        k(   87) = (   0.0714286   0.4285714  -0.3571429), wk =   0.0174927
        k(   88) = (   0.0714286  -0.5000000  -0.4285714), wk =   0.0087464
        k(   89) = (   0.1428571   0.2857143   0.4285714), wk =   0.0174927
        k(   90) = (   0.1428571   0.2857143  -0.5000000), wk =   0.0349854
        k(   91) = (   0.1428571   0.2857143  -0.4285714), wk =   0.0349854
        k(   92) = (   0.1428571   0.2857143  -0.3571429), wk =   0.0174927
        k(   93) = (   0.1428571   0.3571429  -0.5000000), wk =   0.0174927
        k(   94) = (   0.1428571   0.3571429  -0.4285714), wk =   0.0349854
        k(   95) = (   0.1428571   0.3571429  -0.3571429), wk =   0.0349854
        k(   96) = (   0.1428571   0.3571429  -0.2857143), wk =   0.0349854
        k(   97) = (   0.1428571   0.3571429  -0.2142857), wk =   0.0174927
        k(   98) = (   0.1428571   0.4285714  -0.4285714), wk =   0.0174927
        k(   99) = (   0.1428571   0.4285714  -0.3571429), wk =   0.0349854
        k(  100) = (   0.1428571   0.4285714  -0.2857143), wk =   0.0174927
        k(  101) = (   0.1428571  -0.5000000  -0.3571429), wk =   0.0087464
        k(  102) = (   0.2142857   0.4285714  -0.3571429), wk =   0.0174927
        k(  103) = (   0.2142857   0.4285714  -0.2857143), wk =   0.0174927
        k(  104) = (   0.2142857  -0.5000000  -0.2857143), wk =   0.0087464

     Dense  grid:    16889 G-vectors     FFT dimensions: (  36,  36,  36)

     Smooth grid:     5985 G-vectors     FFT dimensions: (  32,  32,  32)

     Dynamical RAM for                 wfc:       0.01 MB

     Dynamical RAM for     wfc (w. buffer):       0.31 MB

     Dynamical RAM for           str. fact:       0.06 MB

     Dynamical RAM for           local pot:       0.00 MB

     Dynamical RAM for          nlocal pot:       0.10 MB

     Dynamical RAM for                qrad:       2.49 MB

     Dynamical RAM for          rho,v,vnew:       0.46 MB

     Dynamical RAM for               rhoin:       0.15 MB

     Dynamical RAM for            rho*nmix:       1.03 MB

     Dynamical RAM for           G-vectors:       0.25 MB

     Dynamical RAM for          h,s,v(r/c):       0.00 MB

     Dynamical RAM for          <psi|beta>:       0.00 MB

     Dynamical RAM for                 psi:       0.02 MB

     Dynamical RAM for                hpsi:       0.02 MB

     Dynamical RAM for                spsi:       0.02 MB

     Dynamical RAM for      wfcinit/wfcrot:       0.05 MB

     Dynamical RAM for           addusdens:       3.08 MB

     Dynamical RAM for          addusforce:       3.10 MB

     Dynamical RAM for         addusstress:       3.26 MB

     Estimated static dynamical RAM per process >       4.40 MB

     Estimated max dynamical RAM per process >       8.70 MB

     Estimated total dynamical RAM >     126.80 MB

     Initial potential from superposition of free atoms

     starting charge       7.9989, renormalised to       8.0000
     Starting wfcs are    8 randomized atomic wfcs

     total cpu time spent up to now is        0.9 secs

     per-process dynamical memory:    14.0 Mb

     Self-consistent Calculation

     iteration #  1     ecut=    30.00 Ry     beta= 0.40
     Davidson diagonalization with overlap

---- Real-time Memory Report at c_bands before calling an iterative solver
            41 MiB given to the printing process from OS
            13 MiB allocation reported by mallinfo(arena+hblkhd)
         55518 MiB available memory on the node where the printing process lives
------------------
     ethr =  1.00E-02,  avg # of iterations =  2.0

     Threshold (ethr) on eigenvalues was too large:
     Diagonalizing with lowered threshold

     Davidson diagonalization with overlap

---- Real-time Memory Report at c_bands before calling an iterative solver
            43 MiB given to the printing process from OS
            15 MiB allocation reported by mallinfo(arena+hblkhd)
         53901 MiB available memory on the node where the printing process lives
------------------
     ethr =  6.04E-04,  avg # of iterations =  1.5

     total cpu time spent up to now is        1.1 secs

     total energy              =     -22.67967505 Ry
     estimated scf accuracy    <       0.05274034 Ry

     iteration #  2     ecut=    30.00 Ry     beta= 0.40
     Davidson diagonalization with overlap

---- Real-time Memory Report at c_bands before calling an iterative solver
            43 MiB given to the printing process from OS
            15 MiB allocation reported by mallinfo(arena+hblkhd)
         52211 MiB available memory on the node where the printing process lives
------------------
     ethr =  6.59E-04,  avg # of iterations =  1.0

     total cpu time spent up to now is        1.2 secs

     total energy              =     -22.67575328 Ry
     estimated scf accuracy    <       0.01604967 Ry

     iteration #  3     ecut=    30.00 Ry     beta= 0.40
     Davidson diagonalization with overlap

---- Real-time Memory Report at c_bands before calling an iterative solver
            44 MiB given to the printing process from OS
            15 MiB allocation reported by mallinfo(arena+hblkhd)
         50692 MiB available memory on the node where the printing process lives
------------------
     ethr =  2.01E-04,  avg # of iterations =  2.0

     total cpu time spent up to now is        1.3 secs

     total energy              =     -22.67760050 Ry
     estimated scf accuracy    <       0.00035797 Ry

     iteration #  4     ecut=    30.00 Ry     beta= 0.40
     Davidson diagonalization with overlap

---- Real-time Memory Report at c_bands before calling an iterative solver
            44 MiB given to the printing process from OS
            15 MiB allocation reported by mallinfo(arena+hblkhd)
         48871 MiB available memory on the node where the printing process lives
------------------
     ethr =  4.47E-06,  avg # of iterations =  3.6

     total cpu time spent up to now is        1.4 secs

     total energy              =     -22.67762433 Ry
     estimated scf accuracy    <       0.00048486 Ry

     iteration #  5     ecut=    30.00 Ry     beta= 0.40
     Davidson diagonalization with overlap

---- Real-time Memory Report at c_bands before calling an iterative solver
            44 MiB given to the printing process from OS
            15 MiB allocation reported by mallinfo(arena+hblkhd)
         46539 MiB available memory on the node where the printing process lives
------------------
     ethr =  4.47E-06,  avg # of iterations =  2.0

     total cpu time spent up to now is        1.5 secs

     total energy              =     -22.67767807 Ry
     estimated scf accuracy    <       0.00000070 Ry

     iteration #  6     ecut=    30.00 Ry     beta= 0.40
     Davidson diagonalization with overlap

---- Real-time Memory Report at c_bands before calling an iterative solver
            44 MiB given to the printing process from OS
            15 MiB allocation reported by mallinfo(arena+hblkhd)
         44677 MiB available memory on the node where the printing process lives
------------------
     ethr =  8.79E-09,  avg # of iterations =  8.7

     total cpu time spent up to now is        1.7 secs

     total energy              =     -22.67768602 Ry
     estimated scf accuracy    <       0.00000362 Ry

     iteration #  7     ecut=    30.00 Ry     beta= 0.40
     Davidson diagonalization with overlap

---- Real-time Memory Report at c_bands before calling an iterative solver
            44 MiB given to the printing process from OS
            15 MiB allocation reported by mallinfo(arena+hblkhd)
         40331 MiB available memory on the node where the printing process lives
------------------
     ethr =  8.79E-09,  avg # of iterations =  2.0

     total cpu time spent up to now is        1.8 secs

     total energy              =     -22.67768602 Ry
     estimated scf accuracy    <       0.00000120 Ry

     iteration #  8     ecut=    30.00 Ry     beta= 0.40
     Davidson diagonalization with overlap

---- Real-time Memory Report at c_bands before calling an iterative solver
            44 MiB given to the printing process from OS
            15 MiB allocation reported by mallinfo(arena+hblkhd)
         38565 MiB available memory on the node where the printing process lives
------------------
     ethr =  8.79E-09,  avg # of iterations =  1.0

     total cpu time spent up to now is        1.9 secs

     total energy              =     -22.67775325 Ry
     estimated scf accuracy    <       0.00000098 Ry

     iteration #  9     ecut=    30.00 Ry     beta= 0.40
     Davidson diagonalization with overlap

---- Real-time Memory Report at c_bands before calling an iterative solver
            44 MiB given to the printing process from OS
            15 MiB allocation reported by mallinfo(arena+hblkhd)
         37017 MiB available memory on the node where the printing process lives
------------------
     ethr =  8.79E-09,  avg # of iterations =  7.0

     total cpu time spent up to now is        2.0 secs

     total energy              =     -22.67767030 Ry
     estimated scf accuracy    <       0.00026426 Ry

     iteration # 10     ecut=    30.00 Ry     beta= 0.40
     Davidson diagonalization with overlap

---- Real-time Memory Report at c_bands before calling an iterative solver
            44 MiB given to the printing process from OS
            15 MiB allocation reported by mallinfo(arena+hblkhd)
         33337 MiB available memory on the node where the printing process lives
------------------
     ethr =  8.79E-09,  avg # of iterations =  6.3

     total cpu time spent up to now is        2.2 secs

     total energy              =     -22.67768543 Ry
     estimated scf accuracy    <       0.00000761 Ry

     iteration # 11     ecut=    30.00 Ry     beta= 0.40
     Davidson diagonalization with overlap

---- Real-time Memory Report at c_bands before calling an iterative solver
            44 MiB given to the printing process from OS
            15 MiB allocation reported by mallinfo(arena+hblkhd)
         30574 MiB available memory on the node where the printing process lives
------------------
     ethr =  8.79E-09,  avg # of iterations =  2.8

     total cpu time spent up to now is        2.3 secs

     total energy              =     -22.67768567 Ry
     estimated scf accuracy    <       0.00000068 Ry

     iteration # 12     ecut=    30.00 Ry     beta= 0.40
     Davidson diagonalization with overlap

---- Real-time Memory Report at c_bands before calling an iterative solver
            44 MiB given to the printing process from OS
            15 MiB allocation reported by mallinfo(arena+hblkhd)
         30869 MiB available memory on the node where the printing process lives
------------------
     ethr =  8.47E-09,  avg # of iterations =  1.1

     total cpu time spent up to now is        2.4 secs

     total energy              =     -22.67768646 Ry
     estimated scf accuracy    <       0.00000014 Ry

     iteration # 13     ecut=    30.00 Ry     beta= 0.40
     Davidson diagonalization with overlap

---- Real-time Memory Report at c_bands before calling an iterative solver
            44 MiB given to the printing process from OS
            15 MiB allocation reported by mallinfo(arena+hblkhd)
         32241 MiB available memory on the node where the printing process lives
------------------
     ethr =  1.70E-09,  avg # of iterations =  3.0

     total cpu time spent up to now is        2.4 secs

     total energy              =     -22.67768563 Ry
     estimated scf accuracy    <       0.00000232 Ry

     iteration # 14     ecut=    30.00 Ry     beta= 0.40
     Davidson diagonalization with overlap

---- Real-time Memory Report at c_bands before calling an iterative solver
            44 MiB given to the printing process from OS
            15 MiB allocation reported by mallinfo(arena+hblkhd)
         34024 MiB available memory on the node where the printing process lives
------------------
     ethr =  1.70E-09,  avg # of iterations =  3.0

     total cpu time spent up to now is        2.5 secs

     total energy              =     -22.67768567 Ry
     estimated scf accuracy    <       0.00000016 Ry

     iteration # 15     ecut=    30.00 Ry     beta= 0.40
     Davidson diagonalization with overlap

---- Real-time Memory Report at c_bands before calling an iterative solver
            44 MiB given to the printing process from OS
            15 MiB allocation reported by mallinfo(arena+hblkhd)
         36195 MiB available memory on the node where the printing process lives
------------------
     ethr =  1.70E-09,  avg # of iterations =  2.0

     total cpu time spent up to now is        2.6 secs

     total energy              =     -22.67768569 Ry
     estimated scf accuracy    <          5.2E-10 Ry

     iteration # 16     ecut=    30.00 Ry     beta= 0.40
     Davidson diagonalization with overlap

---- Real-time Memory Report at c_bands before calling an iterative solver
            44 MiB given to the printing process from OS
            15 MiB allocation reported by mallinfo(arena+hblkhd)
         38680 MiB available memory on the node where the printing process lives
------------------
     ethr =  6.49E-12,  avg # of iterations =  7.4

     total cpu time spent up to now is        2.7 secs

     End of self-consistent calculation

          k = 0.0000 0.0000 0.0000 (   749 PWs)   bands (ev):

    -5.8336   6.1543   6.1543   6.1543

     occupation numbers 
     1.0000   1.0000   1.0000   1.0000

          k =-0.0505 0.0505 0.0505 (   737 PWs)   bands (ev):

    -5.7665   5.4804   6.0444   6.0444

     occupation numbers 
     1.0000   1.0000   1.0000   1.0000

          k =-0.1010 0.1010 0.1010 (   743 PWs)   bands (ev):

    -5.5667   4.2058   5.7930   5.7930

     occupation numbers 
     1.0000   1.0000   1.0000   1.0000

          k =-0.1515 0.1515 0.1515 (   757 PWs)   bands (ev):

    -5.2393   2.8566   5.5158   5.5158

     occupation numbers 
     1.0000   1.0000   1.0000   1.0000

          k =-0.2020 0.2020 0.2020 (   757 PWs)   bands (ev):

    -4.7966   1.5723   5.2751   5.2751

     occupation numbers 
     1.0000   1.0000   1.0000   1.0000

          k =-0.2525 0.2525 0.2525 (   757 PWs)   bands (ev):

    -4.2692   0.4263   5.0958   5.0958

     occupation numbers 
     1.0000   1.0000   1.0000   1.0000

          k =-0.3030 0.3030 0.3030 (   760 PWs)   bands (ev):

    -3.7461  -0.4735   4.9866   4.9866

     occupation numbers 
     1.0000   1.0000   1.0000   1.0000

          k = 0.3536-0.3536-0.3536 (   754 PWs)   bands (ev):

    -3.4859  -0.8601   4.9501   4.9501

     occupation numbers 
     1.0000   1.0000   1.0000   1.0000

          k = 0.0000-0.0000 0.1010 (   741 PWs)   bands (ev):

    -5.7441   5.6187   5.8170   5.8170

     occupation numbers 
     1.0000   1.0000   1.0000   1.0000

          k =-0.0505 0.0505 0.1515 (   749 PWs)   bands (ev):

    -5.5882   4.5875   5.5092   5.6957

     occupation numbers 
     1.0000   1.0000   1.0000   1.0000

          k =-0.1010 0.1010 0.2020 (   749 PWs)   bands (ev):

    -5.3027   3.2880   5.2182   5.4453

     occupation numbers 
     1.0000   1.0000   1.0000   1.0000

          k =-0.1515 0.1515 0.2525 (   757 PWs)   bands (ev):

    -4.8967   1.9978   4.9904   5.1443

     occupation numbers 
     1.0000   1.0000   1.0000   1.0000

          k =-0.2020 0.2020 0.3030 (   760 PWs)   bands (ev):

    -4.3922   0.8106   4.8448   4.8665

     occupation numbers 
     1.0000   1.0000   1.0000   1.0000

          k =-0.2525 0.2525 0.3536 (   756 PWs)   bands (ev):

    -3.8501  -0.1832   4.6432   4.7867

     occupation numbers 
     1.0000   1.0000   1.0000   1.0000

          k = 0.4041-0.4041-0.3030 (   751 PWs)   bands (ev):

    -3.4591  -0.7816   4.4894   4.8148

     occupation numbers 
     1.0000   1.0000   1.0000   1.0000

          k = 0.3536-0.3536-0.2525 (   752 PWs)   bands (ev):

    -3.5517  -0.6469   4.4147   4.9236

     occupation numbers 
     1.0000   1.0000   1.0000   1.0000

          k = 0.3030-0.3030-0.2020 (   758 PWs)   bands (ev):

    -4.0285   0.1202   4.4264   5.1041

     occupation numbers 
     1.0000   1.0000   1.0000   1.0000

          k = 0.2525-0.2525-0.1515 (   756 PWs)   bands (ev):

    -4.5696   1.1921   4.5302   5.3437

     occupation numbers 
     1.0000   1.0000   1.0000   1.0000

          k = 0.2020-0.2020-0.1010 (   755 PWs)   bands (ev):

    -5.0450   2.4192   4.7292   5.6209

     occupation numbers 
     1.0000   1.0000   1.0000   1.0000

          k = 0.1515-0.1515-0.0505 (   752 PWs)   bands (ev):

    -5.4123   3.7091   5.0281   5.8924

     occupation numbers 
     1.0000   1.0000   1.0000   1.0000

          k = 0.1010-0.1010 0.0000 (   741 PWs)   bands (ev):

    -5.6551   4.8676   5.4767   6.0706

     occupation numbers 
     1.0000   1.0000   1.0000   1.0000

          k = 0.0000-0.0000 0.2020 (   753 PWs)   bands (ev):

    -5.4764   4.5185   5.1686   5.1686

     occupation numbers 
     1.0000   1.0000   1.0000   1.0000

          k =-0.0505 0.0505 0.2525 (   756 PWs)   bands (ev):

    -5.2337   3.5619   4.8590   4.9169

     occupation numbers 
     1.0000   1.0000   1.0000   1.0000

          k =-0.1010 0.1010 0.3030 (   752 PWs)   bands (ev):

    -4.8670   2.3795   4.5801   4.6232

     occupation numbers 
     1.0000   1.0000   1.0000   1.0000

          k =-0.1515 0.1515 0.3536 (   751 PWs)   bands (ev):

    -4.3921   1.2150   4.2125   4.4799

     occupation numbers 
     1.0000   1.0000   1.0000   1.0000

          k =-0.2020 0.2020 0.4041 (   748 PWs)   bands (ev):

    -3.8509   0.1785   3.8853   4.4357

     occupation numbers 
     1.0000   1.0000   1.0000   1.0000

          k = 0.4546-0.4546-0.2525 (   748 PWs)   bands (ev):

    -3.3729  -0.5711   3.6305   4.4901

     occupation numbers 
     1.0000   1.0000   1.0000   1.0000

          k = 0.4041-0.4041-0.2020 (   749 PWs)   bands (ev):

    -3.2837  -0.6967   3.4663   4.6376

     occupation numbers 
     1.0000   1.0000   1.0000   1.0000

          k = 0.3536-0.3536-0.1515 (   755 PWs)   bands (ev):

    -3.6801  -0.1006   3.4061   4.8666

     occupation numbers 
     1.0000   1.0000   1.0000   1.0000

          k = 0.3030-0.3030-0.1010 (   749 PWs)   bands (ev):

    -4.2224   0.8643   3.4659   5.1576

     occupation numbers 
     1.0000   1.0000   1.0000   1.0000

          k = 0.2525-0.2525-0.0505 (   751 PWs)   bands (ev):

    -4.7250   1.9685   3.6783   5.4758

     occupation numbers 
     1.0000   1.0000   1.0000   1.0000

          k = 0.2020-0.2020-0.0000 (   753 PWs)   bands (ev):

    -5.1287   3.0037   4.1557   5.7567

     occupation numbers 
     1.0000   1.0000   1.0000   1.0000

          k = 0.0000-0.0000 0.3030 (   745 PWs)   bands (ev):

    -5.0338   3.2719   4.5291   4.5291

     occupation numbers 
     1.0000   1.0000   1.0000   1.0000

          k =-0.0505 0.0505 0.3536 (   747 PWs)   bands (ev):

    -4.7076   2.4482   4.1702   4.2742

     occupation numbers 
     1.0000   1.0000   1.0000   1.0000

          k =-0.1010 0.1010 0.4041 (   751 PWs)   bands (ev):

    -4.2668   1.4615   3.6913   4.1151

     occupation numbers 
     1.0000   1.0000   1.0000   1.0000

          k =-0.1515 0.1515 0.4546 (   754 PWs)   bands (ev):

    -3.7401   0.4869   3.2264   4.0604

     occupation numbers 
     1.0000   1.0000   1.0000   1.0000

          k = 0.5051-0.5051-0.2020 (   749 PWs)   bands (ev):

    -3.2141  -0.3229   2.8478   4.1116

     occupation numbers 
     1.0000   1.0000   1.0000   1.0000

          k = 0.4546-0.4546-0.1515 (   753 PWs)   bands (ev):

    -2.9583  -0.6677   2.5849   4.2645

     occupation numbers 
     1.0000   1.0000   1.0000   1.0000

          k = 0.4041-0.4041-0.1010 (   749 PWs)   bands (ev):

    -3.2406  -0.2758   2.4605   4.5086

     occupation numbers 
     1.0000   1.0000   1.0000   1.0000

          k = 0.3536-0.3536-0.0505 (   752 PWs)   bands (ev):

    -3.7690   0.5264   2.5178   4.8235

     occupation numbers 
     1.0000   1.0000   1.0000   1.0000

          k = 0.3030-0.3030-0.0000 (   754 PWs)   bands (ev):

    -4.2905   1.3607   2.8749   5.1705

     occupation numbers 
     1.0000   1.0000   1.0000   1.0000

          k = 0.0000-0.0000 0.4041 (   745 PWs)   bands (ev):

    -4.4216   1.9901   3.9957   3.9957

     occupation numbers 
     1.0000   1.0000   1.0000   1.0000

          k =-0.0505 0.0505 0.4546 (   746 PWs)   bands (ev):

    -4.0172   1.2668   3.5941   3.8124

     occupation numbers 
     1.0000   1.0000   1.0000   1.0000

          k =-0.1010 0.1010 0.5051 (   756 PWs)   bands (ev):

    -3.5142   0.4809   2.9953   3.7352

     occupation numbers 
     1.0000   1.0000   1.0000   1.0000

          k = 0.5556-0.5556-0.1515 (   750 PWs)   bands (ev):

    -2.9692  -0.2539   2.4356   3.7674

     occupation numbers 
     1.0000   1.0000   1.0000   1.0000

          k = 0.5051-0.5051-0.1010 (   750 PWs)   bands (ev):

    -2.5852  -0.7108   2.0271   3.9066

     occupation numbers 
     1.0000   1.0000   1.0000   1.0000

          k = 0.4546-0.4546-0.0505 (   745 PWs)   bands (ev):

    -2.7406  -0.5193   1.8315   4.1441

     occupation numbers 
     1.0000   1.0000   1.0000   1.0000

          k = 0.4041-0.4041 0.0000 (   744 PWs)   bands (ev):

    -3.2418   0.0465   1.9491   4.4619

     occupation numbers 
     1.0000   1.0000   1.0000   1.0000

          k =-0.0000 0.0000 0.5051 (   757 PWs)   bands (ev):

    -3.6486   0.7152   3.6015   3.6015

     occupation numbers 
     1.0000   1.0000   1.0000   1.0000

          k =-0.0505 0.0505 0.5556 (   752 PWs)   bands (ev):

    -3.1741   0.0655   3.2115   3.4963

     occupation numbers 
     1.0000   1.0000   1.0000   1.0000

          k = 0.6061-0.6061-0.1010 (   751 PWs)   bands (ev):

    -2.6300  -0.5620   2.5766   3.5019

     occupation numbers 
     1.0000   1.0000   1.0000   1.0000

          k = 0.5556-0.5556-0.0505 (   744 PWs)   bands (ev):

    -2.1661  -1.0238   2.0079   3.6175

     occupation numbers 
     1.0000   1.0000   1.0000   1.0000

          k = 0.5051-0.5051 0.0000 (   740 PWs)   bands (ev):

    -2.2621  -0.9064   1.7007   3.8367

     occupation numbers 
     1.0000   1.0000   1.0000   1.0000

          k = 0.0000-0.0000 0.6061 (   749 PWs)   bands (ev):

    -2.7274  -0.5182   3.3609   3.3609

     occupation numbers 
     1.0000   1.0000   1.0000   1.0000

          k = 0.6566-0.6566-0.0505 (   751 PWs)   bands (ev):

    -2.1955  -1.1025   3.0214   3.3362

     occupation numbers 
     1.0000   1.0000   1.0000   1.0000

          k = 0.6061-0.6061-0.0000 (   752 PWs)   bands (ev):

    -1.7684  -1.4829   2.4396   3.4233

     occupation numbers 
     1.0000   1.0000   1.0000   1.0000

          k = 0.0000 0.0000-0.7071 (   740 PWs)   bands (ev):

    -1.6759  -1.6759   3.2801   3.2801

     occupation numbers 
     1.0000   1.0000   1.0000   1.0000

          k = 0.0000 0.1010 0.2020 (   756 PWs)   bands (ev):

    -5.3891   3.8912   4.8215   5.6124

     occupation numbers 
     1.0000   1.0000   1.0000   1.0000

          k =-0.0505 0.1515 0.2525 (   757 PWs)   bands (ev):

    -5.0629   2.7933   4.3458   5.4038

     occupation numbers 
     1.0000   1.0000   1.0000   1.0000

          k =-0.1010 0.2020 0.3030 (   756 PWs)   bands (ev):

    -4.6216   1.6006   4.0683   5.1205

     occupation numbers 
     1.0000   1.0000   1.0000   1.0000

          k =-0.1515 0.2525 0.3536 (   757 PWs)   bands (ev):

    -4.0949   0.4956   3.9040   4.8595

     occupation numbers 
     1.0000   1.0000   1.0000   1.0000

          k = 0.5051-0.4041-0.3030 (   755 PWs)   bands (ev):

    -3.5704  -0.3870   3.8220   4.6774

     occupation numbers 
     1.0000   1.0000   1.0000   1.0000

          k = 0.4546-0.3536-0.2525 (   752 PWs)   bands (ev):

    -3.3078  -0.7706   3.7985   4.6115

     occupation numbers 
     1.0000   1.0000   1.0000   1.0000

          k = 0.0000 0.1010 0.3030 (   755 PWs)   bands (ev):

    -4.9497   2.8582   4.1788   4.8353

     occupation numbers 
     1.0000   1.0000   1.0000   1.0000

          k =-0.0505 0.1515 0.3536 (   754 PWs)   bands (ev):

    -4.5458   1.8859   3.7018   4.6021

     occupation numbers 
     1.0000   1.0000   1.0000   1.0000

          k =-0.1010 0.2020 0.4041 (   753 PWs)   bands (ev):

    -4.0431   0.8492   3.3883   4.3569

     occupation numbers 
     1.0000   1.0000   1.0000   1.0000

          k = 0.5556-0.4546-0.2525 (   750 PWs)   bands (ev):

    -3.5001  -0.0732   3.1580   4.2132

     occupation numbers 
     1.0000   1.0000   1.0000   1.0000

          k = 0.5051-0.4041-0.2020 (   750 PWs)   bands (ev):

    -3.1052  -0.6449   2.9885   4.2112

     occupation numbers 
     1.0000   1.0000   1.0000   1.0000

          k = 0.4546-0.3536-0.1515 (   750 PWs)   bands (ev):

    -3.2053  -0.5041   2.8946   4.3446

     occupation numbers 
     1.0000   1.0000   1.0000   1.0000

          k = 0.4041-0.3030-0.1010 (   754 PWs)   bands (ev):

    -3.6886   0.2305   2.9066   4.5862

     occupation numbers 
     1.0000   1.0000   1.0000   1.0000

          k = 0.3536-0.2525-0.0505 (   750 PWs)   bands (ev):

    -4.2282   1.1906   3.0735   4.8960

     occupation numbers 
     1.0000   1.0000   1.0000   1.0000

          k = 0.3030-0.2020-0.0000 (   750 PWs)   bands (ev):

    -4.6996   2.1200   3.5110   5.2076

     occupation numbers 
     1.0000   1.0000   1.0000   1.0000

          k =-0.0000 0.1010 0.4041 (   748 PWs)   bands (ev):

    -4.3430   1.7660   3.6505   4.1072

     occupation numbers 
     1.0000   1.0000   1.0000   1.0000

          k =-0.0505 0.1515 0.4546 (   754 PWs)   bands (ev):

    -3.8707   0.9485   3.1499   3.8807

     occupation numbers 
     1.0000   1.0000   1.0000   1.0000

          k = 0.6061-0.5051-0.2020 (   748 PWs)   bands (ev):

    -3.3296   0.1197   2.7071   3.7596

     occupation numbers 
     1.0000   1.0000   1.0000   1.0000

          k = 0.5556-0.4546-0.1515 (   745 PWs)   bands (ev):

    -2.8476  -0.5272   2.3599   3.7858

     occupation numbers 
     1.0000   1.0000   1.0000   1.0000

          k = 0.5051-0.4041-0.1010 (   746 PWs)   bands (ev):

    -2.7757  -0.6108   2.1476   3.9446

     occupation numbers 
     1.0000   1.0000   1.0000   1.0000

          k = 0.4546-0.3536-0.0505 (   750 PWs)   bands (ev):

    -3.1951  -0.0664   2.1207   4.2117

     occupation numbers 
     1.0000   1.0000   1.0000   1.0000

          k = 0.4041-0.3030-0.0000 (   754 PWs)   bands (ev):

    -3.7358   0.6383   2.3862   4.5510

     occupation numbers 
     1.0000   1.0000   1.0000   1.0000

          k = 0.0000 0.1010 0.5051 (   753 PWs)   bands (ev):

    -3.5789   0.6217   3.2730   3.5505

     occupation numbers 
     1.0000   1.0000   1.0000   1.0000

          k = 0.6566-0.5556-0.1515 (   746 PWs)   bands (ev):

    -3.0535  -0.0517   2.7317   3.3995

     occupation numbers 
     1.0000   1.0000   1.0000   1.0000

          k = 0.6061-0.5051-0.1010 (   743 PWs)   bands (ev):

    -2.5239  -0.6498   2.1831   3.4267

     occupation numbers 
     1.0000   1.0000   1.0000   1.0000

          k = 0.5556-0.4546-0.0505 (   745 PWs)   bands (ev):

    -2.3091  -0.8644   1.8162   3.5872

     occupation numbers 
     1.0000   1.0000   1.0000   1.0000

          k = 0.5051-0.4041 0.0000 (   736 PWs)   bands (ev):

    -2.6685  -0.4962   1.7518   3.8589

     occupation numbers 
     1.0000   1.0000   1.0000   1.0000

          k = 0.7071-0.6061-0.1010 (   749 PWs)   bands (ev):

    -2.6725  -0.5333   3.0639   3.1936

     occupation numbers 
     1.0000   1.0000   1.0000   1.0000

          k = 0.6566-0.5556-0.0505 (   746 PWs)   bands (ev):

    -2.1242  -1.0843   2.5059   3.1710

     occupation numbers 
     1.0000   1.0000   1.0000   1.0000

          k = 0.6061-0.5051 0.0000 (   743 PWs)   bands (ev):

    -1.8956  -1.2614   1.9917   3.3214

     occupation numbers 
     1.0000   1.0000   1.0000   1.0000

          k = 0.0000 0.1010-0.7071 (   758 PWs)   bands (ev):

    -1.6464  -1.6464   3.0343   3.0343

     occupation numbers 
     1.0000   1.0000   1.0000   1.0000

          k = 0.0000 0.2020 0.4041 (   753 PWs)   bands (ev):

    -4.1105   1.2463   2.9956   4.3457

     occupation numbers 
     1.0000   1.0000   1.0000   1.0000

          k = 0.6566-0.4546-0.2525 (   751 PWs)   bands (ev):

    -3.5881   0.4530   2.5976   4.0326

     occupation numbers 
     1.0000   1.0000   1.0000   1.0000

          k = 0.6061-0.4041-0.2020 (   750 PWs)   bands (ev):

    -3.0591  -0.2996   2.4215   3.7986

     occupation numbers 
     1.0000   1.0000   1.0000   1.0000

          k = 0.5556-0.3536-0.1515 (   742 PWs)   bands (ev):

    -2.7853  -0.6567   2.3733   3.7129

     occupation numbers 
     1.0000   1.0000   1.0000   1.0000

          k = 0.7071-0.5051-0.2020 (   757 PWs)   bands (ev):

    -3.3757   0.3473   2.6520   3.5267

     occupation numbers 
     1.0000   1.0000   1.0000   1.0000

          k = 0.6566-0.4546-0.1515 (   747 PWs)   bands (ev):

    -2.8323  -0.2920   2.2780   3.2674

     occupation numbers 
     1.0000   1.0000   1.0000   1.0000

          k = 0.6061-0.4041-0.1010 (   743 PWs)   bands (ev):

    -2.4244  -0.7482   2.0267   3.2149

     occupation numbers 
     1.0000   1.0000   1.0000   1.0000

          k = 0.5556-0.3536-0.0505 (   746 PWs)   bands (ev):

    -2.5575  -0.5974   1.9373   3.3604

     occupation numbers 
     1.0000   1.0000   1.0000   1.0000

          k = 0.5051-0.3030-0.0000 (   745 PWs)   bands (ev):

    -3.0593  -0.0556   2.0971   3.6562

     occupation numbers 
     1.0000   1.0000   1.0000   1.0000

          k = 0.7071-0.5051-0.1010 (   744 PWs)   bands (ev):

    -2.5187  -0.6018   2.5075   2.9236

     occupation numbers 
     1.0000   1.0000   1.0000   1.0000

          k = 0.6566-0.4546-0.0505 (   745 PWs)   bands (ev):

    -2.0231  -1.0712   2.1233   2.8281

     occupation numbers 
     1.0000   1.0000   1.0000   1.0000

          k = 0.6061-0.4041 0.0000 (   737 PWs)   bands (ev):

    -2.0743  -1.0025   1.8532   3.0167

     occupation numbers 
     1.0000   1.0000   1.0000   1.0000

          k =-0.0000 0.2020-0.7071 (   742 PWs)   bands (ev):

    -1.5763  -1.5763   2.5884   2.5884

     occupation numbers 
     1.0000   1.0000   1.0000   1.0000

          k = 0.7071-0.4041-0.1010 (   745 PWs)   bands (ev):

    -2.3002  -0.7620   2.0499   2.8413

     occupation numbers 
     1.0000   1.0000   1.0000   1.0000

          k = 0.6566-0.3536-0.0505 (   742 PWs)   bands (ev):

    -1.9722  -1.0708   1.9929   2.6700

     occupation numbers 
     1.0000   1.0000   1.0000   1.0000

          k =-0.0000 0.3030-0.7071 (   742 PWs)   bands (ev):

    -1.5154  -1.5154   2.2893   2.2893

     occupation numbers 
     1.0000   1.0000   1.0000   1.0000

     highest occupied level (ev):     6.1543

!    total energy              =     -22.67768569 Ry
     estimated scf accuracy    <          1.3E-10 Ry

     The total energy is the sum of the following terms:
     one-electron contribution =       5.17671795 Ry
     hartree contribution      =       1.07961446 Ry
     xc contribution           =     -12.13804383 Ry
     ewald contribution        =     -16.79597428 Ry

     convergence has been achieved in  16 iterations

     Forces acting on atoms (cartesian axes, Ry/au):

     atom    1 type  1   force =     0.00000000    0.00000000   -0.00000000
     atom    2 type  1   force =    -0.00000000   -0.00000000    0.00000000
     The non-local contrib.  to forces
     atom    1 type  1   force =    -0.00000000    0.00000000    0.00000000
     atom    2 type  1   force =     0.00000000   -0.00000000   -0.00000000
     The ionic contribution  to forces
     atom    1 type  1   force =     0.00000000    0.00000000   -0.00000000
     atom    2 type  1   force =     0.00000000    0.00000000    0.00000000
     The local contribution  to forces
     atom    1 type  1   force =    -0.00000000    0.00000000    0.00000000
     atom    2 type  1   force =     0.00000000   -0.00000000   -0.00000000
     The core correction contribution to forces
     atom    1 type  1   force =    -0.00000000    0.00000000    0.00000000
     atom    2 type  1   force =    -0.00000000    0.00000000   -0.00000000
     The Hubbard contrib.    to forces
     atom    1 type  1   force =     0.00000000    0.00000000    0.00000000
     atom    2 type  1   force =     0.00000000    0.00000000    0.00000000
     The SCF correction term to forces
     atom    1 type  1   force =    -0.00000000   -0.00000000   -0.00000000
     atom    2 type  1   force =    -0.00000000    0.00000000   -0.00000000

     Total force =     0.000000     Total SCF correction =     0.000000


     Computing stress (Cartesian axis) and pressure

          total   stress  (Ry/bohr**3)                   (kbar)     P=        0.95
   0.00000645  -0.00000000  -0.00000000            0.95       -0.00       -0.00
  -0.00000000   0.00000645  -0.00000000           -0.00        0.95       -0.00
  -0.00000000  -0.00000000   0.00000645           -0.00       -0.00        0.95

     kinetic stress (kbar)   2204.64     -0.00      0.00
                               -0.00   2204.64      0.00
                                0.00      0.00   2204.64

     local   stress (kbar)     41.05     -0.00      0.00
                               -0.00     41.05      0.00
                                0.00      0.00     41.05

     nonloc. stress (kbar)   1628.14     -0.00     -0.00
                               -0.00   1628.14     -0.00
                               -0.00     -0.00   1628.14

     hartree stress (kbar)    195.89     -0.00     -0.00
                               -0.00    195.89      0.00
                               -0.00      0.00    195.89

     exc-cor stress (kbar)   2909.35      0.00      0.00
                                0.00   2909.35     -0.00
                                0.00     -0.00   2909.35

     corecor stress (kbar)  -3930.62      0.00      0.00
                                0.00  -3930.62     -0.00
                                0.00     -0.00  -3930.62

     ewald   stress (kbar)  -3047.51      0.00     -0.00
                                0.00  -3047.51      0.00
                               -0.00      0.00  -3047.51

     hubbard stress (kbar)      0.00      0.00      0.00
                                0.00      0.00      0.00
                                0.00      0.00      0.00

     DFT-D   stress (kbar)      0.00      0.00      0.00
                                0.00      0.00      0.00
                                0.00      0.00      0.00

     XDM     stress (kbar)      0.00      0.00      0.00
                                0.00      0.00      0.00
                                0.00      0.00      0.00

     dft-nl  stress (kbar)      0.00      0.00      0.00
                                0.00      0.00      0.00
                                0.00      0.00      0.00

     TS-vdW  stress (kbar)      0.00      0.00      0.00
                                0.00      0.00      0.00
                                0.00      0.00      0.00

     MDB     stress (kbar)      0.00      0.00      0.00
                                0.00      0.00      0.00
                                0.00      0.00      0.00

     3D-RISM stress (kbar)      0.00      0.00      0.00
                                0.00      0.00      0.00
                                0.00      0.00      0.00


     BFGS Geometry Optimization
     Energy error            =      0.0E+00 Ry
     Gradient error          =      4.1E-32 Ry/Bohr
     Cell gradient error     =      9.5E-01 kbar

     number of scf cycles    =   1
     number of bfgs steps    =   0

     enthalpy           new  =     -22.6776856947 Ry

     new trust radius        =       0.0005299832 bohr
WARNING! With ibrav=0, cell_dofree='ibrav' has no effect. 
     Message from routine volume:
     axis vectors are left-handed
     new conv_thr            =       0.0000000004 Ry

     new unit-cell volume =    270.38116 a.u.^3 (    40.06635 Ang^3 )
     density =      2.32799 g/cm^3

CELL_PARAMETERS (angstrom)
   2.715917719   2.715917719  -0.000000000
   2.715917719  -0.000000000   2.715917719
  -0.000000000   2.715917719   2.715917719

ATOMIC_POSITIONS (crystal)
Si            0.0000000000       -0.0000000000       -0.0000000000
Si            0.2500000000        0.2500000000        0.2500000000



     Writing config-only to output data dir tmp/si.save/
     NEW-OLD atomic charge density approx. for the potential
     extrapolated charge    8.00387, renormalised to    8.00000

     total cpu time spent up to now is        3.1 secs

     per-process dynamical memory:    16.3 Mb

     Self-consistent Calculation

     iteration #  1     ecut=    30.00 Ry     beta= 0.40
     Davidson diagonalization with overlap

---- Real-time Memory Report at c_bands before calling an iterative solver
            81 MiB given to the printing process from OS
            15 MiB allocation reported by mallinfo(arena+hblkhd)
         55083 MiB available memory on the node where the printing process lives
------------------
     ethr =  1.00E-06,  avg # of iterations =  2.0

     Threshold (ethr) on eigenvalues was too large:
     Diagonalizing with lowered threshold

     Davidson diagonalization with overlap

---- Real-time Memory Report at c_bands before calling an iterative solver
            81 MiB given to the printing process from OS
            15 MiB allocation reported by mallinfo(arena+hblkhd)
         56560 MiB available memory on the node where the printing process lives
------------------
     ethr =  1.20E-09,  avg # of iterations =  2.4

     total cpu time spent up to now is        3.2 secs

     total energy              =     -22.67768617 Ry
     estimated scf accuracy    <       0.00000009 Ry

     iteration #  2     ecut=    30.00 Ry     beta= 0.40
     Davidson diagonalization with overlap

---- Real-time Memory Report at c_bands before calling an iterative solver
            81 MiB given to the printing process from OS
            15 MiB allocation reported by mallinfo(arena+hblkhd)
         58379 MiB available memory on the node where the printing process lives
------------------
     ethr =  1.15E-09,  avg # of iterations =  3.1

     total cpu time spent up to now is        3.3 secs

     total energy              =     -22.67768634 Ry
     estimated scf accuracy    <       0.00000002 Ry

     iteration #  3     ecut=    30.00 Ry     beta= 0.40
     Davidson diagonalization with overlap

---- Real-time Memory Report at c_bands before calling an iterative solver
            81 MiB given to the printing process from OS
            15 MiB allocation reported by mallinfo(arena+hblkhd)
         60185 MiB available memory on the node where the printing process lives
------------------
     ethr =  2.89E-10,  avg # of iterations =  1.7

     total cpu time spent up to now is        3.3 secs

     total energy              =     -22.67768634 Ry
     estimated scf accuracy    <       0.00000001 Ry

     iteration #  4     ecut=    30.00 Ry     beta= 0.40
     Davidson diagonalization with overlap

---- Real-time Memory Report at c_bands before calling an iterative solver
            81 MiB given to the printing process from OS
            15 MiB allocation reported by mallinfo(arena+hblkhd)
         60185 MiB available memory on the node where the printing process lives
------------------
     ethr =  1.49E-10,  avg # of iterations =  2.0

     total cpu time spent up to now is        3.4 secs

     total energy              =     -22.67768634 Ry
     estimated scf accuracy    <          1.2E-09 Ry

     iteration #  5     ecut=    30.00 Ry     beta= 0.40
     Davidson diagonalization with overlap

---- Real-time Memory Report at c_bands before calling an iterative solver
            81 MiB given to the printing process from OS
            15 MiB allocation reported by mallinfo(arena+hblkhd)
         60184 MiB available memory on the node where the printing process lives
------------------
     ethr =  1.54E-11,  avg # of iterations =  2.0

     total cpu time spent up to now is        3.5 secs

     End of self-consistent calculation

          k = 0.0000 0.0000 0.0000 (   749 PWs)   bands (ev):

    -5.8354   6.1493   6.1493   6.1493

     occupation numbers 
     1.0000   1.0000   1.0000   1.0000

          k =-0.0505 0.0505 0.0505 (   737 PWs)   bands (ev):

    -5.7683   5.4753   6.0394   6.0394

     occupation numbers 
     1.0000   1.0000   1.0000   1.0000

          k =-0.1010 0.1010 0.1010 (   743 PWs)   bands (ev):

    -5.5685   4.2010   5.7882   5.7882

     occupation numbers 
     1.0000   1.0000   1.0000   1.0000

          k =-0.1515 0.1515 0.1515 (   757 PWs)   bands (ev):

    -5.2412   2.8523   5.5111   5.5111

     occupation numbers 
     1.0000   1.0000   1.0000   1.0000

          k =-0.2020 0.2020 0.2020 (   757 PWs)   bands (ev):

    -4.7988   1.5684   5.2704   5.2704

     occupation numbers 
     1.0000   1.0000   1.0000   1.0000

          k =-0.2525 0.2525 0.2525 (   757 PWs)   bands (ev):

    -4.2716   0.4229   5.0911   5.0911

     occupation numbers 
     1.0000   1.0000   1.0000   1.0000

          k =-0.3030 0.3030 0.3030 (   760 PWs)   bands (ev):

    -3.7488  -0.4765   4.9820   4.9820

     occupation numbers 
     1.0000   1.0000   1.0000   1.0000

          k = 0.3535-0.3535-0.3535 (   754 PWs)   bands (ev):

    -3.4889  -0.8628   4.9455   4.9455

     occupation numbers 
     1.0000   1.0000   1.0000   1.0000

          k = 0.0000-0.0000 0.1010 (   741 PWs)   bands (ev):

    -5.7458   5.6133   5.8121   5.8121

     occupation numbers 
     1.0000   1.0000   1.0000   1.0000

          k =-0.0505 0.0505 0.1515 (   749 PWs)   bands (ev):

    -5.5900   4.5824   5.5046   5.6907

     occupation numbers 
     1.0000   1.0000   1.0000   1.0000

          k =-0.1010 0.1010 0.2020 (   749 PWs)   bands (ev):

    -5.3046   3.2834   5.2136   5.4405

     occupation numbers 
     1.0000   1.0000   1.0000   1.0000

          k =-0.1515 0.1515 0.2525 (   757 PWs)   bands (ev):

    -4.8988   1.9937   4.9859   5.1395

     occupation numbers 
     1.0000   1.0000   1.0000   1.0000

          k =-0.2020 0.2020 0.3030 (   760 PWs)   bands (ev):

    -4.3945   0.8070   4.8403   4.8618

     occupation numbers 
     1.0000   1.0000   1.0000   1.0000

          k =-0.2525 0.2525 0.3535 (   756 PWs)   bands (ev):

    -3.8528  -0.1864   4.6386   4.7822

     occupation numbers 
     1.0000   1.0000   1.0000   1.0000

          k = 0.4040-0.4040-0.3030 (   751 PWs)   bands (ev):

    -3.4620  -0.7844   4.4849   4.8103

     occupation numbers 
     1.0000   1.0000   1.0000   1.0000

          k = 0.3535-0.3535-0.2525 (   752 PWs)   bands (ev):

    -3.5545  -0.6499   4.4102   4.9190

     occupation numbers 
     1.0000   1.0000   1.0000   1.0000

          k = 0.3030-0.3030-0.2020 (   758 PWs)   bands (ev):

    -4.0310   0.1169   4.4220   5.0994

     occupation numbers 
     1.0000   1.0000   1.0000   1.0000

          k = 0.2525-0.2525-0.1515 (   756 PWs)   bands (ev):

    -4.5719   1.1883   4.5257   5.3389

     occupation numbers 
     1.0000   1.0000   1.0000   1.0000

          k = 0.2020-0.2020-0.1010 (   755 PWs)   bands (ev):

    -5.0471   2.4149   4.7248   5.6160

     occupation numbers 
     1.0000   1.0000   1.0000   1.0000

          k = 0.1515-0.1515-0.0505 (   752 PWs)   bands (ev):

    -5.4141   3.7043   5.0237   5.8875

     occupation numbers 
     1.0000   1.0000   1.0000   1.0000

          k = 0.1010-0.1010 0.0000 (   741 PWs)   bands (ev):

    -5.6569   4.8625   5.4720   6.0655

     occupation numbers 
     1.0000   1.0000   1.0000   1.0000

          k = 0.0000-0.0000 0.2020 (   753 PWs)   bands (ev):

    -5.4783   4.5131   5.1641   5.1641

     occupation numbers 
     1.0000   1.0000   1.0000   1.0000

          k =-0.0505 0.0505 0.2525 (   756 PWs)   bands (ev):

    -5.2357   3.5569   4.8546   4.9123

     occupation numbers 
     1.0000   1.0000   1.0000   1.0000

          k =-0.1010 0.1010 0.3030 (   752 PWs)   bands (ev):

    -4.8691   2.3750   4.5756   4.6189

     occupation numbers 
     1.0000   1.0000   1.0000   1.0000

          k =-0.1515 0.1515 0.3535 (   751 PWs)   bands (ev):

    -4.3945   1.2110   4.2080   4.4756

     occupation numbers 
     1.0000   1.0000   1.0000   1.0000

          k =-0.2020 0.2020 0.4040 (   748 PWs)   bands (ev):

    -3.8535   0.1750   3.8809   4.4314

     occupation numbers 
     1.0000   1.0000   1.0000   1.0000

          k = 0.4545-0.4545-0.2525 (   748 PWs)   bands (ev):

    -3.3759  -0.5742   3.6263   4.4858

     occupation numbers 
     1.0000   1.0000   1.0000   1.0000

          k = 0.4040-0.4040-0.2020 (   749 PWs)   bands (ev):

    -3.2867  -0.6996   3.4622   4.6332

     occupation numbers 
     1.0000   1.0000   1.0000   1.0000

          k = 0.3535-0.3535-0.1515 (   755 PWs)   bands (ev):

    -3.6828  -0.1040   3.4021   4.8621

     occupation numbers 
     1.0000   1.0000   1.0000   1.0000

          k = 0.3030-0.3030-0.1010 (   749 PWs)   bands (ev):

    -4.2249   0.8605   3.4619   5.1529

     occupation numbers 
     1.0000   1.0000   1.0000   1.0000

          k = 0.2525-0.2525-0.0505 (   751 PWs)   bands (ev):

    -4.7271   1.9641   3.6744   5.4710

     occupation numbers 
     1.0000   1.0000   1.0000   1.0000

          k = 0.2020-0.2020-0.0000 (   753 PWs)   bands (ev):

    -5.1307   2.9989   4.1517   5.7517

     occupation numbers 
     1.0000   1.0000   1.0000   1.0000

          k = 0.0000-0.0000 0.3030 (   745 PWs)   bands (ev):

    -5.0358   3.2667   4.5249   4.5249

     occupation numbers 
     1.0000   1.0000   1.0000   1.0000

          k =-0.0505 0.0505 0.3535 (   747 PWs)   bands (ev):

    -4.7098   2.4433   4.1660   4.2700

     occupation numbers 
     1.0000   1.0000   1.0000   1.0000

          k =-0.1010 0.1010 0.4040 (   751 PWs)   bands (ev):

    -4.2692   1.4571   3.6873   4.1110

     occupation numbers 
     1.0000   1.0000   1.0000   1.0000

          k =-0.1515 0.1515 0.4545 (   754 PWs)   bands (ev):

    -3.7427   0.4829   3.2225   4.0563

     occupation numbers 
     1.0000   1.0000   1.0000   1.0000

          k = 0.5050-0.5050-0.2020 (   749 PWs)   bands (ev):

    -3.2170  -0.3264   2.8441   4.1075

     occupation numbers 
     1.0000   1.0000   1.0000   1.0000

          k = 0.4545-0.4545-0.1515 (   753 PWs)   bands (ev):

    -2.9614  -0.6709   2.5813   4.2603

     occupation numbers 
     1.0000   1.0000   1.0000   1.0000

          k = 0.4040-0.4040-0.1010 (   749 PWs)   bands (ev):

    -3.2435  -0.2793   2.4571   4.5042

     occupation numbers 
     1.0000   1.0000   1.0000   1.0000

          k = 0.3535-0.3535-0.0505 (   752 PWs)   bands (ev):

    -3.7716   0.5224   2.5145   4.8190

     occupation numbers 
     1.0000   1.0000   1.0000   1.0000

          k = 0.3030-0.3030 0.0000 (   754 PWs)   bands (ev):

    -4.2928   1.3564   2.8715   5.1658

     occupation numbers 
     1.0000   1.0000   1.0000   1.0000

          k = 0.0000-0.0000 0.4040 (   745 PWs)   bands (ev):

    -4.4239   1.9852   3.9916   3.9916

     occupation numbers 
     1.0000   1.0000   1.0000   1.0000

          k =-0.0505 0.0505 0.4545 (   746 PWs)   bands (ev):

    -4.0197   1.2622   3.5902   3.8084

     occupation numbers 
     1.0000   1.0000   1.0000   1.0000

          k =-0.1010 0.1010 0.5050 (   756 PWs)   bands (ev):

    -3.5169   0.4766   2.9918   3.7313

     occupation numbers 
     1.0000   1.0000   1.0000   1.0000

          k = 0.5555-0.5555-0.1515 (   750 PWs)   bands (ev):

    -2.9722  -0.2578   2.4324   3.7634

     occupation numbers 
     1.0000   1.0000   1.0000   1.0000

          k = 0.5050-0.5050-0.1010 (   750 PWs)   bands (ev):

    -2.5884  -0.7144   2.0240   3.9025

     occupation numbers 
     1.0000   1.0000   1.0000   1.0000

          k = 0.4545-0.4545-0.0505 (   745 PWs)   bands (ev):

    -2.7438  -0.5230   1.8286   4.1400

     occupation numbers 
     1.0000   1.0000   1.0000   1.0000

          k = 0.4040-0.4040 0.0000 (   744 PWs)   bands (ev):

    -3.2447   0.0425   1.9461   4.4576

     occupation numbers 
     1.0000   1.0000   1.0000   1.0000

          k =-0.0000 0.0000 0.5050 (   757 PWs)   bands (ev):

    -3.6512   0.7107   3.5976   3.5976

     occupation numbers 
     1.0000   1.0000   1.0000   1.0000

          k =-0.0505 0.0505 0.5555 (   752 PWs)   bands (ev):

    -3.1769   0.0612   3.2079   3.4925

     occupation numbers 
     1.0000   1.0000   1.0000   1.0000

          k = 0.6060-0.6060-0.1010 (   751 PWs)   bands (ev):

    -2.6331  -0.5660   2.5734   3.4980

     occupation numbers 
     1.0000   1.0000   1.0000   1.0000

          k = 0.5555-0.5555-0.0505 (   744 PWs)   bands (ev):

    -2.1694  -1.0275   2.0050   3.6136

     occupation numbers 
     1.0000   1.0000   1.0000   1.0000

          k = 0.5050-0.5050-0.0000 (   740 PWs)   bands (ev):

    -2.2655  -0.9101   1.6980   3.8327

     occupation numbers 
     1.0000   1.0000   1.0000   1.0000

          k = 0.0000-0.0000 0.6060 (   749 PWs)   bands (ev):

    -2.7304  -0.5221   3.3571   3.3571

     occupation numbers 
     1.0000   1.0000   1.0000   1.0000

          k = 0.6565-0.6565-0.0505 (   751 PWs)   bands (ev):

    -2.1988  -1.1062   3.0178   3.3324

     occupation numbers 
     1.0000   1.0000   1.0000   1.0000

          k = 0.6060-0.6060 0.0000 (   752 PWs)   bands (ev):

    -1.7719  -1.4865   2.4364   3.4195

     occupation numbers 
     1.0000   1.0000   1.0000   1.0000

          k = 0.0000-0.0000-0.7070 (   740 PWs)   bands (ev):

    -1.6793  -1.6793   3.2763   3.2763

     occupation numbers 
     1.0000   1.0000   1.0000   1.0000

          k = 0.0000 0.1010 0.2020 (   756 PWs)   bands (ev):

    -5.3910   3.8862   4.8171   5.6075

     occupation numbers 
     1.0000   1.0000   1.0000   1.0000

          k =-0.0505 0.1515 0.2525 (   757 PWs)   bands (ev):

    -5.0649   2.7887   4.3416   5.3990

     occupation numbers 
     1.0000   1.0000   1.0000   1.0000

          k =-0.1010 0.2020 0.3030 (   756 PWs)   bands (ev):

    -4.6238   1.5965   4.0640   5.1158

     occupation numbers 
     1.0000   1.0000   1.0000   1.0000

          k =-0.1515 0.2525 0.3535 (   757 PWs)   bands (ev):

    -4.0974   0.4920   3.8998   4.8550

     occupation numbers 
     1.0000   1.0000   1.0000   1.0000

          k = 0.5050-0.4040-0.3030 (   755 PWs)   bands (ev):

    -3.5732  -0.3902   3.8178   4.6729

     occupation numbers 
     1.0000   1.0000   1.0000   1.0000

          k = 0.4545-0.3535-0.2525 (   752 PWs)   bands (ev):

    -3.3108  -0.7735   3.7942   4.6071

     occupation numbers 
     1.0000   1.0000   1.0000   1.0000

          k = 0.0000 0.1010 0.3030 (   755 PWs)   bands (ev):

    -4.9518   2.8532   4.1748   4.8308

     occupation numbers 
     1.0000   1.0000   1.0000   1.0000

          k =-0.0505 0.1515 0.3535 (   754 PWs)   bands (ev):

    -4.5480   1.8814   3.6979   4.5977

     occupation numbers 
     1.0000   1.0000   1.0000   1.0000

          k =-0.1010 0.2020 0.4040 (   753 PWs)   bands (ev):

    -4.0456   0.8452   3.3843   4.3527

     occupation numbers 
     1.0000   1.0000   1.0000   1.0000

          k = 0.5555-0.4545-0.2525 (   750 PWs)   bands (ev):

    -3.5029  -0.0767   3.1541   4.2091

     occupation numbers 
     1.0000   1.0000   1.0000   1.0000

          k = 0.5050-0.4040-0.2020 (   750 PWs)   bands (ev):

    -3.1083  -0.6480   2.9846   4.2071

     occupation numbers 
     1.0000   1.0000   1.0000   1.0000

          k = 0.4545-0.3535-0.1515 (   750 PWs)   bands (ev):

    -3.2083  -0.5073   2.8908   4.3404

     occupation numbers 
     1.0000   1.0000   1.0000   1.0000

          k = 0.4040-0.3030-0.1010 (   754 PWs)   bands (ev):

    -3.6913   0.2269   2.9029   4.5819

     occupation numbers 
     1.0000   1.0000   1.0000   1.0000

          k = 0.3535-0.2525-0.0505 (   750 PWs)   bands (ev):

    -4.2306   1.1864   3.0698   4.8915

     occupation numbers 
     1.0000   1.0000   1.0000   1.0000

          k = 0.3030-0.2020-0.0000 (   750 PWs)   bands (ev):

    -4.7018   2.1154   3.5072   5.2029

     occupation numbers 
     1.0000   1.0000   1.0000   1.0000

          k =-0.0000 0.1010 0.4040 (   748 PWs)   bands (ev):

    -4.3453   1.7612   3.6467   4.1031

     occupation numbers 
     1.0000   1.0000   1.0000   1.0000

          k =-0.0505 0.1515 0.4545 (   754 PWs)   bands (ev):

    -3.8732   0.9441   3.1463   3.8768

     occupation numbers 
     1.0000   1.0000   1.0000   1.0000

          k = 0.6060-0.5050-0.2020 (   748 PWs)   bands (ev):

    -3.3324   0.1158   2.7036   3.7557

     occupation numbers 
     1.0000   1.0000   1.0000   1.0000

          k = 0.5555-0.4545-0.1515 (   745 PWs)   bands (ev):

    -2.8507  -0.5308   2.3566   3.7819

     occupation numbers 
     1.0000   1.0000   1.0000   1.0000

          k = 0.5050-0.4040-0.1010 (   746 PWs)   bands (ev):

    -2.7789  -0.6142   2.1444   3.9406

     occupation numbers 
     1.0000   1.0000   1.0000   1.0000

          k = 0.4545-0.3535-0.0505 (   750 PWs)   bands (ev):

    -3.1980  -0.0702   2.1176   4.2076

     occupation numbers 
     1.0000   1.0000   1.0000   1.0000

          k = 0.4040-0.3030 0.0000 (   754 PWs)   bands (ev):

    -3.7384   0.6341   2.3830   4.5467

     occupation numbers 
     1.0000   1.0000   1.0000   1.0000

          k = 0.0000 0.1010 0.5050 (   753 PWs)   bands (ev):

    -3.5815   0.6173   3.2693   3.5467

     occupation numbers 
     1.0000   1.0000   1.0000   1.0000

          k = 0.6565-0.5555-0.1515 (   746 PWs)   bands (ev):

    -3.0564  -0.0558   2.7283   3.3958

     occupation numbers 
     1.0000   1.0000   1.0000   1.0000

          k = 0.6060-0.5050-0.1010 (   743 PWs)   bands (ev):

    -2.5271  -0.6536   2.1801   3.4230

     occupation numbers 
     1.0000   1.0000   1.0000   1.0000

          k = 0.5555-0.4545-0.0505 (   745 PWs)   bands (ev):

    -2.3125  -0.8681   1.8134   3.5834

     occupation numbers 
     1.0000   1.0000   1.0000   1.0000

          k = 0.5050-0.4040 0.0000 (   736 PWs)   bands (ev):

    -2.6717  -0.5001   1.7490   3.8550

     occupation numbers 
     1.0000   1.0000   1.0000   1.0000

          k = 0.7070-0.6060-0.1010 (   749 PWs)   bands (ev):

    -2.6756  -0.5373   3.0603   3.1900

     occupation numbers 
     1.0000   1.0000   1.0000   1.0000

          k = 0.6565-0.5555-0.0505 (   746 PWs)   bands (ev):

    -2.1275  -1.0880   2.5027   3.1674

     occupation numbers 
     1.0000   1.0000   1.0000   1.0000

          k = 0.6060-0.5050-0.0000 (   743 PWs)   bands (ev):

    -1.8992  -1.2650   1.9889   3.3177

     occupation numbers 
     1.0000   1.0000   1.0000   1.0000

          k = 0.0000 0.1010-0.7070 (   758 PWs)   bands (ev):

    -1.6499  -1.6499   3.0307   3.0307

     occupation numbers 
     1.0000   1.0000   1.0000   1.0000

          k = 0.0000 0.2020 0.4040 (   753 PWs)   bands (ev):

    -4.1130   1.2419   2.9921   4.3415

     occupation numbers 
     1.0000   1.0000   1.0000   1.0000

          k = 0.6565-0.4545-0.2525 (   751 PWs)   bands (ev):

    -3.5908   0.4489   2.5942   4.0286

     occupation numbers 
     1.0000   1.0000   1.0000   1.0000

          k = 0.6060-0.4040-0.2020 (   750 PWs)   bands (ev):

    -3.0621  -0.3032   2.4180   3.7947

     occupation numbers 
     1.0000   1.0000   1.0000   1.0000

          k = 0.5555-0.3535-0.1515 (   742 PWs)   bands (ev):

    -2.7885  -0.6601   2.3698   3.7091

     occupation numbers 
     1.0000   1.0000   1.0000   1.0000

          k = 0.7070-0.5050-0.2020 (   757 PWs)   bands (ev):

    -3.3785   0.3430   2.6487   3.5230

     occupation numbers 
     1.0000   1.0000   1.0000   1.0000

          k = 0.6565-0.4545-0.1515 (   747 PWs)   bands (ev):

    -2.8354  -0.2960   2.2749   3.2639

     occupation numbers 
     1.0000   1.0000   1.0000   1.0000

          k = 0.6060-0.4040-0.1010 (   743 PWs)   bands (ev):

    -2.4278  -0.7519   2.0237   3.2113

     occupation numbers 
     1.0000   1.0000   1.0000   1.0000

          k = 0.5555-0.3535-0.0505 (   746 PWs)   bands (ev):

    -2.5607  -0.6012   1.9344   3.3567

     occupation numbers 
     1.0000   1.0000   1.0000   1.0000

          k = 0.5050-0.3030 0.0000 (   745 PWs)   bands (ev):

    -3.0623  -0.0597   2.0940   3.6524

     occupation numbers 
     1.0000   1.0000   1.0000   1.0000

          k = 0.7070-0.5050-0.1010 (   744 PWs)   bands (ev):

    -2.5218  -0.6058   2.5042   2.9203

     occupation numbers 
     1.0000   1.0000   1.0000   1.0000

          k = 0.6565-0.4545-0.0505 (   745 PWs)   bands (ev):

    -2.0265  -1.0750   2.1204   2.8247

     occupation numbers 
     1.0000   1.0000   1.0000   1.0000

          k = 0.6060-0.4040 0.0000 (   737 PWs)   bands (ev):

    -2.0778  -1.0063   1.8504   3.0132

     occupation numbers 
     1.0000   1.0000   1.0000   1.0000

          k =-0.0000 0.2020-0.7070 (   742 PWs)   bands (ev):

    -1.5799  -1.5799   2.5851   2.5851

     occupation numbers 
     1.0000   1.0000   1.0000   1.0000

          k = 0.7070-0.4040-0.1010 (   745 PWs)   bands (ev):

    -2.3035  -0.7659   2.0469   2.8380

     occupation numbers 
     1.0000   1.0000   1.0000   1.0000

          k = 0.6565-0.3535-0.0505 (   742 PWs)   bands (ev):

    -1.9757  -1.0746   1.9901   2.6668

     occupation numbers 
     1.0000   1.0000   1.0000   1.0000

          k =-0.0000 0.3030-0.7070 (   742 PWs)   bands (ev):

    -1.5191  -1.5191   2.2863   2.2863

     occupation numbers 
     1.0000   1.0000   1.0000   1.0000

     highest occupied level (ev):     6.1493

!    total energy              =     -22.67768634 Ry
     estimated scf accuracy    <          3.3E-10 Ry

     The total energy is the sum of the following terms:
     one-electron contribution =       5.17298483 Ry
     hartree contribution      =       1.08002824 Ry
     xc contribution           =     -12.13743210 Ry
     ewald contribution        =     -16.79326731 Ry

     convergence has been achieved in   5 iterations

     Forces acting on atoms (cartesian axes, Ry/au):

     atom    1 type  1   force =     0.00000000   -0.00000000    0.00000000
     atom    2 type  1   force =    -0.00000000    0.00000000   -0.00000000
     The non-local contrib.  to forces
     atom    1 type  1   force =     0.00000000   -0.00000000    0.00000000
     atom    2 type  1   force =     0.00000000   -0.00000000   -0.00000000
     The ionic contribution  to forces
     atom    1 type  1   force =    -0.00000000   -0.00000000    0.00000000
     atom    2 type  1   force =     0.00000000    0.00000000    0.00000000
     The local contribution  to forces
     atom    1 type  1   force =     0.00000000    0.00000000   -0.00000000
     atom    2 type  1   force =    -0.00000000   -0.00000000    0.00000000
     The core correction contribution to forces
     atom    1 type  1   force =     0.00000000    0.00000000    0.00000000
     atom    2 type  1   force =    -0.00000000   -0.00000000   -0.00000000
     The Hubbard contrib.    to forces
     atom    1 type  1   force =     0.00000000    0.00000000    0.00000000
     atom    2 type  1   force =     0.00000000    0.00000000    0.00000000
     The SCF correction term to forces
     atom    1 type  1   force =     0.00000000    0.00000000   -0.00000000
     atom    2 type  1   force =    -0.00000000    0.00000000    0.00000000

     Total force =     0.000000     Total SCF correction =     0.000000


     Computing stress (Cartesian axis) and pressure

          total   stress  (Ry/bohr**3)                   (kbar)     P=        0.49
   0.00000332   0.00000000   0.00000000            0.49        0.00        0.00
   0.00000000   0.00000332   0.00000000            0.00        0.49        0.00
   0.00000000   0.00000000   0.00000332            0.00        0.00        0.49

     kinetic stress (kbar)   2203.13     -0.00      0.00
                               -0.00   2203.13     -0.00
                                0.00     -0.00   2203.13

     local   stress (kbar)     40.52     -0.00     -0.00
                               -0.00     40.52     -0.00
                               -0.00     -0.00     40.52

     nonloc. stress (kbar)   1627.17      0.00      0.00
                                0.00   1627.17      0.00
                                0.00      0.00   1627.17

     hartree stress (kbar)    195.87     -0.00      0.00
                               -0.00    195.87     -0.00
                                0.00     -0.00    195.87

     exc-cor stress (kbar)   2908.02      0.00      0.00
                                0.00   2908.02     -0.00
                                0.00     -0.00   2908.02

     corecor stress (kbar)  -3928.67      0.00     -0.00
                                0.00  -3928.67     -0.00
                               -0.00     -0.00  -3928.67

     ewald   stress (kbar)  -3045.55     -0.00      0.00
                               -0.00  -3045.55      0.00
                                0.00      0.00  -3045.55

     hubbard stress (kbar)      0.00      0.00      0.00
                                0.00      0.00      0.00
                                0.00      0.00      0.00

     DFT-D   stress (kbar)      0.00      0.00      0.00
                                0.00      0.00      0.00
                                0.00      0.00      0.00

     XDM     stress (kbar)      0.00      0.00      0.00
                                0.00      0.00      0.00
                                0.00      0.00      0.00

     dft-nl  stress (kbar)      0.00      0.00      0.00
                                0.00      0.00      0.00
                                0.00      0.00      0.00

     TS-vdW  stress (kbar)      0.00      0.00      0.00
                                0.00      0.00      0.00
                                0.00      0.00      0.00

     MDB     stress (kbar)      0.00      0.00      0.00
                                0.00      0.00      0.00
                                0.00      0.00      0.00

     3D-RISM stress (kbar)      0.00      0.00      0.00
                                0.00      0.00      0.00
                                0.00      0.00      0.00

     Energy error            =      6.4E-07 Ry
     Gradient error          =      1.7E-32 Ry/Bohr
     Cell gradient error     =      4.9E-01 kbar

     number of scf cycles    =   2
     number of bfgs steps    =   1

     enthalpy           old  =     -22.6776856947 Ry
     enthalpy           new  =     -22.6776863375 Ry

     CASE: enthalpy          _new < enthalpy          _old

     new trust radius        =       0.0005620363 bohr
WARNING! With ibrav=0, cell_dofree='ibrav' has no effect. 
     Message from routine volume:
     axis vectors are left-handed
     new conv_thr            =            4.0E-12 Ry

     new unit-cell volume =    270.51981 a.u.^3 (    40.08690 Ang^3 )
     density =      2.32680 g/cm^3

CELL_PARAMETERS (angstrom)
   2.716381874   2.716381874   0.000000000
   2.716381874   0.000000000   2.716381874
   0.000000000   2.716381874   2.716381874

ATOMIC_POSITIONS (crystal)
Si            0.0000000000        0.0000000000       -0.0000000000
Si            0.2500000000        0.2500000000        0.2500000000



     Writing config-only to output data dir tmp/si.save/
     NEW-OLD atomic charge density approx. for the potential
     extrapolated charge    8.00410, renormalised to    8.00000

     total cpu time spent up to now is        4.1 secs

     per-process dynamical memory:    16.3 Mb

     Self-consistent Calculation

     iteration #  1     ecut=    30.00 Ry     beta= 0.40
     Davidson diagonalization with overlap

---- Real-time Memory Report at c_bands before calling an iterative solver
            82 MiB given to the printing process from OS
            15 MiB allocation reported by mallinfo(arena+hblkhd)
         60159 MiB available memory on the node where the printing process lives
------------------
     ethr =  1.00E-06,  avg # of iterations =  2.0

     Threshold (ethr) on eigenvalues was too large:
     Diagonalizing with lowered threshold

     Davidson diagonalization with overlap

---- Real-time Memory Report at c_bands before calling an iterative solver
            82 MiB given to the printing process from OS
            15 MiB allocation reported by mallinfo(arena+hblkhd)
         60158 MiB available memory on the node where the printing process lives
------------------
     ethr =  1.34E-09,  avg # of iterations =  2.4

     total cpu time spent up to now is        4.2 secs

     total energy              =     -22.67768639 Ry
     estimated scf accuracy    <       0.00000010 Ry

     iteration #  2     ecut=    30.00 Ry     beta= 0.40
     Davidson diagonalization with overlap

---- Real-time Memory Report at c_bands before calling an iterative solver
            82 MiB given to the printing process from OS
            15 MiB allocation reported by mallinfo(arena+hblkhd)
         60156 MiB available memory on the node where the printing process lives
------------------
     ethr =  1.27E-09,  avg # of iterations =  3.1

     total cpu time spent up to now is        4.3 secs

     total energy              =     -22.67768658 Ry
     estimated scf accuracy    <       0.00000003 Ry

     iteration #  3     ecut=    30.00 Ry     beta= 0.40
     Davidson diagonalization with overlap

---- Real-time Memory Report at c_bands before calling an iterative solver
            82 MiB given to the printing process from OS
            15 MiB allocation reported by mallinfo(arena+hblkhd)
         60155 MiB available memory on the node where the printing process lives
------------------
     ethr =  3.33E-10,  avg # of iterations =  1.6

     total cpu time spent up to now is        4.4 secs

     total energy              =     -22.67768657 Ry
     estimated scf accuracy    <       0.00000001 Ry

     iteration #  4     ecut=    30.00 Ry     beta= 0.40
     Davidson diagonalization with overlap

---- Real-time Memory Report at c_bands before calling an iterative solver
            82 MiB given to the printing process from OS
            15 MiB allocation reported by mallinfo(arena+hblkhd)
         60154 MiB available memory on the node where the printing process lives
------------------
     ethr =  1.72E-10,  avg # of iterations =  2.0

     total cpu time spent up to now is        4.4 secs

     total energy              =     -22.67768658 Ry
     estimated scf accuracy    <          1.5E-09 Ry

     iteration #  5     ecut=    30.00 Ry     beta= 0.40
     Davidson diagonalization with overlap

---- Real-time Memory Report at c_bands before calling an iterative solver
            82 MiB given to the printing process from OS
            15 MiB allocation reported by mallinfo(arena+hblkhd)
         60154 MiB available memory on the node where the printing process lives
------------------
     ethr =  1.81E-11,  avg # of iterations =  1.8

     total cpu time spent up to now is        4.5 secs

     total energy              =     -22.67768658 Ry
     estimated scf accuracy    <          3.9E-10 Ry

     iteration #  6     ecut=    30.00 Ry     beta= 0.40
     Davidson diagonalization with overlap

---- Real-time Memory Report at c_bands before calling an iterative solver
            82 MiB given to the printing process from OS
            16 MiB allocation reported by mallinfo(arena+hblkhd)
         60154 MiB available memory on the node where the printing process lives
------------------
     ethr =  4.85E-12,  avg # of iterations =  2.8

     total cpu time spent up to now is        4.6 secs

     End of self-consistent calculation

          k = 0.0000 0.0000 0.0000 (   749 PWs)   bands (ev):

    -5.8372   6.1439   6.1439   6.1439

     occupation numbers 
     1.0000   1.0000   1.0000   1.0000

          k =-0.0505 0.0505 0.0505 (   737 PWs)   bands (ev):

    -5.7702   5.4699   6.0340   6.0340

     occupation numbers 
     1.0000   1.0000   1.0000   1.0000

          k =-0.1010 0.1010 0.1010 (   743 PWs)   bands (ev):

    -5.5705   4.1959   5.7829   5.7829

     occupation numbers 
     1.0000   1.0000   1.0000   1.0000

          k =-0.1515 0.1515 0.1515 (   757 PWs)   bands (ev):

    -5.2434   2.8476   5.5059   5.5059

     occupation numbers 
     1.0000   1.0000   1.0000   1.0000

          k =-0.2020 0.2020 0.2020 (   757 PWs)   bands (ev):

    -4.8011   1.5642   5.2654   5.2654

     occupation numbers 
     1.0000   1.0000   1.0000   1.0000

          k =-0.2525 0.2525 0.2525 (   757 PWs)   bands (ev):

    -4.2742   0.4192   5.0861   5.0861

     occupation numbers 
     1.0000   1.0000   1.0000   1.0000

          k =-0.3029 0.3029 0.3029 (   760 PWs)   bands (ev):

    -3.7518  -0.4797   4.9770   4.9770

     occupation numbers 
     1.0000   1.0000   1.0000   1.0000

          k = 0.3534-0.3534-0.3534 (   754 PWs)   bands (ev):

    -3.4920  -0.8658   4.9406   4.9406

     occupation numbers 
     1.0000   1.0000   1.0000   1.0000

          k =-0.0000 0.0000 0.1010 (   741 PWs)   bands (ev):

    -5.7477   5.6076   5.8069   5.8069

     occupation numbers 
     1.0000   1.0000   1.0000   1.0000

          k =-0.0505 0.0505 0.1515 (   749 PWs)   bands (ev):

    -5.5920   4.5770   5.4995   5.6854

     occupation numbers 
     1.0000   1.0000   1.0000   1.0000

          k =-0.1010 0.1010 0.2020 (   749 PWs)   bands (ev):

    -5.3067   3.2785   5.2087   5.4352

     occupation numbers 
     1.0000   1.0000   1.0000   1.0000

          k =-0.1515 0.1515 0.2525 (   757 PWs)   bands (ev):

    -4.9011   1.9893   4.9811   5.1344

     occupation numbers 
     1.0000   1.0000   1.0000   1.0000

          k =-0.2020 0.2020 0.3029 (   760 PWs)   bands (ev):

    -4.3971   0.8031   4.8355   4.8568

     occupation numbers 
     1.0000   1.0000   1.0000   1.0000

          k =-0.2525 0.2525 0.3534 (   756 PWs)   bands (ev):

    -3.8556  -0.1898   4.6337   4.7774

     occupation numbers 
     1.0000   1.0000   1.0000   1.0000

          k = 0.4039-0.4039-0.3029 (   751 PWs)   bands (ev):

    -3.4652  -0.7874   4.4800   4.8055

     occupation numbers 
     1.0000   1.0000   1.0000   1.0000

          k = 0.3534-0.3534-0.2525 (   752 PWs)   bands (ev):

    -3.5576  -0.6530   4.4054   4.9140

     occupation numbers 
     1.0000   1.0000   1.0000   1.0000

          k = 0.3029-0.3029-0.2020 (   758 PWs)   bands (ev):

    -4.0338   0.1133   4.4172   5.0944

     occupation numbers 
     1.0000   1.0000   1.0000   1.0000

          k = 0.2525-0.2525-0.1515 (   756 PWs)   bands (ev):

    -4.5743   1.1842   4.5210   5.3338

     occupation numbers 
     1.0000   1.0000   1.0000   1.0000

          k = 0.2020-0.2020-0.1010 (   755 PWs)   bands (ev):

    -5.0493   2.4103   4.7200   5.6108

     occupation numbers 
     1.0000   1.0000   1.0000   1.0000

          k = 0.1515-0.1515-0.0505 (   752 PWs)   bands (ev):

    -5.4162   3.6992   5.0188   5.8821

     occupation numbers 
     1.0000   1.0000   1.0000   1.0000

          k = 0.1010-0.1010 0.0000 (   741 PWs)   bands (ev):

    -5.6588   4.8571   5.4670   6.0601

     occupation numbers 
     1.0000   1.0000   1.0000   1.0000

          k =-0.0000 0.0000 0.2020 (   753 PWs)   bands (ev):

    -5.4803   4.5072   5.1592   5.1592

     occupation numbers 
     1.0000   1.0000   1.0000   1.0000

          k =-0.0505 0.0505 0.2525 (   756 PWs)   bands (ev):

    -5.2378   3.5515   4.8499   4.9073

     occupation numbers 
     1.0000   1.0000   1.0000   1.0000

          k =-0.1010 0.1010 0.3029 (   752 PWs)   bands (ev):

    -4.8714   2.3702   4.5707   4.6143

     occupation numbers 
     1.0000   1.0000   1.0000   1.0000

          k =-0.1515 0.1515 0.3534 (   751 PWs)   bands (ev):

    -4.3970   1.2068   4.2032   4.4710

     occupation numbers 
     1.0000   1.0000   1.0000   1.0000

          k =-0.2020 0.2020 0.4039 (   748 PWs)   bands (ev):

    -3.8563   0.1712   3.8763   4.4268

     occupation numbers 
     1.0000   1.0000   1.0000   1.0000

          k = 0.4544-0.4544-0.2525 (   748 PWs)   bands (ev):

    -3.3790  -0.5775   3.6218   4.4812

     occupation numbers 
     1.0000   1.0000   1.0000   1.0000

          k = 0.4039-0.4039-0.2020 (   749 PWs)   bands (ev):

    -3.2899  -0.7029   3.4577   4.6284

     occupation numbers 
     1.0000   1.0000   1.0000   1.0000

          k = 0.3534-0.3534-0.1515 (   755 PWs)   bands (ev):

    -3.6857  -0.1076   3.3978   4.8572

     occupation numbers 
     1.0000   1.0000   1.0000   1.0000

          k = 0.3029-0.3029-0.1010 (   749 PWs)   bands (ev):

    -4.2275   0.8564   3.4576   5.1479

     occupation numbers 
     1.0000   1.0000   1.0000   1.0000

          k = 0.2525-0.2525-0.0505 (   751 PWs)   bands (ev):

    -4.7295   1.9595   3.6702   5.4658

     occupation numbers 
     1.0000   1.0000   1.0000   1.0000

          k = 0.2020-0.2020-0.0000 (   753 PWs)   bands (ev):

    -5.1329   2.9938   4.1474   5.7464

     occupation numbers 
     1.0000   1.0000   1.0000   1.0000

          k = 0.0000-0.0000 0.3029 (   745 PWs)   bands (ev):

    -5.0380   3.2610   4.5203   4.5203

     occupation numbers 
     1.0000   1.0000   1.0000   1.0000

          k =-0.0505 0.0505 0.3534 (   747 PWs)   bands (ev):

    -4.7121   2.4380   4.1616   4.2656

     occupation numbers 
     1.0000   1.0000   1.0000   1.0000

          k =-0.1010 0.1010 0.4039 (   751 PWs)   bands (ev):

    -4.2717   1.4523   3.6830   4.1066

     occupation numbers 
     1.0000   1.0000   1.0000   1.0000

          k =-0.1515 0.1515 0.4544 (   754 PWs)   bands (ev):

    -3.7456   0.4787   3.2183   4.0519

     occupation numbers 
     1.0000   1.0000   1.0000   1.0000

          k = 0.5049-0.5049-0.2020 (   749 PWs)   bands (ev):

    -3.2202  -0.3302   2.8401   4.1030

     occupation numbers 
     1.0000   1.0000   1.0000   1.0000

          k = 0.4544-0.4544-0.1515 (   753 PWs)   bands (ev):

    -2.9648  -0.6744   2.5774   4.2558

     occupation numbers 
     1.0000   1.0000   1.0000   1.0000

          k = 0.4039-0.4039-0.1010 (   749 PWs)   bands (ev):

    -3.2467  -0.2830   2.4533   4.4996

     occupation numbers 
     1.0000   1.0000   1.0000   1.0000

          k = 0.3534-0.3534-0.0505 (   752 PWs)   bands (ev):

    -3.7745   0.5182   2.5108   4.8142

     occupation numbers 
     1.0000   1.0000   1.0000   1.0000

          k = 0.3029-0.3029 0.0000 (   754 PWs)   bands (ev):

    -4.2954   1.3517   2.8678   5.1608

     occupation numbers 
     1.0000   1.0000   1.0000   1.0000

          k =-0.0000 0.0000 0.4039 (   745 PWs)   bands (ev):

    -4.4264   1.9799   3.9873   3.9873

     occupation numbers 
     1.0000   1.0000   1.0000   1.0000

          k =-0.0505 0.0505 0.4544 (   746 PWs)   bands (ev):

    -4.0224   1.2572   3.5861   3.8042

     occupation numbers 
     1.0000   1.0000   1.0000   1.0000

          k =-0.1010 0.1010 0.5049 (   756 PWs)   bands (ev):

    -3.5198   0.4720   2.9880   3.7270

     occupation numbers 
     1.0000   1.0000   1.0000   1.0000

          k = 0.5554-0.5554-0.1515 (   750 PWs)   bands (ev):

    -2.9754  -0.2620   2.4289   3.7592

     occupation numbers 
     1.0000   1.0000   1.0000   1.0000

          k = 0.5049-0.5049-0.1010 (   750 PWs)   bands (ev):

    -2.5919  -0.7183   2.0207   3.8982

     occupation numbers 
     1.0000   1.0000   1.0000   1.0000

          k = 0.4544-0.4544-0.0505 (   745 PWs)   bands (ev):

    -2.7472  -0.5269   1.8255   4.1355

     occupation numbers 
     1.0000   1.0000   1.0000   1.0000

          k = 0.4039-0.4039-0.0000 (   744 PWs)   bands (ev):

    -3.2478   0.0382   1.9429   4.4530

     occupation numbers 
     1.0000   1.0000   1.0000   1.0000

          k =-0.0000 0.0000 0.5049 (   757 PWs)   bands (ev):

    -3.6541   0.7059   3.5935   3.5935

     occupation numbers 
     1.0000   1.0000   1.0000   1.0000

          k =-0.0505 0.0505 0.5554 (   752 PWs)   bands (ev):

    -3.1800   0.0567   3.2040   3.4883

     occupation numbers 
     1.0000   1.0000   1.0000   1.0000

          k = 0.6059-0.6059-0.1010 (   751 PWs)   bands (ev):

    -2.6364  -0.5703   2.5699   3.4939

     occupation numbers 
     1.0000   1.0000   1.0000   1.0000

          k = 0.5554-0.5554-0.0505 (   744 PWs)   bands (ev):

    -2.1731  -1.0315   2.0019   3.6094

     occupation numbers 
     1.0000   1.0000   1.0000   1.0000

          k = 0.5049-0.5049-0.0000 (   740 PWs)   bands (ev):

    -2.2692  -0.9140   1.6951   3.8284

     occupation numbers 
     1.0000   1.0000   1.0000   1.0000

          k = 0.0000-0.0000 0.6059 (   749 PWs)   bands (ev):

    -2.7337  -0.5264   3.3530   3.3530

     occupation numbers 
     1.0000   1.0000   1.0000   1.0000

          k = 0.6564-0.6564-0.0505 (   751 PWs)   bands (ev):

    -2.2023  -1.1103   3.0140   3.3284

     occupation numbers 
     1.0000   1.0000   1.0000   1.0000

          k = 0.6059-0.6059 0.0000 (   752 PWs)   bands (ev):

    -1.7757  -1.4903   2.4330   3.4153

     occupation numbers 
     1.0000   1.0000   1.0000   1.0000

          k = 0.0000-0.0000-0.7069 (   740 PWs)   bands (ev):

    -1.6831  -1.6831   3.2723   3.2723

     occupation numbers 
     1.0000   1.0000   1.0000   1.0000

          k =-0.0000 0.1010 0.2020 (   756 PWs)   bands (ev):

    -5.3931   3.8808   4.8125   5.6022

     occupation numbers 
     1.0000   1.0000   1.0000   1.0000

          k =-0.0505 0.1515 0.2525 (   757 PWs)   bands (ev):

    -5.0671   2.7838   4.3371   5.3938

     occupation numbers 
     1.0000   1.0000   1.0000   1.0000

          k =-0.1010 0.2020 0.3029 (   756 PWs)   bands (ev):

    -4.6262   1.5921   4.0595   5.1108

     occupation numbers 
     1.0000   1.0000   1.0000   1.0000

          k =-0.1515 0.2525 0.3534 (   757 PWs)   bands (ev):

    -4.1001   0.4882   3.8952   4.8501

     occupation numbers 
     1.0000   1.0000   1.0000   1.0000

          k = 0.5049-0.4039-0.3029 (   755 PWs)   bands (ev):

    -3.5763  -0.3936   3.8132   4.6682

     occupation numbers 
     1.0000   1.0000   1.0000   1.0000

          k = 0.4544-0.3534-0.2525 (   752 PWs)   bands (ev):

    -3.3140  -0.7767   3.7896   4.6024

     occupation numbers 
     1.0000   1.0000   1.0000   1.0000

          k = 0.0000 0.1010 0.3029 (   755 PWs)   bands (ev):

    -4.9540   2.8479   4.1704   4.8260

     occupation numbers 
     1.0000   1.0000   1.0000   1.0000

          k =-0.0505 0.1515 0.3534 (   754 PWs)   bands (ev):

    -4.5505   1.8765   3.6936   4.5930

     occupation numbers 
     1.0000   1.0000   1.0000   1.0000

          k =-0.1010 0.2020 0.4039 (   753 PWs)   bands (ev):

    -4.0483   0.8409   3.3801   4.3481

     occupation numbers 
     1.0000   1.0000   1.0000   1.0000

          k = 0.5554-0.4544-0.2525 (   750 PWs)   bands (ev):

    -3.5059  -0.0805   3.1498   4.2046

     occupation numbers 
     1.0000   1.0000   1.0000   1.0000

          k = 0.5049-0.4039-0.2020 (   750 PWs)   bands (ev):

    -3.1116  -0.6514   2.9804   4.2027

     occupation numbers 
     1.0000   1.0000   1.0000   1.0000

          k = 0.4544-0.3534-0.1515 (   750 PWs)   bands (ev):

    -3.2115  -0.5108   2.8867   4.3359

     occupation numbers 
     1.0000   1.0000   1.0000   1.0000

          k = 0.4039-0.3029-0.1010 (   754 PWs)   bands (ev):

    -3.6942   0.2229   2.8989   4.5772

     occupation numbers 
     1.0000   1.0000   1.0000   1.0000

          k = 0.3534-0.2525-0.0505 (   750 PWs)   bands (ev):

    -4.2333   1.1819   3.0659   4.8866

     occupation numbers 
     1.0000   1.0000   1.0000   1.0000

          k = 0.3029-0.2020-0.0000 (   750 PWs)   bands (ev):

    -4.7042   2.1105   3.5032   5.1979

     occupation numbers 
     1.0000   1.0000   1.0000   1.0000

          k =-0.0000 0.1010 0.4039 (   748 PWs)   bands (ev):

    -4.3478   1.7561   3.6426   4.0987

     occupation numbers 
     1.0000   1.0000   1.0000   1.0000

          k =-0.0505 0.1515 0.4544 (   754 PWs)   bands (ev):

    -3.8760   0.9394   3.1424   3.8725

     occupation numbers 
     1.0000   1.0000   1.0000   1.0000

          k = 0.6059-0.5049-0.2020 (   748 PWs)   bands (ev):

    -3.3355   0.1115   2.6998   3.7515

     occupation numbers 
     1.0000   1.0000   1.0000   1.0000

          k = 0.5554-0.4544-0.1515 (   745 PWs)   bands (ev):

    -2.8541  -0.5346   2.3529   3.7777

     occupation numbers 
     1.0000   1.0000   1.0000   1.0000

          k = 0.5049-0.4039-0.1010 (   746 PWs)   bands (ev):

    -2.7824  -0.6180   2.1409   3.9363

     occupation numbers 
     1.0000   1.0000   1.0000   1.0000

          k = 0.4544-0.3534-0.0505 (   750 PWs)   bands (ev):

    -3.2011  -0.0744   2.1142   4.2032

     occupation numbers 
     1.0000   1.0000   1.0000   1.0000

          k = 0.4039-0.3029-0.0000 (   754 PWs)   bands (ev):

    -3.7413   0.6296   2.3796   4.5420

     occupation numbers 
     1.0000   1.0000   1.0000   1.0000

          k =-0.0000 0.1010 0.5049 (   753 PWs)   bands (ev):

    -3.5844   0.6126   3.2654   3.5426

     occupation numbers 
     1.0000   1.0000   1.0000   1.0000

          k = 0.6564-0.5554-0.1515 (   746 PWs)   bands (ev):

    -3.0596  -0.0603   2.7247   3.3918

     occupation numbers 
     1.0000   1.0000   1.0000   1.0000

          k = 0.6059-0.5049-0.1010 (   743 PWs)   bands (ev):

    -2.5305  -0.6578   2.1768   3.4189

     occupation numbers 
     1.0000   1.0000   1.0000   1.0000

          k = 0.5554-0.4544-0.0505 (   745 PWs)   bands (ev):

    -2.3161  -0.8721   1.8104   3.5793

     occupation numbers 
     1.0000   1.0000   1.0000   1.0000

          k = 0.5049-0.4039-0.0000 (   736 PWs)   bands (ev):

    -2.6752  -0.5042   1.7460   3.8507

     occupation numbers 
     1.0000   1.0000   1.0000   1.0000

          k = 0.7069-0.6059-0.1010 (   749 PWs)   bands (ev):

    -2.6789  -0.5416   3.0564   3.1861

     occupation numbers 
     1.0000   1.0000   1.0000   1.0000

          k = 0.6564-0.5554-0.0505 (   746 PWs)   bands (ev):

    -2.1311  -1.0921   2.4993   3.1635

     occupation numbers 
     1.0000   1.0000   1.0000   1.0000

          k = 0.6059-0.5049 0.0000 (   743 PWs)   bands (ev):

    -1.9030  -1.2689   1.9858   3.3137

     occupation numbers 
     1.0000   1.0000   1.0000   1.0000

          k = 0.0000 0.1010-0.7069 (   758 PWs)   bands (ev):

    -1.6537  -1.6537   3.0269   3.0269

     occupation numbers 
     1.0000   1.0000   1.0000   1.0000

          k =-0.0000 0.2020 0.4039 (   753 PWs)   bands (ev):

    -4.1156   1.2371   2.9883   4.3370

     occupation numbers 
     1.0000   1.0000   1.0000   1.0000

          k = 0.6564-0.4544-0.2525 (   751 PWs)   bands (ev):

    -3.5938   0.4445   2.5905   4.0243

     occupation numbers 
     1.0000   1.0000   1.0000   1.0000

          k = 0.6059-0.4039-0.2020 (   750 PWs)   bands (ev):

    -3.0654  -0.3071   2.4144   3.7906

     occupation numbers 
     1.0000   1.0000   1.0000   1.0000

          k = 0.5554-0.3534-0.1515 (   742 PWs)   bands (ev):

    -2.7920  -0.6638   2.3661   3.7050

     occupation numbers 
     1.0000   1.0000   1.0000   1.0000

          k = 0.7069-0.5049-0.2020 (   757 PWs)   bands (ev):

    -3.3815   0.3384   2.6451   3.5190

     occupation numbers 
     1.0000   1.0000   1.0000   1.0000

          k = 0.6564-0.4544-0.1515 (   747 PWs)   bands (ev):

    -2.8387  -0.3003   2.2715   3.2601

     occupation numbers 
     1.0000   1.0000   1.0000   1.0000

          k = 0.6059-0.4039-0.1010 (   743 PWs)   bands (ev):

    -2.4314  -0.7559   2.0204   3.2075

     occupation numbers 
     1.0000   1.0000   1.0000   1.0000

          k = 0.5554-0.3534-0.0505 (   746 PWs)   bands (ev):

    -2.5643  -0.6053   1.9312   3.3529

     occupation numbers 
     1.0000   1.0000   1.0000   1.0000

          k = 0.5049-0.3029-0.0000 (   745 PWs)   bands (ev):

    -3.0655  -0.0641   2.0908   3.6483

     occupation numbers 
     1.0000   1.0000   1.0000   1.0000

          k = 0.7069-0.5049-0.1010 (   744 PWs)   bands (ev):

    -2.5253  -0.6101   2.5007   2.9166

     occupation numbers 
     1.0000   1.0000   1.0000   1.0000

          k = 0.6564-0.4544-0.0505 (   745 PWs)   bands (ev):

    -2.0302  -1.0791   2.1172   2.8212

     occupation numbers 
     1.0000   1.0000   1.0000   1.0000

          k = 0.6059-0.4039 0.0000 (   737 PWs)   bands (ev):

    -2.0816  -1.0104   1.8474   3.0095

     occupation numbers 
     1.0000   1.0000   1.0000   1.0000

          k = 0.0000 0.2020-0.7069 (   742 PWs)   bands (ev):

    -1.5837  -1.5837   2.5817   2.5817

     occupation numbers 
     1.0000   1.0000   1.0000   1.0000

          k = 0.7069-0.4039-0.1010 (   745 PWs)   bands (ev):

    -2.3071  -0.7701   2.0438   2.8345

     occupation numbers 
     1.0000   1.0000   1.0000   1.0000

          k = 0.6564-0.3534-0.0505 (   742 PWs)   bands (ev):

    -1.9795  -1.0787   1.9870   2.6634

     occupation numbers 
     1.0000   1.0000   1.0000   1.0000

          k = 0.0000 0.3029-0.7069 (   742 PWs)   bands (ev):

    -1.5231  -1.5231   2.2830   2.2830

     occupation numbers 
     1.0000   1.0000   1.0000   1.0000

     highest occupied level (ev):     6.1439

!    total energy              =     -22.67768658 Ry
     estimated scf accuracy    <          1.3E-13 Ry

     The total energy is the sum of the following terms:
     one-electron contribution =       5.16902118 Ry
     hartree contribution      =       1.08048110 Ry
     xc contribution           =     -12.13679105 Ry
     ewald contribution        =     -16.79039780 Ry

     convergence has been achieved in   6 iterations

     Forces acting on atoms (cartesian axes, Ry/au):

     atom    1 type  1   force =     0.00000000   -0.00000000    0.00000000
     atom    2 type  1   force =    -0.00000000    0.00000000   -0.00000000
     The non-local contrib.  to forces
     atom    1 type  1   force =    -0.00000000    0.00000000   -0.00000000
     atom    2 type  1   force =     0.00000000   -0.00000000   -0.00000000
     The ionic contribution  to forces
     atom    1 type  1   force =     0.00000000    0.00000000   -0.00000000
     atom    2 type  1   force =     0.00000000    0.00000000    0.00000000
     The local contribution  to forces
     atom    1 type  1   force =    -0.00000000    0.00000000   -0.00000000
     atom    2 type  1   force =     0.00000000   -0.00000000    0.00000000
     The core correction contribution to forces
     atom    1 type  1   force =     0.00000000   -0.00000000    0.00000000
     atom    2 type  1   force =    -0.00000000   -0.00000000   -0.00000000
     The Hubbard contrib.    to forces
     atom    1 type  1   force =     0.00000000    0.00000000    0.00000000
     atom    2 type  1   force =     0.00000000    0.00000000    0.00000000
     The SCF correction term to forces
     atom    1 type  1   force =     0.00000000    0.00000000    0.00000000
     atom    2 type  1   force =     0.00000000   -0.00000000   -0.00000000

     Total force =     0.000000     Total SCF correction =     0.000000


     Computing stress (Cartesian axis) and pressure

          total   stress  (Ry/bohr**3)                   (kbar)     P=        0.01
   0.00000007   0.00000000   0.00000000            0.01        0.00        0.00
   0.00000000   0.00000007   0.00000000            0.00        0.01        0.00
   0.00000000   0.00000000   0.00000007            0.00        0.00        0.01

     kinetic stress (kbar)   2201.53     -0.00      0.00
                               -0.00   2201.53      0.00
                                0.00      0.00   2201.53

     local   stress (kbar)     39.95      0.00     -0.00
                                0.00     39.95     -0.00
                               -0.00     -0.00     39.95

     nonloc. stress (kbar)   1626.16     -0.00     -0.00
                               -0.00   1626.16     -0.00
                               -0.00     -0.00   1626.16

     hartree stress (kbar)    195.85     -0.00     -0.00
                               -0.00    195.85      0.00
                               -0.00      0.00    195.85

     exc-cor stress (kbar)   2906.61      0.00      0.00
                                0.00   2906.61     -0.00
                                0.00     -0.00   2906.61

     corecor stress (kbar)  -3926.62      0.00      0.00
                                0.00  -3926.62      0.00
                                0.00      0.00  -3926.62

     ewald   stress (kbar)  -3043.47     -0.00     -0.00
                               -0.00  -3043.47     -0.00
                               -0.00     -0.00  -3043.47

     hubbard stress (kbar)      0.00      0.00      0.00
                                0.00      0.00      0.00
                                0.00      0.00      0.00

     DFT-D   stress (kbar)      0.00      0.00      0.00
                                0.00      0.00      0.00
                                0.00      0.00      0.00

     XDM     stress (kbar)      0.00      0.00      0.00
                                0.00      0.00      0.00
                                0.00      0.00      0.00

     dft-nl  stress (kbar)      0.00      0.00      0.00
                                0.00      0.00      0.00
                                0.00      0.00      0.00

     TS-vdW  stress (kbar)      0.00      0.00      0.00
                                0.00      0.00      0.00
                                0.00      0.00      0.00

     MDB     stress (kbar)      0.00      0.00      0.00
                                0.00      0.00      0.00
                                0.00      0.00      0.00

     3D-RISM stress (kbar)      0.00      0.00      0.00
                                0.00      0.00      0.00
                                0.00      0.00      0.00

     Energy error            =      2.4E-07 Ry
     Gradient error          =      4.6E-32 Ry/Bohr
     Cell gradient error     =      1.1E-02 kbar

     number of scf cycles    =   3
     number of bfgs steps    =   2

     enthalpy           old  =     -22.6776863375 Ry
     enthalpy           new  =     -22.6776865768 Ry

     CASE: enthalpy          _new < enthalpy          _old

     small trust_radius: resetting bfgs history

     new trust radius        =       0.0000061182 bohr
WARNING! With ibrav=0, cell_dofree='ibrav' has no effect. 
     Message from routine volume:
     axis vectors are left-handed
     new conv_thr            =            4.0E-12 Ry

     new unit-cell volume =    270.52132 a.u.^3 (    40.08712 Ang^3 )
     density =      2.32679 g/cm^3

CELL_PARAMETERS (angstrom)
   2.716386926   2.716386926   0.000000000
   2.716386926   0.000000000   2.716386926
   0.000000000   2.716386926   2.716386926

ATOMIC_POSITIONS (crystal)
Si            0.0000000000        0.0000000000       -0.0000000000
Si            0.2500000000        0.2500000000        0.2500000000



     Writing config-only to output data dir tmp/si.save/
     NEW-OLD atomic charge density approx. for the potential
     extrapolated charge    8.00004, renormalised to    8.00000

     total cpu time spent up to now is        5.1 secs

     per-process dynamical memory:    16.5 Mb

     Self-consistent Calculation

     iteration #  1     ecut=    30.00 Ry     beta= 0.40
     Davidson diagonalization with overlap

---- Real-time Memory Report at c_bands before calling an iterative solver
            83 MiB given to the printing process from OS
            16 MiB allocation reported by mallinfo(arena+hblkhd)
         58196 MiB available memory on the node where the printing process lives
------------------
     ethr =  1.00E-06,  avg # of iterations =  1.0

     Threshold (ethr) on eigenvalues was too large:
     Diagonalizing with lowered threshold

     Davidson diagonalization with overlap

---- Real-time Memory Report at c_bands before calling an iterative solver
            83 MiB given to the printing process from OS
            16 MiB allocation reported by mallinfo(arena+hblkhd)
         58197 MiB available memory on the node where the printing process lives
------------------
     ethr =  1.08E-13,  avg # of iterations =  5.1

     total cpu time spent up to now is        5.3 secs

     total energy              =     -22.67768658 Ry
     estimated scf accuracy    <          5.9E-12 Ry

     iteration #  2     ecut=    30.00 Ry     beta= 0.40
     Davidson diagonalization with overlap

---- Real-time Memory Report at c_bands before calling an iterative solver
            83 MiB given to the printing process from OS
            16 MiB allocation reported by mallinfo(arena+hblkhd)
         58196 MiB available memory on the node where the printing process lives
------------------
     ethr =  1.00E-13,  avg # of iterations =  3.7

     total cpu time spent up to now is        5.4 secs

     total energy              =     -22.67768658 Ry
     estimated scf accuracy    <          5.9E-12 Ry

     iteration #  3     ecut=    30.00 Ry     beta= 0.40
     Davidson diagonalization with overlap

---- Real-time Memory Report at c_bands before calling an iterative solver
            83 MiB given to the printing process from OS
            16 MiB allocation reported by mallinfo(arena+hblkhd)
         58196 MiB available memory on the node where the printing process lives
------------------
     ethr =  1.00E-13,  avg # of iterations =  1.0

     total cpu time spent up to now is        5.5 secs

     End of self-consistent calculation

          k = 0.0000 0.0000 0.0000 (   749 PWs)   bands (ev):

    -5.8372   6.1438   6.1438   6.1438

     occupation numbers 
     1.0000   1.0000   1.0000   1.0000

          k =-0.0505 0.0505 0.0505 (   737 PWs)   bands (ev):

    -5.7702   5.4698   6.0340   6.0340

     occupation numbers 
     1.0000   1.0000   1.0000   1.0000

          k =-0.1010 0.1010 0.1010 (   743 PWs)   bands (ev):

    -5.5705   4.1958   5.7829   5.7829

     occupation numbers 
     1.0000   1.0000   1.0000   1.0000

          k =-0.1515 0.1515 0.1515 (   757 PWs)   bands (ev):

    -5.2434   2.8475   5.5059   5.5059

     occupation numbers 
     1.0000   1.0000   1.0000   1.0000

          k =-0.2020 0.2020 0.2020 (   757 PWs)   bands (ev):

    -4.8011   1.5642   5.2653   5.2653

     occupation numbers 
     1.0000   1.0000   1.0000   1.0000

          k =-0.2525 0.2525 0.2525 (   757 PWs)   bands (ev):

    -4.2742   0.4192   5.0861   5.0861

     occupation numbers 
     1.0000   1.0000   1.0000   1.0000

          k =-0.3029 0.3029 0.3029 (   760 PWs)   bands (ev):

    -3.7518  -0.4798   4.9770   4.9770

     occupation numbers 
     1.0000   1.0000   1.0000   1.0000

          k = 0.3534-0.3534-0.3534 (   754 PWs)   bands (ev):

    -3.4921  -0.8658   4.9405   4.9405

     occupation numbers 
     1.0000   1.0000   1.0000   1.0000

          k =-0.0000 0.0000 0.1010 (   741 PWs)   bands (ev):

    -5.7478   5.6075   5.8069   5.8069

     occupation numbers 
     1.0000   1.0000   1.0000   1.0000

          k =-0.0505 0.0505 0.1515 (   749 PWs)   bands (ev):

    -5.5920   4.5770   5.4995   5.6854

     occupation numbers 
     1.0000   1.0000   1.0000   1.0000

          k =-0.1010 0.1010 0.2020 (   749 PWs)   bands (ev):

    -5.3067   3.2785   5.2087   5.4352

     occupation numbers 
     1.0000   1.0000   1.0000   1.0000

          k =-0.1515 0.1515 0.2525 (   757 PWs)   bands (ev):

    -4.9011   1.9892   4.9811   5.1343

     occupation numbers 
     1.0000   1.0000   1.0000   1.0000

          k =-0.2020 0.2020 0.3029 (   760 PWs)   bands (ev):

    -4.3971   0.8030   4.8354   4.8567

     occupation numbers 
     1.0000   1.0000   1.0000   1.0000

          k =-0.2525 0.2525 0.3534 (   756 PWs)   bands (ev):

    -3.8557  -0.1898   4.6336   4.7773

     occupation numbers 
     1.0000   1.0000   1.0000   1.0000

          k = 0.4039-0.4039-0.3029 (   751 PWs)   bands (ev):

    -3.4652  -0.7875   4.4799   4.8054

     occupation numbers 
     1.0000   1.0000   1.0000   1.0000

          k = 0.3534-0.3534-0.2525 (   752 PWs)   bands (ev):

    -3.5577  -0.6530   4.4053   4.9140

     occupation numbers 
     1.0000   1.0000   1.0000   1.0000

          k = 0.3029-0.3029-0.2020 (   758 PWs)   bands (ev):

    -4.0338   0.1132   4.4172   5.0944

     occupation numbers 
     1.0000   1.0000   1.0000   1.0000

          k = 0.2525-0.2525-0.1515 (   756 PWs)   bands (ev):

    -4.5744   1.1842   4.5209   5.3338

     occupation numbers 
     1.0000   1.0000   1.0000   1.0000

          k = 0.2020-0.2020-0.1010 (   755 PWs)   bands (ev):

    -5.0493   2.4102   4.7199   5.6107

     occupation numbers 
     1.0000   1.0000   1.0000   1.0000

          k = 0.1515-0.1515-0.0505 (   752 PWs)   bands (ev):

    -5.4162   3.6992   5.0188   5.8821

     occupation numbers 
     1.0000   1.0000   1.0000   1.0000

          k = 0.1010-0.1010 0.0000 (   741 PWs)   bands (ev):

    -5.6588   4.8570   5.4670   6.0600

     occupation numbers 
     1.0000   1.0000   1.0000   1.0000

          k =-0.0000 0.0000 0.2020 (   753 PWs)   bands (ev):

    -5.4803   4.5071   5.1592   5.1592

     occupation numbers 
     1.0000   1.0000   1.0000   1.0000

          k =-0.0505 0.0505 0.2525 (   756 PWs)   bands (ev):

    -5.2379   3.5514   4.8498   4.9073

     occupation numbers 
     1.0000   1.0000   1.0000   1.0000

          k =-0.1010 0.1010 0.3029 (   752 PWs)   bands (ev):

    -4.8714   2.3702   4.5706   4.6142

     occupation numbers 
     1.0000   1.0000   1.0000   1.0000

          k =-0.1515 0.1515 0.3534 (   751 PWs)   bands (ev):

    -4.3970   1.2067   4.2032   4.4710

     occupation numbers 
     1.0000   1.0000   1.0000   1.0000

          k =-0.2020 0.2020 0.4039 (   748 PWs)   bands (ev):

    -3.8564   0.1712   3.8762   4.4267

     occupation numbers 
     1.0000   1.0000   1.0000   1.0000

          k = 0.4544-0.4544-0.2525 (   748 PWs)   bands (ev):

    -3.3790  -0.5776   3.6218   4.4811

     occupation numbers 
     1.0000   1.0000   1.0000   1.0000

          k = 0.4039-0.4039-0.2020 (   749 PWs)   bands (ev):

    -3.2899  -0.7029   3.4577   4.6284

     occupation numbers 
     1.0000   1.0000   1.0000   1.0000

          k = 0.3534-0.3534-0.1515 (   755 PWs)   bands (ev):

    -3.6858  -0.1076   3.3977   4.8572

     occupation numbers 
     1.0000   1.0000   1.0000   1.0000

          k = 0.3029-0.3029-0.1010 (   749 PWs)   bands (ev):

    -4.2275   0.8563   3.4576   5.1478

     occupation numbers 
     1.0000   1.0000   1.0000   1.0000

          k = 0.2525-0.2525-0.0505 (   751 PWs)   bands (ev):

    -4.7295   1.9594   3.6701   5.4657

     occupation numbers 
     1.0000   1.0000   1.0000   1.0000

          k = 0.2020-0.2020-0.0000 (   753 PWs)   bands (ev):

    -5.1329   2.9937   4.1474   5.7464

     occupation numbers 
     1.0000   1.0000   1.0000   1.0000

          k = 0.0000-0.0000 0.3029 (   745 PWs)   bands (ev):

    -5.0380   3.2609   4.5203   4.5203

     occupation numbers 
     1.0000   1.0000   1.0000   1.0000

          k =-0.0505 0.0505 0.3534 (   747 PWs)   bands (ev):

    -4.7121   2.4379   4.1615   4.2655

     occupation numbers 
     1.0000   1.0000   1.0000   1.0000

          k =-0.1010 0.1010 0.4039 (   751 PWs)   bands (ev):

    -4.2718   1.4523   3.6829   4.1065

     occupation numbers 
     1.0000   1.0000   1.0000   1.0000

          k =-0.1515 0.1515 0.4544 (   754 PWs)   bands (ev):

    -3.7456   0.4787   3.2183   4.0519

     occupation numbers 
     1.0000   1.0000   1.0000   1.0000

          k = 0.5049-0.5049-0.2020 (   749 PWs)   bands (ev):

    -3.2202  -0.3302   2.8400   4.1030

     occupation numbers 
     1.0000   1.0000   1.0000   1.0000

          k = 0.4544-0.4544-0.1515 (   753 PWs)   bands (ev):

    -2.9648  -0.6745   2.5774   4.2557

     occupation numbers 
     1.0000   1.0000   1.0000   1.0000

          k = 0.4039-0.4039-0.1010 (   749 PWs)   bands (ev):

    -3.2467  -0.2831   2.4533   4.4995

     occupation numbers 
     1.0000   1.0000   1.0000   1.0000

          k = 0.3534-0.3534-0.0505 (   752 PWs)   bands (ev):

    -3.7745   0.5181   2.5108   4.8141

     occupation numbers 
     1.0000   1.0000   1.0000   1.0000

          k = 0.3029-0.3029 0.0000 (   754 PWs)   bands (ev):

    -4.2955   1.3516   2.8678   5.1607

     occupation numbers 
     1.0000   1.0000   1.0000   1.0000

          k =-0.0000 0.0000 0.4039 (   745 PWs)   bands (ev):

    -4.4264   1.9798   3.9873   3.9873

     occupation numbers 
     1.0000   1.0000   1.0000   1.0000

          k =-0.0505 0.0505 0.4544 (   746 PWs)   bands (ev):

    -4.0224   1.2572   3.5861   3.8041

     occupation numbers 
     1.0000   1.0000   1.0000   1.0000

          k =-0.1010 0.1010 0.5049 (   756 PWs)   bands (ev):

    -3.5198   0.4719   2.9880   3.7270

     occupation numbers 
     1.0000   1.0000   1.0000   1.0000

          k = 0.5554-0.5554-0.1515 (   750 PWs)   bands (ev):

    -2.9755  -0.2620   2.4288   3.7591

     occupation numbers 
     1.0000   1.0000   1.0000   1.0000

          k = 0.5049-0.5049-0.1010 (   750 PWs)   bands (ev):

    -2.5920  -0.7184   2.0207   3.8981

     occupation numbers 
     1.0000   1.0000   1.0000   1.0000

          k = 0.4544-0.4544-0.0505 (   745 PWs)   bands (ev):

    -2.7472  -0.5270   1.8254   4.1355

     occupation numbers 
     1.0000   1.0000   1.0000   1.0000

          k = 0.4039-0.4039-0.0000 (   744 PWs)   bands (ev):

    -3.2479   0.0382   1.9429   4.4529

     occupation numbers 
     1.0000   1.0000   1.0000   1.0000

          k = 0.0000-0.0000 0.5049 (   757 PWs)   bands (ev):

    -3.6541   0.7059   3.5934   3.5934

     occupation numbers 
     1.0000   1.0000   1.0000   1.0000

          k =-0.0505 0.0505 0.5554 (   752 PWs)   bands (ev):

    -3.1800   0.0567   3.2039   3.4883

     occupation numbers 
     1.0000   1.0000   1.0000   1.0000

          k = 0.6059-0.6059-0.1010 (   751 PWs)   bands (ev):

    -2.6365  -0.5703   2.5698   3.4938

     occupation numbers 
     1.0000   1.0000   1.0000   1.0000

          k = 0.5554-0.5554-0.0505 (   744 PWs)   bands (ev):

    -2.1732  -1.0316   2.0019   3.6094

     occupation numbers 
     1.0000   1.0000   1.0000   1.0000

          k = 0.5049-0.5049 0.0000 (   740 PWs)   bands (ev):

    -2.2693  -0.9141   1.6950   3.8283

     occupation numbers 
     1.0000   1.0000   1.0000   1.0000

          k = 0.0000-0.0000 0.6059 (   749 PWs)   bands (ev):

    -2.7337  -0.5264   3.3530   3.3530

     occupation numbers 
     1.0000   1.0000   1.0000   1.0000

          k = 0.6564-0.6564-0.0505 (   751 PWs)   bands (ev):

    -2.2023  -1.1103   3.0139   3.3283

     occupation numbers 
     1.0000   1.0000   1.0000   1.0000

          k = 0.6059-0.6059 0.0000 (   752 PWs)   bands (ev):

    -1.7757  -1.4903   2.4330   3.4153

     occupation numbers 
     1.0000   1.0000   1.0000   1.0000

          k = 0.0000-0.0000-0.7069 (   740 PWs)   bands (ev):

    -1.6831  -1.6831   3.2722   3.2722

     occupation numbers 
     1.0000   1.0000   1.0000   1.0000

          k = 0.0000 0.1010 0.2020 (   756 PWs)   bands (ev):

    -5.3931   3.8808   4.8124   5.6022

     occupation numbers 
     1.0000   1.0000   1.0000   1.0000

          k =-0.0505 0.1515 0.2525 (   757 PWs)   bands (ev):

    -5.0672   2.7837   4.3370   5.3938

     occupation numbers 
     1.0000   1.0000   1.0000   1.0000

          k =-0.1010 0.2020 0.3029 (   756 PWs)   bands (ev):

    -4.6262   1.5921   4.0595   5.1107

     occupation numbers 
     1.0000   1.0000   1.0000   1.0000

          k =-0.1515 0.2525 0.3534 (   757 PWs)   bands (ev):

    -4.1001   0.4881   3.8952   4.8501

     occupation numbers 
     1.0000   1.0000   1.0000   1.0000

          k = 0.5049-0.4039-0.3029 (   755 PWs)   bands (ev):

    -3.5763  -0.3936   3.8131   4.6681

     occupation numbers 
     1.0000   1.0000   1.0000   1.0000

          k = 0.4544-0.3534-0.2525 (   752 PWs)   bands (ev):

    -3.3141  -0.7767   3.7896   4.6024

     occupation numbers 
     1.0000   1.0000   1.0000   1.0000

          k = 0.0000 0.1010 0.3029 (   755 PWs)   bands (ev):

    -4.9540   2.8479   4.1704   4.8259

     occupation numbers 
     1.0000   1.0000   1.0000   1.0000

          k =-0.0505 0.1515 0.3534 (   754 PWs)   bands (ev):

    -4.5505   1.8765   3.6936   4.5930

     occupation numbers 
     1.0000   1.0000   1.0000   1.0000

          k =-0.1010 0.2020 0.4039 (   753 PWs)   bands (ev):

    -4.0483   0.8408   3.3801   4.3481

     occupation numbers 
     1.0000   1.0000   1.0000   1.0000

          k = 0.5554-0.4544-0.2525 (   750 PWs)   bands (ev):

    -3.5059  -0.0805   3.1498   4.2046

     occupation numbers 
     1.0000   1.0000   1.0000   1.0000

          k = 0.5049-0.4039-0.2020 (   750 PWs)   bands (ev):

    -3.1116  -0.6515   2.9804   4.2026

     occupation numbers 
     1.0000   1.0000   1.0000   1.0000

          k = 0.4544-0.3534-0.1515 (   750 PWs)   bands (ev):

    -3.2116  -0.5109   2.8867   4.3358

     occupation numbers 
     1.0000   1.0000   1.0000   1.0000

          k = 0.4039-0.3029-0.1010 (   754 PWs)   bands (ev):

    -3.6942   0.2229   2.8989   4.5771

     occupation numbers 
     1.0000   1.0000   1.0000   1.0000

          k = 0.3534-0.2525-0.0505 (   750 PWs)   bands (ev):

    -4.2333   1.1819   3.0659   4.8865

     occupation numbers 
     1.0000   1.0000   1.0000   1.0000

          k = 0.3029-0.2020-0.0000 (   750 PWs)   bands (ev):

    -4.7042   2.1104   3.5032   5.1978

     occupation numbers 
     1.0000   1.0000   1.0000   1.0000

          k =-0.0000 0.1010 0.4039 (   748 PWs)   bands (ev):

    -4.3478   1.7561   3.6425   4.0986

     occupation numbers 
     1.0000   1.0000   1.0000   1.0000

          k =-0.0505 0.1515 0.4544 (   754 PWs)   bands (ev):

    -3.8760   0.9393   3.1423   3.8725

     occupation numbers 
     1.0000   1.0000   1.0000   1.0000

          k = 0.6059-0.5049-0.2020 (   748 PWs)   bands (ev):

    -3.3355   0.1115   2.6998   3.7515

     occupation numbers 
     1.0000   1.0000   1.0000   1.0000

          k = 0.5554-0.4544-0.1515 (   745 PWs)   bands (ev):

    -2.8541  -0.5347   2.3529   3.7776

     occupation numbers 
     1.0000   1.0000   1.0000   1.0000

          k = 0.5049-0.4039-0.1010 (   746 PWs)   bands (ev):

    -2.7824  -0.6180   2.1409   3.9363

     occupation numbers 
     1.0000   1.0000   1.0000   1.0000

          k = 0.4544-0.3534-0.0505 (   750 PWs)   bands (ev):

    -3.2012  -0.0744   2.1142   4.2031

     occupation numbers 
     1.0000   1.0000   1.0000   1.0000

          k = 0.4039-0.3029-0.0000 (   754 PWs)   bands (ev):

    -3.7413   0.6296   2.3796   4.5420

     occupation numbers 
     1.0000   1.0000   1.0000   1.0000

          k = 0.0000 0.1010 0.5049 (   753 PWs)   bands (ev):

    -3.5844   0.6125   3.2653   3.5426

     occupation numbers 
     1.0000   1.0000   1.0000   1.0000

          k = 0.6564-0.5554-0.1515 (   746 PWs)   bands (ev):

    -3.0596  -0.0604   2.7247   3.3917

     occupation numbers 
     1.0000   1.0000   1.0000   1.0000

          k = 0.6059-0.5049-0.1010 (   743 PWs)   bands (ev):

    -2.5306  -0.6578   2.1768   3.4189

     occupation numbers 
     1.0000   1.0000   1.0000   1.0000

          k = 0.5554-0.4544-0.0505 (   745 PWs)   bands (ev):

    -2.3162  -0.8721   1.8103   3.5792

     occupation numbers 
     1.0000   1.0000   1.0000   1.0000

          k = 0.5049-0.4039 0.0000 (   736 PWs)   bands (ev):

    -2.6752  -0.5043   1.7460   3.8507

     occupation numbers 
     1.0000   1.0000   1.0000   1.0000

          k = 0.7069-0.6059-0.1010 (   749 PWs)   bands (ev):

    -2.6789  -0.5416   3.0564   3.1861

     occupation numbers 
     1.0000   1.0000   1.0000   1.0000

          k = 0.6564-0.5554-0.0505 (   746 PWs)   bands (ev):

    -2.1311  -1.0921   2.4992   3.1635

     occupation numbers 
     1.0000   1.0000   1.0000   1.0000

          k = 0.6059-0.5049 0.0000 (   743 PWs)   bands (ev):

    -1.9030  -1.2690   1.9857   3.3137

     occupation numbers 
     1.0000   1.0000   1.0000   1.0000

          k = 0.0000 0.1010-0.7069 (   758 PWs)   bands (ev):

    -1.6537  -1.6537   3.0268   3.0268

     occupation numbers 
     1.0000   1.0000   1.0000   1.0000

          k = 0.0000 0.2020 0.4039 (   753 PWs)   bands (ev):

    -4.1156   1.2370   2.9883   4.3369

     occupation numbers 
     1.0000   1.0000   1.0000   1.0000

          k = 0.6564-0.4544-0.2525 (   751 PWs)   bands (ev):

    -3.5938   0.4445   2.5905   4.0242

     occupation numbers 
     1.0000   1.0000   1.0000   1.0000

          k = 0.6059-0.4039-0.2020 (   750 PWs)   bands (ev):

    -3.0654  -0.3072   2.4143   3.7905

     occupation numbers 
     1.0000   1.0000   1.0000   1.0000

          k = 0.5554-0.3534-0.1515 (   742 PWs)   bands (ev):

    -2.7920  -0.6638   2.3661   3.7050

     occupation numbers 
     1.0000   1.0000   1.0000   1.0000

          k = 0.7069-0.5049-0.2020 (   757 PWs)   bands (ev):

    -3.3816   0.3384   2.6451   3.5190

     occupation numbers 
     1.0000   1.0000   1.0000   1.0000

          k = 0.6564-0.4544-0.1515 (   747 PWs)   bands (ev):

    -2.8387  -0.3003   2.2715   3.2600

     occupation numbers 
     1.0000   1.0000   1.0000   1.0000

          k = 0.6059-0.4039-0.1010 (   743 PWs)   bands (ev):

    -2.4314  -0.7560   2.0204   3.2075

     occupation numbers 
     1.0000   1.0000   1.0000   1.0000

          k = 0.5554-0.3534-0.0505 (   746 PWs)   bands (ev):

    -2.5643  -0.6054   1.9312   3.3528

     occupation numbers 
     1.0000   1.0000   1.0000   1.0000

          k = 0.5049-0.3029-0.0000 (   745 PWs)   bands (ev):

    -3.0655  -0.0641   2.0908   3.6483

     occupation numbers 
     1.0000   1.0000   1.0000   1.0000

          k = 0.7069-0.5049-0.1010 (   744 PWs)   bands (ev):

    -2.5253  -0.6102   2.5007   2.9166

     occupation numbers 
     1.0000   1.0000   1.0000   1.0000

          k = 0.6564-0.4544-0.0505 (   745 PWs)   bands (ev):

    -2.0303  -1.0791   2.1172   2.8211

     occupation numbers 
     1.0000   1.0000   1.0000   1.0000

          k = 0.6059-0.4039-0.0000 (   737 PWs)   bands (ev):

    -2.0816  -1.0104   1.8474   3.0095

     occupation numbers 
     1.0000   1.0000   1.0000   1.0000

          k =-0.0000 0.2020-0.7069 (   742 PWs)   bands (ev):

    -1.5838  -1.5838   2.5816   2.5816

     occupation numbers 
     1.0000   1.0000   1.0000   1.0000

          k = 0.7069-0.4039-0.1010 (   745 PWs)   bands (ev):

    -2.3072  -0.7702   2.0437   2.8345

     occupation numbers 
     1.0000   1.0000   1.0000   1.0000

          k = 0.6564-0.3534-0.0505 (   742 PWs)   bands (ev):

    -1.9795  -1.0787   1.9869   2.6633

     occupation numbers 
     1.0000   1.0000   1.0000   1.0000

          k =-0.0000 0.3029-0.7069 (   742 PWs)   bands (ev):

    -1.5231  -1.5231   2.2830   2.2830

     occupation numbers 
     1.0000   1.0000   1.0000   1.0000

     highest occupied level (ev):     6.1438

!    total energy              =     -22.67768658 Ry
     estimated scf accuracy    <          3.6E-12 Ry

     The total energy is the sum of the following terms:
     one-electron contribution =       5.16897673 Ry
     hartree contribution      =       1.08048868 Ry
     xc contribution           =     -12.13678542 Ry
     ewald contribution        =     -16.79036657 Ry

     convergence has been achieved in   3 iterations

     Forces acting on atoms (cartesian axes, Ry/au):

     atom    1 type  1   force =     0.00000000    0.00000000    0.00000000
     atom    2 type  1   force =     0.00000000    0.00000000    0.00000000
     The non-local contrib.  to forces
     atom    1 type  1   force =     0.00000000   -0.00000000   -0.00000000
     atom    2 type  1   force =    -0.00000000    0.00000000    0.00000000
     The ionic contribution  to forces
     atom    1 type  1   force =    -0.00000000   -0.00000000    0.00000000
     atom    2 type  1   force =     0.00000000    0.00000000    0.00000000
     The local contribution  to forces
     atom    1 type  1   force =    -0.00000000   -0.00000000   -0.00000000
     atom    2 type  1   force =     0.00000000    0.00000000   -0.00000000
     The core correction contribution to forces
     atom    1 type  1   force =     0.00000000    0.00000000   -0.00000000
     atom    2 type  1   force =    -0.00000000   -0.00000000   -0.00000000
     The Hubbard contrib.    to forces
     atom    1 type  1   force =     0.00000000    0.00000000    0.00000000
     atom    2 type  1   force =     0.00000000    0.00000000    0.00000000
     The SCF correction term to forces
     atom    1 type  1   force =     0.00000000    0.00000000    0.00000000
     atom    2 type  1   force =     0.00000000   -0.00000000   -0.00000000

     Total force =     0.000000     Total SCF correction =     0.000000


     Computing stress (Cartesian axis) and pressure

          total   stress  (Ry/bohr**3)                   (kbar)     P=        0.01
   0.00000005  -0.00000000   0.00000000            0.01       -0.00        0.00
  -0.00000000   0.00000005   0.00000000           -0.00        0.01        0.00
   0.00000000   0.00000000   0.00000005            0.00        0.00        0.01

     kinetic stress (kbar)   2201.52      0.00     -0.00
                               -0.00   2201.52      0.00
                               -0.00     -0.00   2201.52

     local   stress (kbar)     39.94      0.00     -0.00
                                0.00     39.94      0.00
                               -0.00      0.00     39.94

     nonloc. stress (kbar)   1626.15     -0.00      0.00
                               -0.00   1626.15      0.00
                                0.00     -0.00   1626.15

     hartree stress (kbar)    195.85     -0.00     -0.00
                               -0.00    195.85      0.00
                               -0.00      0.00    195.85

     exc-cor stress (kbar)   2906.59      0.00      0.00
                                0.00   2906.59     -0.00
                                0.00     -0.00   2906.59

     corecor stress (kbar)  -3926.60      0.00     -0.00
                                0.00  -3926.60     -0.00
                               -0.00     -0.00  -3926.60

     ewald   stress (kbar)  -3043.44     -0.00      0.00
                               -0.00  -3043.44     -0.00
                                0.00     -0.00  -3043.44

     hubbard stress (kbar)      0.00      0.00      0.00
                                0.00      0.00      0.00
                                0.00      0.00      0.00

     DFT-D   stress (kbar)      0.00      0.00      0.00
                                0.00      0.00      0.00
                                0.00      0.00      0.00

     XDM     stress (kbar)      0.00      0.00      0.00
                                0.00      0.00      0.00
                                0.00      0.00      0.00

     dft-nl  stress (kbar)      0.00      0.00      0.00
                                0.00      0.00      0.00
                                0.00      0.00      0.00

     TS-vdW  stress (kbar)      0.00      0.00      0.00
                                0.00      0.00      0.00
                                0.00      0.00      0.00

     MDB     stress (kbar)      0.00      0.00      0.00
                                0.00      0.00      0.00
                                0.00      0.00      0.00

     3D-RISM stress (kbar)      0.00      0.00      0.00
                                0.00      0.00      0.00
                                0.00      0.00      0.00

     Energy error            =      1.2E-10 Ry
     Gradient error          =      0.0E+00 Ry/Bohr
     Cell gradient error     =      7.3E-03 kbar

     number of scf cycles    =   4
     number of bfgs steps    =   3

     enthalpy           old  =     -22.6776865768 Ry
     enthalpy           new  =     -22.6776865769 Ry

     CASE: enthalpy          _new < enthalpy          _old

     Message from routine bfgs :: compute_trust_radius:
     history already reset at previous step: stopping
     small trust_radius: resetting bfgs history

     new trust radius        =       0.0000040980 bohr
WARNING! With ibrav=0, cell_dofree='ibrav' has no effect. 
     Message from routine volume:
     axis vectors are left-handed
     new conv_thr            =            4.0E-12 Ry

     new unit-cell volume =    270.52233 a.u.^3 (    40.08727 Ang^3 )
     density =      2.32678 g/cm^3

CELL_PARAMETERS (angstrom)
   2.716390310   2.716390310   0.000000000
   2.716390310   0.000000000   2.716390310
   0.000000000   2.716390310   2.716390310

ATOMIC_POSITIONS (crystal)
Si            0.0000000000        0.0000000000       -0.0000000000
Si            0.2500000000        0.2500000000        0.2500000000



     Writing config-only to output data dir tmp/si.save/
     NEW-OLD atomic charge density approx. for the potential
     extrapolated charge    8.00003, renormalised to    8.00000

     total cpu time spent up to now is        6.1 secs

     per-process dynamical memory:    16.5 Mb

     Self-consistent Calculation

     iteration #  1     ecut=    30.00 Ry     beta= 0.40
     Davidson diagonalization with overlap

---- Real-time Memory Report at c_bands before calling an iterative solver
            83 MiB given to the printing process from OS
            16 MiB allocation reported by mallinfo(arena+hblkhd)
         58175 MiB available memory on the node where the printing process lives
------------------
     ethr =  1.00E-06,  avg # of iterations =  1.0

     Threshold (ethr) on eigenvalues was too large:
     Diagonalizing with lowered threshold

     Davidson diagonalization with overlap

---- Real-time Memory Report at c_bands before calling an iterative solver
            83 MiB given to the printing process from OS
            16 MiB allocation reported by mallinfo(arena+hblkhd)
         58176 MiB available memory on the node where the printing process lives
------------------
     ethr =  1.01E-13,  avg # of iterations =  2.9

     total cpu time spent up to now is        6.3 secs

     total energy              =     -22.67768658 Ry
     estimated scf accuracy    <          8.4E-12 Ry

     iteration #  2     ecut=    30.00 Ry     beta= 0.40
     Davidson diagonalization with overlap

---- Real-time Memory Report at c_bands before calling an iterative solver
            83 MiB given to the printing process from OS
            16 MiB allocation reported by mallinfo(arena+hblkhd)
         58175 MiB available memory on the node where the printing process lives
------------------
     ethr =  1.06E-13,  avg # of iterations =  2.9

     total cpu time spent up to now is        6.4 secs

     End of self-consistent calculation

          k = 0.0000 0.0000 0.0000 (   749 PWs)   bands (ev):

    -5.8372   6.1438   6.1438   6.1438

     occupation numbers 
     1.0000   1.0000   1.0000   1.0000

          k =-0.0505 0.0505 0.0505 (   737 PWs)   bands (ev):

    -5.7702   5.4698   6.0339   6.0339

     occupation numbers 
     1.0000   1.0000   1.0000   1.0000

          k =-0.1010 0.1010 0.1010 (   743 PWs)   bands (ev):

    -5.5705   4.1958   5.7828   5.7828

     occupation numbers 
     1.0000   1.0000   1.0000   1.0000

          k =-0.1515 0.1515 0.1515 (   757 PWs)   bands (ev):

    -5.2434   2.8475   5.5059   5.5059

     occupation numbers 
     1.0000   1.0000   1.0000   1.0000

          k =-0.2020 0.2020 0.2020 (   757 PWs)   bands (ev):

    -4.8011   1.5642   5.2653   5.2653

     occupation numbers 
     1.0000   1.0000   1.0000   1.0000

          k =-0.2525 0.2525 0.2525 (   757 PWs)   bands (ev):

    -4.2742   0.4191   5.0860   5.0860

     occupation numbers 
     1.0000   1.0000   1.0000   1.0000

          k =-0.3029 0.3029 0.3029 (   760 PWs)   bands (ev):

    -3.7518  -0.4798   4.9770   4.9770

     occupation numbers 
     1.0000   1.0000   1.0000   1.0000

          k = 0.3534-0.3534-0.3534 (   754 PWs)   bands (ev):

    -3.4921  -0.8658   4.9405   4.9405

     occupation numbers 
     1.0000   1.0000   1.0000   1.0000

          k = 0.0000-0.0000 0.1010 (   741 PWs)   bands (ev):

    -5.7478   5.6075   5.8068   5.8068

     occupation numbers 
     1.0000   1.0000   1.0000   1.0000

          k =-0.0505 0.0505 0.1515 (   749 PWs)   bands (ev):

    -5.5920   4.5769   5.4994   5.6853

     occupation numbers 
     1.0000   1.0000   1.0000   1.0000

          k =-0.1010 0.1010 0.2020 (   749 PWs)   bands (ev):

    -5.3068   3.2784   5.2086   5.4351

     occupation numbers 
     1.0000   1.0000   1.0000   1.0000

          k =-0.1515 0.1515 0.2525 (   757 PWs)   bands (ev):

    -4.9011   1.9892   4.9810   5.1343

     occupation numbers 
     1.0000   1.0000   1.0000   1.0000

          k =-0.2020 0.2020 0.3029 (   760 PWs)   bands (ev):

    -4.3971   0.8030   4.8354   4.8567

     occupation numbers 
     1.0000   1.0000   1.0000   1.0000

          k =-0.2525 0.2525 0.3534 (   756 PWs)   bands (ev):

    -3.8557  -0.1899   4.6336   4.7773

     occupation numbers 
     1.0000   1.0000   1.0000   1.0000

          k = 0.4039-0.4039-0.3029 (   751 PWs)   bands (ev):

    -3.4653  -0.7875   4.4799   4.8054

     occupation numbers 
     1.0000   1.0000   1.0000   1.0000

          k = 0.3534-0.3534-0.2525 (   752 PWs)   bands (ev):

    -3.5577  -0.6531   4.4053   4.9140

     occupation numbers 
     1.0000   1.0000   1.0000   1.0000

          k = 0.3029-0.3029-0.2020 (   758 PWs)   bands (ev):

    -4.0338   0.1132   4.4171   5.0943

     occupation numbers 
     1.0000   1.0000   1.0000   1.0000

          k = 0.2525-0.2525-0.1515 (   756 PWs)   bands (ev):

    -4.5744   1.1841   4.5209   5.3337

     occupation numbers 
     1.0000   1.0000   1.0000   1.0000

          k = 0.2020-0.2020-0.1010 (   755 PWs)   bands (ev):

    -5.0493   2.4102   4.7199   5.6107

     occupation numbers 
     1.0000   1.0000   1.0000   1.0000

          k = 0.1515-0.1515-0.0505 (   752 PWs)   bands (ev):

    -5.4162   3.6991   5.0187   5.8820

     occupation numbers 
     1.0000   1.0000   1.0000   1.0000

          k = 0.1010-0.1010 0.0000 (   741 PWs)   bands (ev):

    -5.6588   4.8570   5.4669   6.0600

     occupation numbers 
     1.0000   1.0000   1.0000   1.0000

          k = 0.0000-0.0000 0.2020 (   753 PWs)   bands (ev):

    -5.4803   4.5071   5.1591   5.1591

     occupation numbers 
     1.0000   1.0000   1.0000   1.0000

          k =-0.0505 0.0505 0.2525 (   756 PWs)   bands (ev):

    -5.2379   3.5514   4.8498   4.9072

     occupation numbers 
     1.0000   1.0000   1.0000   1.0000

          k =-0.1010 0.1010 0.3029 (   752 PWs)   bands (ev):

    -4.8714   2.3701   4.5706   4.6142

     occupation numbers 
     1.0000   1.0000   1.0000   1.0000

          k =-0.1515 0.1515 0.3534 (   751 PWs)   bands (ev):

    -4.3970   1.2067   4.2032   4.4709

     occupation numbers 
     1.0000   1.0000   1.0000   1.0000

          k =-0.2020 0.2020 0.4039 (   748 PWs)   bands (ev):

    -3.8564   0.1712   3.8762   4.4267

     occupation numbers 
     1.0000   1.0000   1.0000   1.0000

          k = 0.4544-0.4544-0.2525 (   748 PWs)   bands (ev):

    -3.3791  -0.5776   3.6217   4.4811

     occupation numbers 
     1.0000   1.0000   1.0000   1.0000

          k = 0.4039-0.4039-0.2020 (   749 PWs)   bands (ev):

    -3.2900  -0.7029   3.4577   4.6284

     occupation numbers 
     1.0000   1.0000   1.0000   1.0000

          k = 0.3534-0.3534-0.1515 (   755 PWs)   bands (ev):

    -3.6858  -0.1076   3.3977   4.8572

     occupation numbers 
     1.0000   1.0000   1.0000   1.0000

          k = 0.3029-0.3029-0.1010 (   749 PWs)   bands (ev):

    -4.2275   0.8563   3.4576   5.1478

     occupation numbers 
     1.0000   1.0000   1.0000   1.0000

          k = 0.2525-0.2525-0.0505 (   751 PWs)   bands (ev):

    -4.7295   1.9594   3.6701   5.4657

     occupation numbers 
     1.0000   1.0000   1.0000   1.0000

          k = 0.2020-0.2020-0.0000 (   753 PWs)   bands (ev):

    -5.1329   2.9937   4.1473   5.7463

     occupation numbers 
     1.0000   1.0000   1.0000   1.0000

          k = 0.0000-0.0000 0.3029 (   745 PWs)   bands (ev):

    -5.0380   3.2609   4.5202   4.5202

     occupation numbers 
     1.0000   1.0000   1.0000   1.0000

          k =-0.0505 0.0505 0.3534 (   747 PWs)   bands (ev):

    -4.7122   2.4379   4.1615   4.2655

     occupation numbers 
     1.0000   1.0000   1.0000   1.0000

          k =-0.1010 0.1010 0.4039 (   751 PWs)   bands (ev):

    -4.2718   1.4522   3.6829   4.1065

     occupation numbers 
     1.0000   1.0000   1.0000   1.0000

          k =-0.1515 0.1515 0.4544 (   754 PWs)   bands (ev):

    -3.7456   0.4786   3.2183   4.0518

     occupation numbers 
     1.0000   1.0000   1.0000   1.0000

          k = 0.5049-0.5049-0.2020 (   749 PWs)   bands (ev):

    -3.2202  -0.3302   2.8400   4.1029

     occupation numbers 
     1.0000   1.0000   1.0000   1.0000

          k = 0.4544-0.4544-0.1515 (   753 PWs)   bands (ev):

    -2.9649  -0.6745   2.5774   4.2557

     occupation numbers 
     1.0000   1.0000   1.0000   1.0000

          k = 0.4039-0.4039-0.1010 (   749 PWs)   bands (ev):

    -3.2468  -0.2831   2.4533   4.4995

     occupation numbers 
     1.0000   1.0000   1.0000   1.0000

          k = 0.3534-0.3534-0.0505 (   752 PWs)   bands (ev):

    -3.7745   0.5181   2.5108   4.8141

     occupation numbers 
     1.0000   1.0000   1.0000   1.0000

          k = 0.3029-0.3029 0.0000 (   754 PWs)   bands (ev):

    -4.2955   1.3516   2.8677   5.1607

     occupation numbers 
     1.0000   1.0000   1.0000   1.0000

          k = 0.0000-0.0000 0.4039 (   745 PWs)   bands (ev):

    -4.4264   1.9798   3.9872   3.9872

     occupation numbers 
     1.0000   1.0000   1.0000   1.0000

          k =-0.0505 0.0505 0.4544 (   746 PWs)   bands (ev):

    -4.0224   1.2571   3.5860   3.8041

     occupation numbers 
     1.0000   1.0000   1.0000   1.0000

          k =-0.1010 0.1010 0.5049 (   756 PWs)   bands (ev):

    -3.5198   0.4719   2.9879   3.7269

     occupation numbers 
     1.0000   1.0000   1.0000   1.0000

          k = 0.5554-0.5554-0.1515 (   750 PWs)   bands (ev):

    -2.9755  -0.2621   2.4288   3.7591

     occupation numbers 
     1.0000   1.0000   1.0000   1.0000

          k = 0.5049-0.5049-0.1010 (   750 PWs)   bands (ev):

    -2.5920  -0.7184   2.0207   3.8981

     occupation numbers 
     1.0000   1.0000   1.0000   1.0000

          k = 0.4544-0.4544-0.0505 (   745 PWs)   bands (ev):

    -2.7473  -0.5270   1.8254   4.1354

     occupation numbers 
     1.0000   1.0000   1.0000   1.0000

          k = 0.4039-0.4039-0.0000 (   744 PWs)   bands (ev):

    -3.2479   0.0382   1.9429   4.4529

     occupation numbers 
     1.0000   1.0000   1.0000   1.0000

          k = 0.0000-0.0000 0.5049 (   757 PWs)   bands (ev):

    -3.6541   0.7059   3.5934   3.5934

     occupation numbers 
     1.0000   1.0000   1.0000   1.0000

          k =-0.0505 0.0505 0.5554 (   752 PWs)   bands (ev):

    -3.1801   0.0566   3.2039   3.4883

     occupation numbers 
     1.0000   1.0000   1.0000   1.0000

          k = 0.6059-0.6059-0.1010 (   751 PWs)   bands (ev):

    -2.6365  -0.5703   2.5698   3.4938

     occupation numbers 
     1.0000   1.0000   1.0000   1.0000

          k = 0.5554-0.5554-0.0505 (   744 PWs)   bands (ev):

    -2.1732  -1.0316   2.0019   3.6093

     occupation numbers 
     1.0000   1.0000   1.0000   1.0000

          k = 0.5049-0.5049 0.0000 (   740 PWs)   bands (ev):

    -2.2693  -0.9141   1.6950   3.8283

     occupation numbers 
     1.0000   1.0000   1.0000   1.0000

          k = 0.0000-0.0000 0.6059 (   749 PWs)   bands (ev):

    -2.7337  -0.5265   3.3530   3.3530

     occupation numbers 
     1.0000   1.0000   1.0000   1.0000

          k = 0.6564-0.6564-0.0505 (   751 PWs)   bands (ev):

    -2.2024  -1.1103   3.0139   3.3283

     occupation numbers 
     1.0000   1.0000   1.0000   1.0000

          k = 0.6059-0.6059 0.0000 (   752 PWs)   bands (ev):

    -1.7758  -1.4903   2.4329   3.4153

     occupation numbers 
     1.0000   1.0000   1.0000   1.0000

          k = 0.0000 0.0000-0.7069 (   740 PWs)   bands (ev):

    -1.6831  -1.6831   3.2722   3.2722

     occupation numbers 
     1.0000   1.0000   1.0000   1.0000

          k =-0.0000 0.1010 0.2020 (   756 PWs)   bands (ev):

    -5.3931   3.8807   4.8124   5.6021

     occupation numbers 
     1.0000   1.0000   1.0000   1.0000

          k =-0.0505 0.1515 0.2525 (   757 PWs)   bands (ev):

    -5.0672   2.7837   4.3370   5.3937

     occupation numbers 
     1.0000   1.0000   1.0000   1.0000

          k =-0.1010 0.2020 0.3029 (   756 PWs)   bands (ev):

    -4.6263   1.5920   4.0594   5.1107

     occupation numbers 
     1.0000   1.0000   1.0000   1.0000

          k =-0.1515 0.2525 0.3534 (   757 PWs)   bands (ev):

    -4.1001   0.4881   3.8951   4.8500

     occupation numbers 
     1.0000   1.0000   1.0000   1.0000

          k = 0.5049-0.4039-0.3029 (   755 PWs)   bands (ev):

    -3.5763  -0.3936   3.8131   4.6681

     occupation numbers 
     1.0000   1.0000   1.0000   1.0000

          k = 0.4544-0.3534-0.2525 (   752 PWs)   bands (ev):

    -3.3141  -0.7767   3.7895   4.6023

     occupation numbers 
     1.0000   1.0000   1.0000   1.0000

          k = 0.0000 0.1010 0.3029 (   755 PWs)   bands (ev):

    -4.9541   2.8478   4.1704   4.8259

     occupation numbers 
     1.0000   1.0000   1.0000   1.0000

          k =-0.0505 0.1515 0.3534 (   754 PWs)   bands (ev):

    -4.5505   1.8765   3.6936   4.5929

     occupation numbers 
     1.0000   1.0000   1.0000   1.0000

          k =-0.1010 0.2020 0.4039 (   753 PWs)   bands (ev):

    -4.0483   0.8408   3.3800   4.3481

     occupation numbers 
     1.0000   1.0000   1.0000   1.0000

          k = 0.5554-0.4544-0.2525 (   750 PWs)   bands (ev):

    -3.5060  -0.0805   3.1498   4.2046

     occupation numbers 
     1.0000   1.0000   1.0000   1.0000

          k = 0.5049-0.4039-0.2020 (   750 PWs)   bands (ev):

    -3.1117  -0.6515   2.9804   4.2026

     occupation numbers 
     1.0000   1.0000   1.0000   1.0000

          k = 0.4544-0.3534-0.1515 (   750 PWs)   bands (ev):

    -3.2116  -0.5109   2.8866   4.3358

     occupation numbers 
     1.0000   1.0000   1.0000   1.0000

          k = 0.4039-0.3029-0.1010 (   754 PWs)   bands (ev):

    -3.6943   0.2228   2.8989   4.5771

     occupation numbers 
     1.0000   1.0000   1.0000   1.0000

          k = 0.3534-0.2525-0.0505 (   750 PWs)   bands (ev):

    -4.2333   1.1818   3.0658   4.8865

     occupation numbers 
     1.0000   1.0000   1.0000   1.0000

          k = 0.3029-0.2020-0.0000 (   750 PWs)   bands (ev):

    -4.7042   2.1104   3.5032   5.1978

     occupation numbers 
     1.0000   1.0000   1.0000   1.0000

          k =-0.0000 0.1010 0.4039 (   748 PWs)   bands (ev):

    -4.3479   1.7560   3.6425   4.0986

     occupation numbers 
     1.0000   1.0000   1.0000   1.0000

          k =-0.0505 0.1515 0.4544 (   754 PWs)   bands (ev):

    -3.8760   0.9393   3.1423   3.8724

     occupation numbers 
     1.0000   1.0000   1.0000   1.0000

          k = 0.6059-0.5049-0.2020 (   748 PWs)   bands (ev):

    -3.3355   0.1114   2.6997   3.7514

     occupation numbers 
     1.0000   1.0000   1.0000   1.0000

          k = 0.5554-0.4544-0.1515 (   745 PWs)   bands (ev):

    -2.8541  -0.5347   2.3529   3.7776

     occupation numbers 
     1.0000   1.0000   1.0000   1.0000

          k = 0.5049-0.4039-0.1010 (   746 PWs)   bands (ev):

    -2.7824  -0.6181   2.1409   3.9363

     occupation numbers 
     1.0000   1.0000   1.0000   1.0000

          k = 0.4544-0.3534-0.0505 (   750 PWs)   bands (ev):

    -3.2012  -0.0744   2.1142   4.2031

     occupation numbers 
     1.0000   1.0000   1.0000   1.0000

          k = 0.4039-0.3029 0.0000 (   754 PWs)   bands (ev):

    -3.7413   0.6295   2.3796   4.5420

     occupation numbers 
     1.0000   1.0000   1.0000   1.0000

          k =-0.0000 0.1010 0.5049 (   753 PWs)   bands (ev):

    -3.5845   0.6125   3.2653   3.5425

     occupation numbers 
     1.0000   1.0000   1.0000   1.0000

          k = 0.6564-0.5554-0.1515 (   746 PWs)   bands (ev):

    -3.0596  -0.0604   2.7247   3.3917

     occupation numbers 
     1.0000   1.0000   1.0000   1.0000

          k = 0.6059-0.5049-0.1010 (   743 PWs)   bands (ev):

    -2.5306  -0.6578   2.1767   3.4189

     occupation numbers 
     1.0000   1.0000   1.0000   1.0000

          k = 0.5554-0.4544-0.0505 (   745 PWs)   bands (ev):

    -2.3162  -0.8721   1.8103   3.5792

     occupation numbers 
     1.0000   1.0000   1.0000   1.0000

          k = 0.5049-0.4039 0.0000 (   736 PWs)   bands (ev):

    -2.6752  -0.5043   1.7459   3.8507

     occupation numbers 
     1.0000   1.0000   1.0000   1.0000

          k = 0.7069-0.6059-0.1010 (   749 PWs)   bands (ev):

    -2.6789  -0.5416   3.0564   3.1861

     occupation numbers 
     1.0000   1.0000   1.0000   1.0000

          k = 0.6564-0.5554-0.0505 (   746 PWs)   bands (ev):

    -2.1312  -1.0922   2.4992   3.1635

     occupation numbers 
     1.0000   1.0000   1.0000   1.0000

          k = 0.6059-0.5049 0.0000 (   743 PWs)   bands (ev):

    -1.9031  -1.2690   1.9857   3.3136

     occupation numbers 
     1.0000   1.0000   1.0000   1.0000

          k = 0.0000 0.1010-0.7069 (   758 PWs)   bands (ev):

    -1.6538  -1.6538   3.0268   3.0268

     occupation numbers 
     1.0000   1.0000   1.0000   1.0000

          k =-0.0000 0.2020 0.4039 (   753 PWs)   bands (ev):

    -4.1157   1.2370   2.9882   4.3369

     occupation numbers 
     1.0000   1.0000   1.0000   1.0000

          k = 0.6564-0.4544-0.2525 (   751 PWs)   bands (ev):

    -3.5938   0.4444   2.5905   4.0242

     occupation numbers 
     1.0000   1.0000   1.0000   1.0000

          k = 0.6059-0.4039-0.2020 (   750 PWs)   bands (ev):

    -3.0654  -0.3072   2.4143   3.7905

     occupation numbers 
     1.0000   1.0000   1.0000   1.0000

          k = 0.5554-0.3534-0.1515 (   742 PWs)   bands (ev):

    -2.7921  -0.6638   2.3661   3.7049

     occupation numbers 
     1.0000   1.0000   1.0000   1.0000

          k = 0.7069-0.5049-0.2020 (   757 PWs)   bands (ev):

    -3.3816   0.3384   2.6451   3.5190

     occupation numbers 
     1.0000   1.0000   1.0000   1.0000

          k = 0.6564-0.4544-0.1515 (   747 PWs)   bands (ev):

    -2.8387  -0.3004   2.2714   3.2600

     occupation numbers 
     1.0000   1.0000   1.0000   1.0000

          k = 0.6059-0.4039-0.1010 (   743 PWs)   bands (ev):

    -2.4314  -0.7560   2.0203   3.2075

     occupation numbers 
     1.0000   1.0000   1.0000   1.0000

          k = 0.5554-0.3534-0.0505 (   746 PWs)   bands (ev):

    -2.5643  -0.6054   1.9311   3.3528

     occupation numbers 
     1.0000   1.0000   1.0000   1.0000

          k = 0.5049-0.3029 0.0000 (   745 PWs)   bands (ev):

    -3.0655  -0.0641   2.0907   3.6483

     occupation numbers 
     1.0000   1.0000   1.0000   1.0000

          k = 0.7069-0.5049-0.1010 (   744 PWs)   bands (ev):

    -2.5253  -0.6102   2.5007   2.9166

     occupation numbers 
     1.0000   1.0000   1.0000   1.0000

          k = 0.6564-0.4544-0.0505 (   745 PWs)   bands (ev):

    -2.0303  -1.0792   2.1172   2.8211

     occupation numbers 
     1.0000   1.0000   1.0000   1.0000

          k = 0.6059-0.4039 0.0000 (   737 PWs)   bands (ev):

    -2.0816  -1.0104   1.8474   3.0094

     occupation numbers 
     1.0000   1.0000   1.0000   1.0000

          k =-0.0000 0.2020-0.7069 (   742 PWs)   bands (ev):

    -1.5838  -1.5838   2.5816   2.5816

     occupation numbers 
     1.0000   1.0000   1.0000   1.0000

          k = 0.7069-0.4039-0.1010 (   745 PWs)   bands (ev):

    -2.3072  -0.7702   2.0437   2.8344

     occupation numbers 
     1.0000   1.0000   1.0000   1.0000

          k = 0.6564-0.3534-0.0505 (   742 PWs)   bands (ev):

    -1.9796  -1.0787   1.9869   2.6633

     occupation numbers 
     1.0000   1.0000   1.0000   1.0000

          k = 0.0000 0.3029-0.7069 (   742 PWs)   bands (ev):

    -1.5231  -1.5231   2.2830   2.2830

     occupation numbers 
     1.0000   1.0000   1.0000   1.0000

     highest occupied level (ev):     6.1438

!    total energy              =     -22.67768658 Ry
     estimated scf accuracy    <          7.1E-13 Ry

     The total energy is the sum of the following terms:
     one-electron contribution =       5.16894825 Ry
     hartree contribution      =       1.08049115 Ry
     xc contribution           =     -12.13678032 Ry
     ewald contribution        =     -16.79034566 Ry

     convergence has been achieved in   2 iterations

     Forces acting on atoms (cartesian axes, Ry/au):

     atom    1 type  1   force =    -0.00000000   -0.00000000    0.00000000
     atom    2 type  1   force =     0.00000000    0.00000000   -0.00000000
     The non-local contrib.  to forces
     atom    1 type  1   force =    -0.00000000    0.00000000   -0.00000000
     atom    2 type  1   force =     0.00000000   -0.00000000    0.00000000
     The ionic contribution  to forces
     atom    1 type  1   force =    -0.00000000   -0.00000000   -0.00000000
     atom    2 type  1   force =     0.00000000    0.00000000    0.00000000
     The local contribution  to forces
     atom    1 type  1   force =    -0.00000000    0.00000000    0.00000000
     atom    2 type  1   force =     0.00000000    0.00000000   -0.00000000
     The core correction contribution to forces
     atom    1 type  1   force =     0.00000000   -0.00000000    0.00000000
     atom    2 type  1   force =    -0.00000000   -0.00000000   -0.00000000
     The Hubbard contrib.    to forces
     atom    1 type  1   force =     0.00000000    0.00000000    0.00000000
     atom    2 type  1   force =     0.00000000    0.00000000    0.00000000
     The SCF correction term to forces
     atom    1 type  1   force =     0.00000000    0.00000000   -0.00000000
     atom    2 type  1   force =    -0.00000000   -0.00000000    0.00000000

     Total force =     0.000000     Total SCF correction =     0.000000


     Computing stress (Cartesian axis) and pressure

          total   stress  (Ry/bohr**3)                   (kbar)     P=        0.00
   0.00000003   0.00000000  -0.00000000            0.00        0.00       -0.00
   0.00000000   0.00000003  -0.00000000            0.00        0.00       -0.00
  -0.00000000  -0.00000000   0.00000003           -0.00       -0.00        0.00

     kinetic stress (kbar)   2201.50     -0.00     -0.00
                               -0.00   2201.50     -0.00
                               -0.00     -0.00   2201.50

     local   stress (kbar)     39.93     -0.00     -0.00
                               -0.00     39.93     -0.00
                               -0.00     -0.00     39.93

     nonloc. stress (kbar)   1626.14      0.00      0.00
                                0.00   1626.14      0.00
                                0.00      0.00   1626.14

     hartree stress (kbar)    195.85     -0.00     -0.00
                               -0.00    195.85      0.00
                               -0.00      0.00    195.85

     exc-cor stress (kbar)   2906.58     -0.00     -0.00
                               -0.00   2906.58      0.00
                               -0.00      0.00   2906.58

     corecor stress (kbar)  -3926.58      0.00      0.00
                                0.00  -3926.58      0.00
                                0.00      0.00  -3926.58

     ewald   stress (kbar)  -3043.43     -0.00      0.00
                               -0.00  -3043.43      0.00
                                0.00      0.00  -3043.43

     hubbard stress (kbar)      0.00      0.00      0.00
                                0.00      0.00      0.00
                                0.00      0.00      0.00

     DFT-D   stress (kbar)      0.00      0.00      0.00
                                0.00      0.00      0.00
                                0.00      0.00      0.00

     XDM     stress (kbar)      0.00      0.00      0.00
                                0.00      0.00      0.00
                                0.00      0.00      0.00

     dft-nl  stress (kbar)      0.00      0.00      0.00
                                0.00      0.00      0.00
                                0.00      0.00      0.00

     TS-vdW  stress (kbar)      0.00      0.00      0.00
                                0.00      0.00      0.00
                                0.00      0.00      0.00

     MDB     stress (kbar)      0.00      0.00      0.00
                                0.00      0.00      0.00
                                0.00      0.00      0.00

     3D-RISM stress (kbar)      0.00      0.00      0.00
                                0.00      0.00      0.00
                                0.00      0.00      0.00

     Message from routine bfgs:
     history already reset at previous step: exiting
     Energy error            =      3.7E-11 Ry
     Gradient error          =      7.6E-32 Ry/Bohr
     Cell gradient error     =      3.9E-03 kbar
WARNING! With ibrav=0, cell_dofree='ibrav' has no effect. 
     Message from routine volume:
     axis vectors are left-handed

     bfgs failed after   5 scf cycles and   4 bfgs steps, convergence not achieved
     (criteria: energy <  2.0E-05 Ry, force <  1.0E-04 Ry/Bohr, cell <  2.0E-03 kbar)

     End of BFGS Geometry Optimization

     Final enthalpy           =     -22.6776865769 Ry

     File tmp/si.bfgs deleted, as requested
Begin final coordinates
     new unit-cell volume =    270.52233 a.u.^3 (    40.08727 Ang^3 )
     density =      2.32678 g/cm^3

CELL_PARAMETERS (angstrom)
   2.716390310   2.716390310   0.000000000
   2.716390310   0.000000000   2.716390310
   0.000000000   2.716390310   2.716390310

ATOMIC_POSITIONS (crystal)
Si            0.0000000000        0.0000000000       -0.0000000000
Si            0.2500000000        0.2500000000        0.2500000000
End final coordinates



     Writing config-only to output data dir tmp/si.save/

     Writing all to output data dir tmp/si.save/

     init_run     :      0.77s CPU      0.72s WALL (       1 calls)
     electrons    :      6.46s CPU      3.47s WALL (       5 calls)
     update_pot   :      0.65s CPU      0.65s WALL (       4 calls)
     forces       :      0.60s CPU      0.54s WALL (       5 calls)
     stress       :      0.93s CPU      0.95s WALL (       5 calls)

     Called by init_run:
     wfcinit      :      0.11s CPU      0.06s WALL (       1 calls)
     wfcinit:atom :      0.00s CPU      0.00s WALL (      26 calls)
     wfcinit:wfcr :      0.10s CPU      0.06s WALL (      26 calls)
     potinit      :      0.21s CPU      0.21s WALL (       1 calls)
     hinit0       :      0.40s CPU      0.40s WALL (       1 calls)

     Called by electrons:
     c_bands      :      4.98s CPU      2.57s WALL (      37 calls)
     sum_band     :      0.98s CPU      0.57s WALL (      37 calls)
     v_of_rho     :      0.33s CPU      0.20s WALL (      37 calls)
     v_h          :      0.01s CPU      0.01s WALL (      37 calls)
     v_xc         :      0.39s CPU      0.23s WALL (      47 calls)
     newd         :      0.33s CPU      0.30s WALL (      37 calls)
     mix_rho      :      0.02s CPU      0.02s WALL (      37 calls)

     Called by c_bands:
     init_us_2    :      0.20s CPU      0.12s WALL (    2210 calls)
     init_us_2:cp :      0.20s CPU      0.11s WALL (    2210 calls)
     cegterg      :      3.91s CPU      2.02s WALL (     962 calls)

     Called by sum_band:
     sum_band:wei :      0.00s CPU      0.00s WALL (      37 calls)
     sum_band:loo :      0.60s CPU      0.31s WALL (      37 calls)
     sum_band:buf :      0.00s CPU      0.00s WALL (     962 calls)
     sum_band:ini :      0.08s CPU      0.05s WALL (     962 calls)
     sum_band:cal :      0.06s CPU      0.03s WALL (     962 calls)
     sum_band:bec :      0.01s CPU      0.00s WALL (     962 calls)
     addusdens    :      0.19s CPU      0.14s WALL (      37 calls)
                                        0.00s GPU  (      37 calls)
     addusd:skk   :      0.00s CPU      0.00s WALL (      37 calls)
                                        0.00s GPU  (      37 calls)

     Called by *egterg:
     cdiaghg      :      0.19s CPU      0.11s WALL (    3612 calls)
     cegterg:over :      0.14s CPU      0.07s WALL (    2884 calls)
     cegterg:upda :      0.04s CPU      0.01s WALL (    2884 calls)
     cegterg:last :      0.04s CPU      0.02s WALL (    2511 calls)
     h_psi        :      3.41s CPU      1.73s WALL (    3872 calls)
     s_psi        :      0.08s CPU      0.05s WALL (    3872 calls)
     g_psi        :      0.01s CPU      0.01s WALL (    2884 calls)

     Called by h_psi:
     h_psi:calbec :      0.25s CPU      0.11s WALL (    3872 calls)
     vloc_psi     :      3.04s CPU      1.55s WALL (    3872 calls)
     add_vuspsi   :      0.10s CPU      0.05s WALL (    3872 calls)

     General routines
     calbec       :      0.32s CPU      0.16s WALL (    5484 calls)
     fft          :      0.44s CPU      0.39s WALL (     605 calls)
     ffts         :      0.12s CPU      0.12s WALL (      74 calls)
     fftw         :      3.01s CPU      1.53s WALL (   29278 calls)
     interpolate  :      0.13s CPU      0.13s WALL (      37 calls)
     davcio       :      0.00s CPU      0.00s WALL (      26 calls)

     Parallel routines

     PWSCF        :      9.87s CPU      6.76s WALL


   This run was terminated on:  16:42:12  22Dec2024            

=------------------------------------------------------------------------------=
   JOB DONE.
=------------------------------------------------------------------------------=
