120
Lattice="50.0 0.0 0.0 0.0 50.0 0.0 0.0 0.0 12.953999999999999" Properties=species:S:1:pos:R:3 pbc="T T T"
C       12.92750000       8.91420000       2.87910000
C       12.73110000      10.15440000       3.59760000
C       12.92750000       8.91420000       1.43860000
C       12.16100000      11.27320000       2.87910000
C       11.27310000      12.16110000       3.59760000
C       12.73110000      10.15440000       0.72010000
C       12.16100000      11.27320000       1.43860000
C       10.15420000      12.73120000       2.87910000
C        8.91400000      12.92760000       3.59760000
C       11.27310000      12.16110000       0.72010000
C       10.15420000      12.73120000       1.43860000
C        7.67380000      12.73110000       2.87910000
C        6.55500000      12.16100000       3.59760000
C        8.91400000      12.92760000       0.72010000
C        7.67380000      12.73110000       1.43860000
C        5.66710000      11.27310000       2.87910000
C        5.09700000      10.15430000       3.59760000
C        6.55500000      12.16100000       0.72010000
C        5.66710000      11.27310000       1.43860000
C        4.90060000       8.91410000       2.87910000
C        5.09710000       7.67380000       3.59760000
C        5.09700000      10.15430000       0.72010000
C        4.90060000       8.91410000       1.43860000
C        5.66720000       6.55500000       2.87910000
C        6.55510000       5.66710000       3.59760000
C        5.09710000       7.67380000       0.72010000
C        5.66720000       6.55500000       1.43860000
C        7.67390000       5.09710000       2.87910000
C        8.91410000       4.90070000       3.59760000
C        6.55510000       5.66710000       0.72010000
C        7.67390000       5.09710000       1.43860000
C       10.15440000       5.09710000       2.87910000
C       11.27320000       5.66720000       3.59760000
C        8.91410000       4.90070000       0.72010000
C       10.15440000       5.09710000       1.43860000
C       12.16110000       6.55510000       2.87910000
C       12.73110000       7.67400000       3.59760000
C       11.27320000       5.66720000       0.72010000
C       12.16110000       6.55510000       1.43860000
C       12.73110000       7.67400000       0.72010000
C       12.92750000       8.91420000       7.19710000
C       12.73110000      10.15440000       7.91560000
C       12.92750000       8.91420000       5.75660000
C       12.16100000      11.27320000       7.19710000
C       11.27310000      12.16110000       7.91560000
C       12.73110000      10.15440000       5.03810000
C       12.16100000      11.27320000       5.75660000
C       10.15420000      12.73120000       7.19710000
C        8.91400000      12.92760000       7.91560000
C       11.27310000      12.16110000       5.03810000
C       10.15420000      12.73120000       5.75660000
C        7.67380000      12.73110000       7.19710000
C        6.55500000      12.16100000       7.91560000
C        8.91400000      12.92760000       5.03810000
C        7.67380000      12.73110000       5.75660000
C        5.66710000      11.27310000       7.19710000
C        5.09700000      10.15430000       7.91560000
C        6.55500000      12.16100000       5.03810000
C        5.66710000      11.27310000       5.75660000
C        4.90060000       8.91410000       7.19710000
C        5.09710000       7.67380000       7.91560000
C        5.09700000      10.15430000       5.03810000
C        4.90060000       8.91410000       5.75660000
C        5.66720000       6.55500000       7.19710000
C        6.55510000       5.66710000       7.91560000
C        5.09710000       7.67380000       5.03810000
C        5.66720000       6.55500000       5.75660000
C        7.67390000       5.09710000       7.19710000
C        8.91410000       4.90070000       7.91560000
C        6.55510000       5.66710000       5.03810000
C        7.67390000       5.09710000       5.75660000
C       10.15440000       5.09710000       7.19710000
C       11.27320000       5.66720000       7.91560000
C        8.91410000       4.90070000       5.03810000
C       10.15440000       5.09710000       5.75660000
C       12.16110000       6.55510000       7.19710000
C       12.73110000       7.67400000       7.91560000
C       11.27320000       5.66720000       5.03810000
C       12.16110000       6.55510000       5.75660000
C       12.73110000       7.67400000       5.03810000
C       12.92750000       8.91420000      11.51510000
C       12.73110000      10.15440000      12.23360000
C       12.92750000       8.91420000      10.07460000
C       12.16100000      11.27320000      11.51510000
C       11.27310000      12.16110000      12.23360000
C       12.73110000      10.15440000       9.35610000
C       12.16100000      11.27320000      10.07460000
C       10.15420000      12.73120000      11.51510000
C        8.91400000      12.92760000      12.23360000
C       11.27310000      12.16110000       9.35610000
C       10.15420000      12.73120000      10.07460000
C        7.67380000      12.73110000      11.51510000
C        6.55500000      12.16100000      12.23360000
C        8.91400000      12.92760000       9.35610000
C        7.67380000      12.73110000      10.07460000
C        5.66710000      11.27310000      11.51510000
C        5.09700000      10.15430000      12.23360000
C        6.55500000      12.16100000       9.35610000
C        5.66710000      11.27310000      10.07460000
C        4.90060000       8.91410000      11.51510000
C        5.09710000       7.67380000      12.23360000
C        5.09700000      10.15430000       9.35610000
C        4.90060000       8.91410000      10.07460000
C        5.66720000       6.55500000      11.51510000
C        6.55510000       5.66710000      12.23360000
C        5.09710000       7.67380000       9.35610000
C        5.66720000       6.55500000      10.07460000
C        7.67390000       5.09710000      11.51510000
C        8.91410000       4.90070000      12.23360000
C        6.55510000       5.66710000       9.35610000
C        7.67390000       5.09710000      10.07460000
C       10.15440000       5.09710000      11.51510000
C       11.27320000       5.66720000      12.23360000
C        8.91410000       4.90070000       9.35610000
C       10.15440000       5.09710000      10.07460000
C       12.16110000       6.55510000      11.51510000
C       12.73110000       7.67400000      12.23360000
C       11.27320000       5.66720000       9.35610000
C       12.16110000       6.55510000      10.07460000
C       12.73110000       7.67400000       9.35610000
