250
Lattice="-6.490618425711827e-16 13.669403963817725 13.669403963817725 13.669403963817725 -6.507680061870813e-16 13.669403963817725 13.669403963817725 13.669403963817725 -2.3937346563091177e-16" Properties=species:S:1:pos:R:3:forces:R:3 energy=-1356.2276720907787 stress="-5.4665870547079384e-06 -0.0001311282054412105 4.2950576381204e-11 -0.0001311282054412105 -5.466587054708376e-06 4.295079992341763e-11 4.2950576381204e-11 4.295079992341763e-11 1.5061302120134316e-06" pbc="T T T"
Si       0.00000000       0.00000000       0.00000000      -0.06674757      -0.06674757      -0.09470441
Si       1.36694040       1.36694040       1.36694040      -0.00000033      -0.00000033       0.39179859
Si       2.73388079       2.73388079      -0.00000000       0.06692097       0.06692097      -0.09495733
Si       4.10082119       4.10082119       1.36694040      -0.00209491      -0.00209491       0.00983502
Si       5.46776159       5.46776159      -0.00000000      -0.00060906      -0.00060906      -0.00093143
Si       6.83470198       6.83470198       1.36694040       0.00025950       0.00025950       0.00031356
Si       8.20164238       8.20164238      -0.00000000      -0.00031284      -0.00031284       0.00086319
Si       9.56858277       9.56858277       1.36694040      -0.00001522      -0.00001522       0.00058606
Si      10.93552317      10.93552317      -0.00000000       0.00074853       0.00074853      -0.00032081
Si      12.30246357      12.30246357       1.36694040       0.00185089       0.00185089       0.01006537
Si       2.73388079      -0.00000000       2.73388079      -0.06196828       0.06196828      -0.09228888
Si       4.10082119       1.36694040       4.10082119      -0.00480343       0.00197397      -0.00713676
Si       5.46776159       2.73388079       2.73388079       0.00029619      -0.00111274       0.00063916
Si       6.83470198       4.10082119       4.10082119       0.00036433      -0.00000623      -0.00008043
Si       8.20164238       5.46776159       2.73388079      -0.00000181      -0.00000526       0.00000948
Si       9.56858277       6.83470198       4.10082119      -0.00002403       0.00002123      -0.00006280
Si      10.93552317       8.20164238       2.73388079      -0.00004592       0.00003194       0.00027356
Si      12.30246357       9.56858277       4.10082119      -0.00001476      -0.00034027      -0.00014295
Si      13.66940396      10.93552317       2.73388079       0.00114062      -0.00030301       0.00065888
Si      15.03634436      12.30246357       4.10082119      -0.00197396       0.00480316      -0.00713681
Si       5.46776159      -0.00000000       5.46776159      -0.00090518      -0.00059206      -0.00095074
Si       6.83470198       1.36694040       6.83470198       0.00015907      -0.00038687       0.00016336
Si       8.20164238       2.73388079       5.46776159       0.00005266      -0.00000858      -0.00000470
Si       9.56858277       4.10082119       6.83470198       0.00000905       0.00002038      -0.00000830
Si      10.93552317       5.46776159       5.46776159      -0.00000005       0.00000037      -0.00000029
Si      12.30246357       6.83470198       6.83470198      -0.00000003       0.00000023      -0.00000024
Si      13.66940396       8.20164238       5.46776159      -0.00002283      -0.00002860      -0.00000253
Si      15.03634436       9.56858277       6.83470198      -0.00000905      -0.00016410       0.00023087
Si      16.40328476      10.93552317       5.46776159       0.00045048       0.00105378      -0.00120924
Si      17.77022515      12.30246357       6.83470198       0.00073060      -0.00035929       0.00011869
Si       8.20164238      -0.00000000       8.20164238      -0.00115784      -0.00023582       0.00057303
Si       9.56858277       1.36694040       9.56858277       0.00014409       0.00003898       0.00050359
Si      10.93552317       2.73388079       8.20164238       0.00007037       0.00003558       0.00006707
Si      12.30246357       4.10082119       9.56858277      -0.00020875       0.00017539       0.00022873
Si      13.66940396       5.46776159       8.20164238      -0.00001030      -0.00003192       0.00001929
Si      15.03634436       6.83470198       9.56858277       0.00000995      -0.00013452       0.00024358
Si      16.40328476       8.20164238       8.20164238      -0.00002522      -0.00003822       0.00004761
Si      17.77022515       9.56858277       9.56858277      -0.00002502       0.00000018       0.00026904
Si      19.13716555      10.93552317       8.20164238       0.00023526       0.00115811       0.00057293
Si      20.50410595      12.30246357       9.56858277      -0.00192950       0.00192921       0.00990474
Si      10.93552317      -0.00000000      10.93552317      -0.00222632       0.00067642      -0.00058092
Si      12.30246357       1.36694040      12.30246357      -0.00499232      -0.00168259      -0.00741895
Si      13.66940396       2.73388079      10.93552317       0.00023616      -0.00022218       0.00103749
Si      15.03634436       4.10082119      12.30246357       0.00204689       0.00498585      -0.00733881
Si      16.40328476       5.46776159      10.93552317      -0.00037159       0.00109100      -0.00123036
Si      17.77022515       6.83470198      12.30246357      -0.00036530       0.00021923      -0.00015671
Si      19.13716555       8.20164238      10.93552317      -0.00029593       0.00111330       0.00063859
Si      20.50410595       9.56858277      12.30246357       0.00480315      -0.00197369      -0.00713661
Si      21.87104634      10.93552317      10.93552317       0.06196772      -0.06196854      -0.09228946
Si      23.23798674      12.30246357      12.30246357       0.00176096      -0.00480219      -0.00721310
Si      -0.00000000       2.73388079       2.73388079       0.06196828      -0.06196828      -0.09228888
Si       1.36694040       4.10082119       4.10082119       0.00197397      -0.00480343      -0.00713676
Si       2.73388079       5.46776159       2.73388079      -0.00111274       0.00029619       0.00063916
Si       4.10082119       6.83470198       4.10082119      -0.00000623       0.00036433      -0.00008043
Si       5.46776159       8.20164238       2.73388079      -0.00000526      -0.00000181       0.00000948
Si       6.83470198       9.56858277       4.10082119       0.00002123      -0.00002403      -0.00006280
Si       8.20164238      10.93552317       2.73388079       0.00003194      -0.00004592       0.00027356
Si       9.56858277      12.30246357       4.10082119      -0.00034027      -0.00001476      -0.00014295
Si      10.93552317      13.66940396       2.73388079      -0.00030301       0.00114062       0.00065888
Si      12.30246357      15.03634436       4.10082119       0.00480316      -0.00197396      -0.00713681
Si       2.73388079       2.73388079       5.46776159       0.00031284       0.00031284       0.00086352
Si       4.10082119       4.10082119       6.83470198      -0.00024427      -0.00024427       0.00023012
Si       5.46776159       5.46776159       5.46776159       0.00017340       0.00017340       0.00025291
Si       6.83470198       6.83470198       6.83470198      -0.00000025      -0.00000025      -0.00000019
Si       8.20164238       8.20164238       5.46776159       0.00000328       0.00000328      -0.00001849
Si       9.56858277       9.56858277       6.83470198       0.00000025       0.00000025      -0.00000419
Si      10.93552317      10.93552317       5.46776159      -0.00017668      -0.00017668       0.00023442
Si      12.30246357      12.30246357       6.83470198       0.00024427       0.00024427       0.00023017
Si      13.66940396      13.66940396       5.46776159      -0.00031284      -0.00031284       0.00086352
Si      15.03634436      15.03634436       6.83470198       0.00000000       0.00000000       0.00050262
Si       5.46776159       2.73388079       8.20164238       0.00005176       0.00000146       0.00000918
Si       6.83470198       4.10082119       9.56858277      -0.00000957       0.00002340       0.00000865
Si       8.20164238       5.46776159       8.20164238       0.00000001       0.00000343       0.00000001
Si       9.56858277       6.83470198       9.56858277      -0.00000025       0.00000023      -0.00000019
Si      10.93552317       8.20164238       8.20164238       0.00000000      -0.00000000      -0.00000000
Si      12.30246357       9.56858277       9.56858277       0.00000004       0.00000024      -0.00000024
Si      13.66940396      10.93552317       8.20164238       0.00000339      -0.00002788       0.00001973
Si      15.03634436      12.30246357       9.56858277      -0.00004747       0.00003056      -0.00005387
Si      16.40328476      13.66940396       8.20164238      -0.00003159      -0.00000057       0.00027326
Si      17.77022515      15.03634436       9.56858277      -0.00001124       0.00001405       0.00002067
Si       8.20164238       2.73388079      10.93552317       0.00006800      -0.00004574       0.00004519
Si       9.56858277       4.10082119      12.30246357       0.00038510      -0.00002551      -0.00008383
Si      10.93552317       5.46776159      10.93552317       0.00017260      -0.00017615       0.00025603
Si      12.30246357       6.83470198      12.30246357       0.00000426      -0.00037557      -0.00007558
Si      13.66940396       8.20164238      10.93552317       0.00002754      -0.00003103      -0.00000247
Si      15.03634436       9.56858277      12.30246357       0.00003053       0.00001082      -0.00001632
Si      16.40328476      10.93552317      10.93552317       0.00002168      -0.00003659       0.00004736
Si      17.77022515      12.30246357      12.30246357       0.00023298      -0.00000307      -0.00007918
Si      19.13716555      13.66940396      10.93552317      -0.00036791       0.00036759      -0.00118065
Si      20.50410595      15.03634436      12.30246357      -0.00001729      -0.00024226      -0.00008724
Si      10.93552317       2.73388079      13.66940396       0.00025815       0.00118632       0.00057095
Si      12.30246357       4.10082119      15.03634436      -0.00192921       0.00192901       0.00990472
Si      13.66940396       5.46776159      13.66940396      -0.00115767      -0.00023570       0.00057320
Si      15.03634436       6.83470198      15.03634436       0.00000031       0.00002502       0.00026902
Si      16.40328476       8.20164238      13.66940396       0.00000974       0.00000289       0.00004553
Si      17.77022515       9.56858277      15.03634436      -0.00016430      -0.00001257       0.00024818
Si      19.13716555      10.93552317      13.66940396       0.00107773       0.00041951      -0.00120678
Si      20.50410595      12.30246357      15.03634436      -0.00033116       0.00036452       0.00020351
Si      21.87104634      13.66940396      13.66940396      -0.00044478      -0.00111618      -0.00115900
Si      23.23798674      15.03634436      15.03634436      -0.00003636       0.00015474       0.00050819
Si      -0.00000000       5.46776159       5.46776159      -0.00059206      -0.00090518      -0.00095074
Si       1.36694040       6.83470198       6.83470198      -0.00038687       0.00015907       0.00016336
Si       2.73388079       8.20164238       5.46776159      -0.00000858       0.00005266      -0.00000470
Si       4.10082119       9.56858277       6.83470198       0.00002038       0.00000905      -0.00000830
Si       5.46776159      10.93552317       5.46776159       0.00000037      -0.00000005      -0.00000029
Si       6.83470198      12.30246357       6.83470198       0.00000023      -0.00000003      -0.00000024
Si       8.20164238      13.66940396       5.46776159      -0.00002860      -0.00002283      -0.00000253
Si       9.56858277      15.03634436       6.83470198      -0.00016410      -0.00000905       0.00023087
Si      10.93552317      16.40328476       5.46776159       0.00105378       0.00045048      -0.00120924
Si      12.30246357      17.77022515       6.83470198      -0.00035929       0.00073060       0.00011869
Si       2.73388079       5.46776159       8.20164238       0.00000146       0.00005176       0.00000918
Si       4.10082119       6.83470198       9.56858277       0.00002340      -0.00000957       0.00000865
Si       5.46776159       8.20164238       8.20164238       0.00000343       0.00000001       0.00000001
Si       6.83470198       9.56858277       9.56858277       0.00000023      -0.00000025      -0.00000019
Si       8.20164238      10.93552317       8.20164238      -0.00000000       0.00000000      -0.00000000
Si       9.56858277      12.30246357       9.56858277       0.00000024       0.00000004      -0.00000024
Si      10.93552317      13.66940396       8.20164238      -0.00002788       0.00000339       0.00001973
Si      12.30246357      15.03634436       9.56858277       0.00003056      -0.00004747      -0.00005387
Si      13.66940396      16.40328476       8.20164238      -0.00000057      -0.00003159       0.00027326
Si      15.03634436      17.77022515       9.56858277       0.00001405      -0.00001124       0.00002067
Si       5.46776159       5.46776159      10.93552317      -0.00000005      -0.00000005      -0.00000000
Si       6.83470198       6.83470198      12.30246357       0.00000000       0.00000000      -0.00000004
Si       8.20164238       8.20164238      10.93552317      -0.00000000      -0.00000000       0.00000000
Si       9.56858277       9.56858277      12.30246357      -0.00000000      -0.00000000      -0.00000437
Si      10.93552317      10.93552317      10.93552317       0.00000000       0.00000000      -0.00000000
Si      12.30246357      12.30246357      12.30246357      -0.00000000      -0.00000000      -0.00000000
Si      13.66940396      13.66940396      10.93552317       0.00000333       0.00000333      -0.00001849
Si      15.03634436      15.03634436      12.30246357       0.00000003       0.00000003      -0.00000404
Si      16.40328476      16.40328476      10.93552317      -0.00000328      -0.00000328      -0.00001880
Si      17.77022515      17.77022515      12.30246357      -0.00000003      -0.00000003      -0.00000004
Si       8.20164238       5.46776159      13.66940396      -0.00000834      -0.00002418      -0.00001093
Si       9.56858277       6.83470198      15.03634436      -0.00001323      -0.00003029       0.00002293
Si      10.93552317       8.20164238      13.66940396       0.00002757       0.00000459      -0.00002999
Si      12.30246357       9.56858277      15.03634436       0.00001098       0.00004665      -0.00005160
Si      13.66940396      10.93552317      13.66940396       0.00000031       0.00000349      -0.00000037
Si      15.03634436      12.30246357      15.03634436       0.00000022       0.00000002      -0.00000026
Si      16.40328476      13.66940396      13.66940396       0.00000046      -0.00000024      -0.00000046
Si      17.77022515      15.03634436      15.03634436       0.00000020      -0.00000019      -0.00000015
Si      19.13716555      16.40328476      13.66940396      -0.00000319      -0.00000047      -0.00000045
Si      20.50410595      17.77022515      15.03634436      -0.00002346       0.00000911       0.00000863
Si      10.93552317       5.46776159      16.40328476      -0.00035730       0.00039952      -0.00116107
Si      12.30246357       6.83470198      17.77022515       0.00020233      -0.00043224       0.00014030
Si      13.66940396       8.20164238      16.40328476       0.00000498      -0.00003197       0.00006694
Si      15.03634436       9.56858277      17.77022515      -0.00013448      -0.00003517       0.00022608
Si      16.40328476      10.93552317      16.40328476       0.00000016      -0.00000342      -0.00000018
Si      17.77022515      12.30246357      17.77022515       0.00000026       0.00000004      -0.00000021
Si      19.13716555      13.66940396      16.40328476       0.00000397      -0.00000043      -0.00000027
Si      20.50410595      15.03634436      17.77022515       0.00002121      -0.00000979      -0.00000847
Si      21.87104634      16.40328476      16.40328476       0.00002162      -0.00003714       0.00004748
Si      23.23798674      17.77022515      17.77022515       0.00024690       0.00014094       0.00015515
Si      -0.00000000       8.20164238       8.20164238      -0.00023582      -0.00115784       0.00057303
Si       1.36694040       9.56858277       9.56858277       0.00003898       0.00014409       0.00050359
Si       2.73388079      10.93552317       8.20164238       0.00003558       0.00007037       0.00006707
Si       4.10082119      12.30246357       9.56858277       0.00017539      -0.00020875       0.00022873
Si       5.46776159      13.66940396       8.20164238      -0.00003192      -0.00001030       0.00001929
Si       6.83470198      15.03634436       9.56858277      -0.00013452       0.00000995       0.00024358
Si       8.20164238      16.40328476       8.20164238      -0.00003822      -0.00002522       0.00004761
Si       9.56858277      17.77022515       9.56858277       0.00000018      -0.00002502       0.00026904
Si      10.93552317      19.13716555       8.20164238       0.00115811       0.00023526       0.00057293
Si      12.30246357      20.50410595       9.56858277       0.00192921      -0.00192950       0.00990474
Si       2.73388079       8.20164238      10.93552317      -0.00004574       0.00006800       0.00004519
Si       4.10082119       9.56858277      12.30246357      -0.00002551       0.00038510      -0.00008383
Si       5.46776159      10.93552317      10.93552317      -0.00017615       0.00017260       0.00025603
Si       6.83470198      12.30246357      12.30246357      -0.00037557       0.00000426      -0.00007558
Si       8.20164238      13.66940396      10.93552317      -0.00003103       0.00002754      -0.00000247
Si       9.56858277      15.03634436      12.30246357       0.00001082       0.00003053      -0.00001632
Si      10.93552317      16.40328476      10.93552317      -0.00003659       0.00002168       0.00004736
Si      12.30246357      17.77022515      12.30246357      -0.00000307       0.00023298      -0.00007918
Si      13.66940396      19.13716555      10.93552317       0.00036759      -0.00036791      -0.00118065
Si      15.03634436      20.50410595      12.30246357      -0.00024226      -0.00001729      -0.00008724
Si       5.46776159       8.20164238      13.66940396      -0.00002418      -0.00000834      -0.00001093
Si       6.83470198       9.56858277      15.03634436      -0.00003029      -0.00001323       0.00002293
Si       8.20164238      10.93552317      13.66940396       0.00000459       0.00002757      -0.00002999
Si       9.56858277      12.30246357      15.03634436       0.00004665       0.00001098      -0.00005160
Si      10.93552317      13.66940396      13.66940396       0.00000349       0.00000031      -0.00000037
Si      12.30246357      15.03634436      15.03634436       0.00000002       0.00000022      -0.00000026
Si      13.66940396      16.40328476      13.66940396      -0.00000024       0.00000046      -0.00000046
Si      15.03634436      17.77022515      15.03634436      -0.00000019       0.00000020      -0.00000015
Si      16.40328476      19.13716555      13.66940396      -0.00000047      -0.00000319      -0.00000045
Si      17.77022515      20.50410595      15.03634436       0.00000911      -0.00002346       0.00000863
Si       8.20164238       8.20164238      16.40328476      -0.00002378      -0.00002378       0.00029762
Si       9.56858277       9.56858277      17.77022515      -0.00000003      -0.00000003       0.00048699
Si      10.93552317      10.93552317      16.40328476       0.00002373       0.00002373       0.00029794
Si      12.30246357      12.30246357      17.77022515      -0.00038487      -0.00038487       0.00025600
Si      13.66940396      13.66940396      16.40328476       0.00000058       0.00000058      -0.00000030
Si      15.03634436      15.03634436      17.77022515       0.00000031       0.00000031      -0.00000456
Si      16.40328476      16.40328476      16.40328476      -0.00000000      -0.00000000      -0.00000000
Si      17.77022515      17.77022515      17.77022515      -0.00000031      -0.00000031      -0.00000023
Si      19.13716555      19.13716555      16.40328476      -0.00000053      -0.00000053      -0.00000030
Si      20.50410595      20.50410595      17.77022515       0.00038490       0.00038490       0.00025596
Si      10.93552317       8.20164238      19.13716555      -0.00021331       0.00021309       0.00104728
Si      12.30246357       9.56858277      20.50410595       0.00498582       0.00204667      -0.00733903
Si      13.66940396      10.93552317      19.13716555       0.00111355      -0.00038052      -0.00122051
Si      15.03634436      12.30246357      20.50410595       0.00018954      -0.00002130      -0.00013702
Si      16.40328476      13.66940396      19.13716555       0.00000425      -0.00000343      -0.00002002
Si      17.77022515      15.03634436      20.50410595       0.00002034       0.00002318      -0.00006054
Si      19.13716555      16.40328476      19.13716555       0.00000004      -0.00000050      -0.00000096
Si      20.50410595      17.77022515      20.50410595       0.00000122      -0.00021272      -0.00007679
Si      21.87104634      19.13716555      19.13716555       0.00038068      -0.00111385      -0.00122058
Si      23.23798674      20.50410595      20.50410595      -0.00204670      -0.00498604      -0.00733892
Si      -0.00000000      10.93552317      10.93552317       0.00067642      -0.00222632      -0.00058092
Si       1.36694040      12.30246357      12.30246357      -0.00168259      -0.00499232      -0.00741895
Si       2.73388079      13.66940396      10.93552317      -0.00022218       0.00023616       0.00103749
Si       4.10082119      15.03634436      12.30246357       0.00498585       0.00204689      -0.00733881
Si       5.46776159      16.40328476      10.93552317       0.00109100      -0.00037159      -0.00123036
Si       6.83470198      17.77022515      12.30246357       0.00021923      -0.00036530      -0.00015671
Si       8.20164238      19.13716555      10.93552317       0.00111330      -0.00029593       0.00063859
Si       9.56858277      20.50410595      12.30246357      -0.00197369       0.00480315      -0.00713661
Si      10.93552317      21.87104634      10.93552317      -0.06196854       0.06196772      -0.09228946
Si      12.30246357      23.23798674      12.30246357      -0.00480219       0.00176096      -0.00721310
Si       2.73388079      10.93552317      13.66940396       0.00118632       0.00025815       0.00057095
Si       4.10082119      12.30246357      15.03634436       0.00192901      -0.00192921       0.00990472
Si       5.46776159      13.66940396      13.66940396      -0.00023570      -0.00115767       0.00057320
Si       6.83470198      15.03634436      15.03634436       0.00002502       0.00000031       0.00026902
Si       8.20164238      16.40328476      13.66940396       0.00000289       0.00000974       0.00004553
Si       9.56858277      17.77022515      15.03634436      -0.00001257      -0.00016430       0.00024818
Si      10.93552317      19.13716555      13.66940396       0.00041951       0.00107773      -0.00120678
Si      12.30246357      20.50410595      15.03634436       0.00036452      -0.00033116       0.00020351
Si      13.66940396      21.87104634      13.66940396      -0.00111618      -0.00044478      -0.00115900
Si      15.03634436      23.23798674      15.03634436       0.00015474      -0.00003636       0.00050819
Si       5.46776159      10.93552317      16.40328476       0.00039952      -0.00035730      -0.00116107
Si       6.83470198      12.30246357      17.77022515      -0.00043224       0.00020233       0.00014030
Si       8.20164238      13.66940396      16.40328476      -0.00003197       0.00000498       0.00006694
Si       9.56858277      15.03634436      17.77022515      -0.00003517      -0.00013448       0.00022608
Si      10.93552317      16.40328476      16.40328476      -0.00000342       0.00000016      -0.00000018
Si      12.30246357      17.77022515      17.77022515       0.00000004       0.00000026      -0.00000021
Si      13.66940396      19.13716555      16.40328476      -0.00000043       0.00000397      -0.00000027
Si      15.03634436      20.50410595      17.77022515      -0.00000979       0.00002121      -0.00000847
Si      16.40328476      21.87104634      16.40328476      -0.00003714       0.00002162       0.00004748
Si      17.77022515      23.23798674      17.77022515       0.00014094       0.00024690       0.00015515
Si       8.20164238      10.93552317      19.13716555       0.00021309      -0.00021331       0.00104728
Si       9.56858277      12.30246357      20.50410595       0.00204667       0.00498582      -0.00733903
Si      10.93552317      13.66940396      19.13716555      -0.00038052       0.00111355      -0.00122051
Si      12.30246357      15.03634436      20.50410595      -0.00002130       0.00018954      -0.00013702
Si      13.66940396      16.40328476      19.13716555      -0.00000343       0.00000425      -0.00002002
Si      15.03634436      17.77022515      20.50410595       0.00002318       0.00002034      -0.00006054
Si      16.40328476      19.13716555      19.13716555      -0.00000050       0.00000004      -0.00000096
Si      17.77022515      20.50410595      20.50410595      -0.00021272       0.00000122      -0.00007679
Si      19.13716555      21.87104634      19.13716555      -0.00111385       0.00038068      -0.00122058
Si      20.50410595      23.23798674      20.50410595      -0.00498604      -0.00204670      -0.00733892
Si      10.93552317      10.93552317      21.87104634       0.06692039       0.06692039      -0.09495763
Si      12.30246357      12.30246357      23.23798674      -0.00171029      -0.00171029       0.01009120
Si      13.66940396      13.66940396      21.87104634      -0.00045944      -0.00045944      -0.00088641
Si      15.03634436      15.03634436      23.23798674       0.00001522       0.00001522       0.00057043
Si      16.40328476      16.40328476      21.87104634       0.00002378       0.00002378       0.00029760
Si      17.77022515      17.77022515      23.23798674      -0.00040010      -0.00040010       0.00033939
Si      19.13716555      19.13716555      21.87104634       0.00043624       0.00043624      -0.00118465
Si      20.50410595      20.50410595      23.23798674       0.00209548       0.00209548       0.00983498
Si      21.87104634      21.87104634      21.87104634      -0.06692097      -0.06692097      -0.09495733
Si      23.23798674      23.23798674      23.23798674      -0.00000031      -0.00000031       0.39179863
