2000
Lattice="-1.1597940772348478e-15 27.33880792763545 27.33880792763545 27.33880792763545 -1.1856873967159589e-15 27.33880792763545 27.33880792763545 27.33880792763545 -1.143048649177157e-15" Properties=species:S:1:pos:R:3:forces:R:3 energy=-10849.915441868043 stress="-7.547711761199206e-09 -1.9469101978268048e-16 -1.7339310011629602e-16 -1.9469101978268048e-16 -7.547711761501441e-09 -1.7367788127279698e-16 -1.7339310011629602e-16 -1.7367788127279698e-16 -7.547711856200017e-09" pbc="T T T"
Si       0.00000000       0.00000000       0.00000000       0.00000000       0.00000000      -0.00000000
Si       1.36694040       1.36694040       1.36694040       0.00000000       0.00000000      -0.00000000
Si       2.73388079       2.73388079      -0.00000000      -0.00000000      -0.00000000      -0.00000000
Si       4.10082119       4.10082119       1.36694040       0.00000000       0.00000000       0.00000000
Si       5.46776159       5.46776159      -0.00000000      -0.00000000      -0.00000000       0.00000000
Si       6.83470198       6.83470198       1.36694040       0.00000000       0.00000000      -0.00000000
Si       8.20164238       8.20164238      -0.00000000      -0.00000000      -0.00000000       0.00000000
Si       9.56858277       9.56858277       1.36694040       0.00000000       0.00000000      -0.00000000
Si      10.93552317      10.93552317      -0.00000000       0.00000000       0.00000000       0.00000000
Si      12.30246357      12.30246357       1.36694040      -0.00000000      -0.00000000       0.00000000
Si      13.66940396      13.66940396      -0.00000000       0.00000000       0.00000000       0.00000000
Si      15.03634436      15.03634436       1.36694040      -0.00000000      -0.00000000       0.00000000
Si      16.40328476      16.40328476      -0.00000000      -0.00000000      -0.00000000       0.00000000
Si      17.77022515      17.77022515       1.36694040       0.00000000       0.00000000      -0.00000000
Si      19.13716555      19.13716555      -0.00000000      -0.00000000      -0.00000000       0.00000000
Si      20.50410595      20.50410595       1.36694040       0.00000000       0.00000000      -0.00000000
Si      21.87104634      21.87104634      -0.00000000      -0.00000000      -0.00000000       0.00000000
Si      23.23798674      23.23798674       1.36694040       0.00000000       0.00000000      -0.00000000
Si      24.60492713      24.60492713      -0.00000000      -0.00000000      -0.00000000       0.00000000
Si      25.97186753      25.97186753       1.36694040      -0.00000000      -0.00000000       0.00000000
Si       2.73388079      -0.00000000       2.73388079      -0.00000000       0.00000000      -0.00000000
Si       4.10082119       1.36694040       4.10082119      -0.00000000       0.00000000      -0.00000000
Si       5.46776159       2.73388079       2.73388079      -0.00000000       0.00000000       0.00000000
Si       6.83470198       4.10082119       4.10082119       0.00000000       0.00000000       0.00000000
Si       8.20164238       5.46776159       2.73388079      -0.00000000      -0.00000000      -0.00000000
Si       9.56858277       6.83470198       4.10082119       0.00000000       0.00000000       0.00000000
Si      10.93552317       8.20164238       2.73388079      -0.00000000       0.00000000       0.00000000
Si      12.30246357       9.56858277       4.10082119      -0.00000000       0.00000000       0.00000000
Si      13.66940396      10.93552317       2.73388079      -0.00000000       0.00000000       0.00000000
Si      15.03634436      12.30246357       4.10082119       0.00000000       0.00000000       0.00000000
Si      16.40328476      13.66940396       2.73388079      -0.00000000       0.00000000       0.00000000
Si      17.77022515      15.03634436       4.10082119      -0.00000000      -0.00000000      -0.00000000
Si      19.13716555      16.40328476       2.73388079       0.00000000       0.00000000       0.00000000
Si      20.50410595      17.77022515       4.10082119      -0.00000000      -0.00000000       0.00000000
Si      21.87104634      19.13716555       2.73388079       0.00000000       0.00000000      -0.00000000
Si      23.23798674      20.50410595       4.10082119       0.00000000       0.00000000      -0.00000000
Si      24.60492713      21.87104634       2.73388079      -0.00000000      -0.00000000       0.00000000
Si      25.97186753      23.23798674       4.10082119       0.00000000       0.00000000       0.00000000
Si      27.33880793      24.60492713       2.73388079       0.00000000       0.00000000       0.00000000
Si      28.70574832      25.97186753       4.10082119      -0.00000000       0.00000000       0.00000000
Si       5.46776159      -0.00000000       5.46776159       0.00000000       0.00000000      -0.00000000
Si       6.83470198       1.36694040       6.83470198       0.00000000       0.00000000       0.00000000
Si       8.20164238       2.73388079       5.46776159      -0.00000000      -0.00000000      -0.00000000
Si       9.56858277       4.10082119       6.83470198       0.00000000       0.00000000       0.00000000
Si      10.93552317       5.46776159       5.46776159      -0.00000000      -0.00000000      -0.00000000
Si      12.30246357       6.83470198       6.83470198      -0.00000000       0.00000000       0.00000000
Si      13.66940396       8.20164238       5.46776159       0.00000000       0.00000000       0.00000000
Si      15.03634436       9.56858277       6.83470198      -0.00000000      -0.00000000      -0.00000000
Si      16.40328476      10.93552317       5.46776159      -0.00000000       0.00000000      -0.00000000
Si      17.77022515      12.30246357       6.83470198       0.00000000       0.00000000       0.00000000
Si      19.13716555      13.66940396       5.46776159      -0.00000000      -0.00000000       0.00000000
Si      20.50410595      15.03634436       6.83470198       0.00000000       0.00000000      -0.00000000
Si      21.87104634      16.40328476       5.46776159      -0.00000000      -0.00000000       0.00000000
Si      23.23798674      17.77022515       6.83470198       0.00000000      -0.00000000       0.00000000
Si      24.60492713      19.13716555       5.46776159      -0.00000000      -0.00000000       0.00000000
Si      25.97186753      20.50410595       6.83470198       0.00000000       0.00000000       0.00000000
Si      27.33880793      21.87104634       5.46776159      -0.00000000      -0.00000000       0.00000000
Si      28.70574832      23.23798674       6.83470198      -0.00000000       0.00000000      -0.00000000
Si      30.07268872      24.60492713       5.46776159      -0.00000000       0.00000000       0.00000000
Si      31.43962912      25.97186753       6.83470198       0.00000000      -0.00000000      -0.00000000
Si       8.20164238      -0.00000000       8.20164238       0.00000000       0.00000000      -0.00000000
Si       9.56858277       1.36694040       9.56858277      -0.00000000       0.00000000      -0.00000000
Si      10.93552317       2.73388079       8.20164238      -0.00000000       0.00000000       0.00000000
Si      12.30246357       4.10082119       9.56858277      -0.00000000      -0.00000000      -0.00000000
Si      13.66940396       5.46776159       8.20164238       0.00000000       0.00000000       0.00000000
Si      15.03634436       6.83470198       9.56858277      -0.00000000       0.00000000      -0.00000000
Si      16.40328476       8.20164238       8.20164238      -0.00000000       0.00000000       0.00000000
Si      17.77022515       9.56858277       9.56858277       0.00000000       0.00000000      -0.00000000
Si      19.13716555      10.93552317       8.20164238      -0.00000000      -0.00000000       0.00000000
Si      20.50410595      12.30246357       9.56858277       0.00000000      -0.00000000      -0.00000000
Si      21.87104634      13.66940396       8.20164238      -0.00000000       0.00000000      -0.00000000
Si      23.23798674      15.03634436       9.56858277       0.00000000       0.00000000       0.00000000
Si      24.60492713      16.40328476       8.20164238      -0.00000000      -0.00000000       0.00000000
Si      25.97186753      17.77022515       9.56858277      -0.00000000      -0.00000000      -0.00000000
Si      27.33880793      19.13716555       8.20164238      -0.00000000      -0.00000000      -0.00000000
Si      28.70574832      20.50410595       9.56858277       0.00000000       0.00000000      -0.00000000
Si      30.07268872      21.87104634       8.20164238      -0.00000000      -0.00000000       0.00000000
Si      31.43962912      23.23798674       9.56858277       0.00000000       0.00000000       0.00000000
Si      32.80656951      24.60492713       8.20164238      -0.00000000      -0.00000000       0.00000000
Si      34.17350991      25.97186753       9.56858277      -0.00000000       0.00000000       0.00000000
Si      10.93552317      -0.00000000      10.93552317       0.00000000       0.00000000      -0.00000000
Si      12.30246357       1.36694040      12.30246357      -0.00000000       0.00000000      -0.00000000
Si      13.66940396       2.73388079      10.93552317       0.00000000       0.00000000       0.00000000
Si      15.03634436       4.10082119      12.30246357      -0.00000000       0.00000000      -0.00000000
Si      16.40328476       5.46776159      10.93552317      -0.00000000      -0.00000000       0.00000000
Si      17.77022515       6.83470198      12.30246357       0.00000000      -0.00000000      -0.00000000
Si      19.13716555       8.20164238      10.93552317      -0.00000000      -0.00000000       0.00000000
Si      20.50410595       9.56858277      12.30246357       0.00000000       0.00000000      -0.00000000
Si      21.87104634      10.93552317      10.93552317      -0.00000000       0.00000000       0.00000000
Si      23.23798674      12.30246357      12.30246357      -0.00000000       0.00000000      -0.00000000
Si      24.60492713      13.66940396      10.93552317      -0.00000000       0.00000000       0.00000000
Si      25.97186753      15.03634436      12.30246357      -0.00000000       0.00000000      -0.00000000
Si      27.33880793      16.40328476      10.93552317      -0.00000000       0.00000000       0.00000000
Si      28.70574832      17.77022515      12.30246357      -0.00000000      -0.00000000      -0.00000000
Si      30.07268872      19.13716555      10.93552317      -0.00000000       0.00000000       0.00000000
Si      31.43962912      20.50410595      12.30246357       0.00000000       0.00000000      -0.00000000
Si      32.80656951      21.87104634      10.93552317      -0.00000000       0.00000000       0.00000000
Si      34.17350991      23.23798674      12.30246357       0.00000000       0.00000000      -0.00000000
Si      35.54045031      24.60492713      10.93552317      -0.00000000       0.00000000       0.00000000
Si      36.90739070      25.97186753      12.30246357      -0.00000000      -0.00000000       0.00000000
Si      13.66940396      -0.00000000      13.66940396       0.00000000       0.00000000       0.00000000
Si      15.03634436       1.36694040      15.03634436      -0.00000000       0.00000000      -0.00000000
Si      16.40328476       2.73388079      13.66940396       0.00000000      -0.00000000       0.00000000
Si      17.77022515       4.10082119      15.03634436      -0.00000000      -0.00000000      -0.00000000
Si      19.13716555       5.46776159      13.66940396      -0.00000000       0.00000000       0.00000000
Si      20.50410595       6.83470198      15.03634436       0.00000000       0.00000000       0.00000000
Si      21.87104634       8.20164238      13.66940396      -0.00000000      -0.00000000       0.00000000
Si      23.23798674       9.56858277      15.03634436       0.00000000       0.00000000      -0.00000000
Si      24.60492713      10.93552317      13.66940396      -0.00000000      -0.00000000       0.00000000
Si      25.97186753      12.30246357      15.03634436       0.00000000      -0.00000000      -0.00000000
Si      27.33880793      13.66940396      13.66940396       0.00000000       0.00000000       0.00000000
Si      28.70574832      15.03634436      15.03634436      -0.00000000       0.00000000      -0.00000000
Si      30.07268872      16.40328476      13.66940396      -0.00000000      -0.00000000       0.00000000
Si      31.43962912      17.77022515      15.03634436       0.00000000       0.00000000       0.00000000
Si      32.80656951      19.13716555      13.66940396      -0.00000000      -0.00000000       0.00000000
Si      34.17350991      20.50410595      15.03634436       0.00000000       0.00000000      -0.00000000
Si      35.54045031      21.87104634      13.66940396      -0.00000000      -0.00000000       0.00000000
Si      36.90739070      23.23798674      15.03634436      -0.00000000       0.00000000       0.00000000
Si      38.27433110      24.60492713      13.66940396       0.00000000       0.00000000       0.00000000
Si      39.64127150      25.97186753      15.03634436       0.00000000      -0.00000000       0.00000000
Si      16.40328476      -0.00000000      16.40328476      -0.00000000      -0.00000000      -0.00000000
Si      17.77022515       1.36694040      17.77022515       0.00000000       0.00000000      -0.00000000
Si      19.13716555       2.73388079      16.40328476       0.00000000       0.00000000       0.00000000
Si      20.50410595       4.10082119      17.77022515      -0.00000000      -0.00000000      -0.00000000
Si      21.87104634       5.46776159      16.40328476      -0.00000000       0.00000000      -0.00000000
Si      23.23798674       6.83470198      17.77022515      -0.00000000       0.00000000      -0.00000000
Si      24.60492713       8.20164238      16.40328476      -0.00000000      -0.00000000       0.00000000
Si      25.97186753       9.56858277      17.77022515      -0.00000000       0.00000000       0.00000000
Si      27.33880793      10.93552317      16.40328476       0.00000000       0.00000000      -0.00000000
Si      28.70574832      12.30246357      17.77022515      -0.00000000       0.00000000      -0.00000000
Si      30.07268872      13.66940396      16.40328476      -0.00000000      -0.00000000       0.00000000
Si      31.43962912      15.03634436      17.77022515       0.00000000      -0.00000000      -0.00000000
Si      32.80656951      16.40328476      16.40328476      -0.00000000       0.00000000       0.00000000
Si      34.17350991      17.77022515      17.77022515      -0.00000000       0.00000000      -0.00000000
Si      35.54045031      19.13716555      16.40328476       0.00000000      -0.00000000      -0.00000000
Si      36.90739070      20.50410595      17.77022515      -0.00000000       0.00000000      -0.00000000
Si      38.27433110      21.87104634      16.40328476       0.00000000      -0.00000000       0.00000000
Si      39.64127150      23.23798674      17.77022515      -0.00000000       0.00000000      -0.00000000
Si      41.00821189      24.60492713      16.40328476      -0.00000000       0.00000000       0.00000000
Si      42.37515229      25.97186753      17.77022515      -0.00000000       0.00000000       0.00000000
Si      19.13716555      -0.00000000      19.13716555      -0.00000000       0.00000000      -0.00000000
Si      20.50410595       1.36694040      20.50410595       0.00000000       0.00000000       0.00000000
Si      21.87104634       2.73388079      19.13716555      -0.00000000      -0.00000000      -0.00000000
Si      23.23798674       4.10082119      20.50410595       0.00000000      -0.00000000       0.00000000
Si      24.60492713       5.46776159      19.13716555      -0.00000000      -0.00000000      -0.00000000
Si      25.97186753       6.83470198      20.50410595       0.00000000      -0.00000000       0.00000000
Si      27.33880793       8.20164238      19.13716555      -0.00000000      -0.00000000      -0.00000000
Si      28.70574832       9.56858277      20.50410595       0.00000000      -0.00000000       0.00000000
Si      30.07268872      10.93552317      19.13716555      -0.00000000       0.00000000       0.00000000
Si      31.43962912      12.30246357      20.50410595       0.00000000      -0.00000000       0.00000000
Si      32.80656951      13.66940396      19.13716555      -0.00000000       0.00000000      -0.00000000
Si      34.17350991      15.03634436      20.50410595       0.00000000      -0.00000000       0.00000000
Si      35.54045031      16.40328476      19.13716555      -0.00000000      -0.00000000      -0.00000000
Si      36.90739070      17.77022515      20.50410595      -0.00000000       0.00000000       0.00000000
Si      38.27433110      19.13716555      19.13716555      -0.00000000      -0.00000000      -0.00000000
Si      39.64127150      20.50410595      20.50410595       0.00000000       0.00000000       0.00000000
Si      41.00821189      21.87104634      19.13716555      -0.00000000      -0.00000000       0.00000000
Si      42.37515229      23.23798674      20.50410595       0.00000000      -0.00000000       0.00000000
Si      43.74209268      24.60492713      19.13716555      -0.00000000      -0.00000000       0.00000000
Si      45.10903308      25.97186753      20.50410595       0.00000000      -0.00000000       0.00000000
Si      21.87104634      -0.00000000      21.87104634      -0.00000000       0.00000000      -0.00000000
Si      23.23798674       1.36694040      23.23798674       0.00000000       0.00000000       0.00000000
Si      24.60492713       2.73388079      21.87104634      -0.00000000       0.00000000      -0.00000000
Si      25.97186753       4.10082119      23.23798674      -0.00000000      -0.00000000       0.00000000
Si      27.33880793       5.46776159      21.87104634      -0.00000000       0.00000000      -0.00000000
Si      28.70574832       6.83470198      23.23798674       0.00000000       0.00000000       0.00000000
Si      30.07268872       8.20164238      21.87104634      -0.00000000       0.00000000       0.00000000
Si      31.43962912       9.56858277      23.23798674      -0.00000000      -0.00000000       0.00000000
Si      32.80656951      10.93552317      21.87104634      -0.00000000       0.00000000      -0.00000000
Si      34.17350991      12.30246357      23.23798674       0.00000000       0.00000000       0.00000000
Si      35.54045031      13.66940396      21.87104634      -0.00000000       0.00000000      -0.00000000
Si      36.90739070      15.03634436      23.23798674       0.00000000       0.00000000       0.00000000
Si      38.27433110      16.40328476      21.87104634       0.00000000       0.00000000       0.00000000
Si      39.64127150      17.77022515      23.23798674      -0.00000000      -0.00000000       0.00000000
Si      41.00821189      19.13716555      21.87104634      -0.00000000       0.00000000      -0.00000000
Si      42.37515229      20.50410595      23.23798674       0.00000000       0.00000000      -0.00000000
Si      43.74209268      21.87104634      21.87104634      -0.00000000      -0.00000000       0.00000000
Si      45.10903308      23.23798674      23.23798674       0.00000000       0.00000000       0.00000000
Si      46.47597348      24.60492713      21.87104634      -0.00000000      -0.00000000      -0.00000000
Si      47.84291387      25.97186753      23.23798674       0.00000000       0.00000000       0.00000000
Si      24.60492713      -0.00000000      24.60492713      -0.00000000       0.00000000      -0.00000000
Si      25.97186753       1.36694040      25.97186753       0.00000000       0.00000000       0.00000000
Si      27.33880793       2.73388079      24.60492713      -0.00000000      -0.00000000      -0.00000000
Si      28.70574832       4.10082119      25.97186753       0.00000000       0.00000000       0.00000000
Si      30.07268872       5.46776159      24.60492713      -0.00000000       0.00000000       0.00000000
Si      31.43962912       6.83470198      25.97186753      -0.00000000       0.00000000      -0.00000000
Si      32.80656951       8.20164238      24.60492713      -0.00000000       0.00000000      -0.00000000
Si      34.17350991       9.56858277      25.97186753      -0.00000000      -0.00000000       0.00000000
Si      35.54045031      10.93552317      24.60492713       0.00000000       0.00000000      -0.00000000
Si      36.90739070      12.30246357      25.97186753      -0.00000000       0.00000000       0.00000000
Si      38.27433110      13.66940396      24.60492713      -0.00000000       0.00000000      -0.00000000
Si      39.64127150      15.03634436      25.97186753       0.00000000       0.00000000      -0.00000000
Si      41.00821189      16.40328476      24.60492713      -0.00000000      -0.00000000       0.00000000
Si      42.37515229      17.77022515      25.97186753      -0.00000000      -0.00000000       0.00000000
Si      43.74209268      19.13716555      24.60492713       0.00000000       0.00000000      -0.00000000
Si      45.10903308      20.50410595      25.97186753      -0.00000000       0.00000000       0.00000000
Si      46.47597348      21.87104634      24.60492713       0.00000000       0.00000000      -0.00000000
Si      47.84291387      23.23798674      25.97186753      -0.00000000       0.00000000      -0.00000000
Si      49.20985427      24.60492713      24.60492713      -0.00000000      -0.00000000      -0.00000000
Si      50.57679467      25.97186753      25.97186753      -0.00000000       0.00000000       0.00000000
Si      -0.00000000       2.73388079       2.73388079       0.00000000      -0.00000000      -0.00000000
Si       1.36694040       4.10082119       4.10082119       0.00000000      -0.00000000      -0.00000000
Si       2.73388079       5.46776159       2.73388079       0.00000000      -0.00000000       0.00000000
Si       4.10082119       6.83470198       4.10082119       0.00000000       0.00000000       0.00000000
Si       5.46776159       8.20164238       2.73388079      -0.00000000      -0.00000000      -0.00000000
Si       6.83470198       9.56858277       4.10082119       0.00000000       0.00000000       0.00000000
Si       8.20164238      10.93552317       2.73388079       0.00000000      -0.00000000       0.00000000
Si       9.56858277      12.30246357       4.10082119       0.00000000      -0.00000000       0.00000000
Si      10.93552317      13.66940396       2.73388079       0.00000000      -0.00000000       0.00000000
Si      12.30246357      15.03634436       4.10082119       0.00000000       0.00000000       0.00000000
Si      13.66940396      16.40328476       2.73388079       0.00000000      -0.00000000       0.00000000
Si      15.03634436      17.77022515       4.10082119      -0.00000000      -0.00000000      -0.00000000
Si      16.40328476      19.13716555       2.73388079       0.00000000       0.00000000       0.00000000
Si      17.77022515      20.50410595       4.10082119      -0.00000000      -0.00000000       0.00000000
Si      19.13716555      21.87104634       2.73388079       0.00000000       0.00000000      -0.00000000
Si      20.50410595      23.23798674       4.10082119       0.00000000       0.00000000      -0.00000000
Si      21.87104634      24.60492713       2.73388079      -0.00000000      -0.00000000       0.00000000
Si      23.23798674      25.97186753       4.10082119       0.00000000       0.00000000       0.00000000
Si      24.60492713      27.33880793       2.73388079       0.00000000       0.00000000       0.00000000
Si      25.97186753      28.70574832       4.10082119       0.00000000      -0.00000000       0.00000000
Si       2.73388079       2.73388079       5.46776159       0.00000000       0.00000000      -0.00000000
Si       4.10082119       4.10082119       6.83470198      -0.00000000      -0.00000000       0.00000000
Si       5.46776159       5.46776159       5.46776159      -0.00000000      -0.00000000       0.00000000
Si       6.83470198       6.83470198       6.83470198       0.00000000       0.00000000       0.00000000
Si       8.20164238       8.20164238       5.46776159      -0.00000000      -0.00000000       0.00000000
Si       9.56858277       9.56858277       6.83470198       0.00000000       0.00000000       0.00000000
Si      10.93552317      10.93552317       5.46776159       0.00000000       0.00000000      -0.00000000
Si      12.30246357      12.30246357       6.83470198      -0.00000000      -0.00000000       0.00000000
Si      13.66940396      13.66940396       5.46776159       0.00000000       0.00000000       0.00000000
Si      15.03634436      15.03634436       6.83470198       0.00000000       0.00000000       0.00000000
Si      16.40328476      16.40328476       5.46776159      -0.00000000      -0.00000000      -0.00000000
Si      17.77022515      17.77022515       6.83470198       0.00000000       0.00000000       0.00000000
Si      19.13716555      19.13716555       5.46776159       0.00000000       0.00000000       0.00000000
Si      20.50410595      20.50410595       6.83470198      -0.00000000      -0.00000000       0.00000000
Si      21.87104634      21.87104634       5.46776159      -0.00000000      -0.00000000      -0.00000000
Si      23.23798674      23.23798674       6.83470198       0.00000000       0.00000000       0.00000000
Si      24.60492713      24.60492713       5.46776159      -0.00000000      -0.00000000       0.00000000
Si      25.97186753      25.97186753       6.83470198       0.00000000       0.00000000      -0.00000000
Si      27.33880793      27.33880793       5.46776159      -0.00000000      -0.00000000       0.00000000
Si      28.70574832      28.70574832       6.83470198       0.00000000       0.00000000       0.00000000
Si       5.46776159       2.73388079       8.20164238       0.00000000       0.00000000      -0.00000000
Si       6.83470198       4.10082119       9.56858277      -0.00000000      -0.00000000       0.00000000
Si       8.20164238       5.46776159       8.20164238      -0.00000000       0.00000000      -0.00000000
Si       9.56858277       6.83470198       9.56858277       0.00000000       0.00000000       0.00000000
Si      10.93552317       8.20164238       8.20164238       0.00000000      -0.00000000      -0.00000000
Si      12.30246357       9.56858277       9.56858277      -0.00000000       0.00000000       0.00000000
Si      13.66940396      10.93552317       8.20164238       0.00000000       0.00000000      -0.00000000
Si      15.03634436      12.30246357       9.56858277       0.00000000       0.00000000      -0.00000000
Si      16.40328476      13.66940396       8.20164238      -0.00000000       0.00000000       0.00000000
Si      17.77022515      15.03634436       9.56858277      -0.00000000      -0.00000000      -0.00000000
Si      19.13716555      16.40328476       8.20164238      -0.00000000      -0.00000000      -0.00000000
Si      20.50410595      17.77022515       9.56858277       0.00000000      -0.00000000      -0.00000000
Si      21.87104634      19.13716555       8.20164238      -0.00000000       0.00000000      -0.00000000
Si      23.23798674      20.50410595       9.56858277      -0.00000000       0.00000000       0.00000000
Si      24.60492713      21.87104634       8.20164238       0.00000000      -0.00000000      -0.00000000
Si      25.97186753      23.23798674       9.56858277       0.00000000       0.00000000      -0.00000000
Si      27.33880793      24.60492713       8.20164238      -0.00000000      -0.00000000       0.00000000
Si      28.70574832      25.97186753       9.56858277       0.00000000       0.00000000      -0.00000000
Si      30.07268872      27.33880793       8.20164238      -0.00000000       0.00000000       0.00000000
Si      31.43962912      28.70574832       9.56858277       0.00000000      -0.00000000       0.00000000
Si       8.20164238       2.73388079      10.93552317      -0.00000000       0.00000000      -0.00000000
Si       9.56858277       4.10082119      12.30246357      -0.00000000       0.00000000      -0.00000000
Si      10.93552317       5.46776159      10.93552317       0.00000000       0.00000000       0.00000000
Si      12.30246357       6.83470198      12.30246357      -0.00000000       0.00000000      -0.00000000
Si      13.66940396       8.20164238      10.93552317       0.00000000      -0.00000000       0.00000000
Si      15.03634436       9.56858277      12.30246357      -0.00000000      -0.00000000      -0.00000000
Si      16.40328476      10.93552317      10.93552317      -0.00000000       0.00000000       0.00000000
Si      17.77022515      12.30246357      12.30246357      -0.00000000      -0.00000000      -0.00000000
Si      19.13716555      13.66940396      10.93552317      -0.00000000       0.00000000      -0.00000000
Si      20.50410595      15.03634436      12.30246357       0.00000000       0.00000000      -0.00000000
Si      21.87104634      16.40328476      10.93552317      -0.00000000      -0.00000000       0.00000000
Si      23.23798674      17.77022515      12.30246357       0.00000000      -0.00000000      -0.00000000
Si      24.60492713      19.13716555      10.93552317      -0.00000000       0.00000000       0.00000000
Si      25.97186753      20.50410595      12.30246357      -0.00000000       0.00000000      -0.00000000
Si      27.33880793      21.87104634      10.93552317       0.00000000      -0.00000000      -0.00000000
Si      28.70574832      23.23798674      12.30246357       0.00000000       0.00000000      -0.00000000
Si      30.07268872      24.60492713      10.93552317      -0.00000000      -0.00000000       0.00000000
Si      31.43962912      25.97186753      12.30246357       0.00000000      -0.00000000       0.00000000
Si      32.80656951      27.33880793      10.93552317      -0.00000000      -0.00000000      -0.00000000
Si      34.17350991      28.70574832      12.30246357       0.00000000      -0.00000000       0.00000000
Si      10.93552317       2.73388079      13.66940396       0.00000000       0.00000000      -0.00000000
Si      12.30246357       4.10082119      15.03634436      -0.00000000       0.00000000      -0.00000000
Si      13.66940396       5.46776159      13.66940396       0.00000000       0.00000000       0.00000000
Si      15.03634436       6.83470198      15.03634436      -0.00000000      -0.00000000      -0.00000000
Si      16.40328476       8.20164238      13.66940396      -0.00000000      -0.00000000       0.00000000
Si      17.77022515       9.56858277      15.03634436       0.00000000       0.00000000      -0.00000000
Si      19.13716555      10.93552317      13.66940396      -0.00000000      -0.00000000       0.00000000
Si      20.50410595      12.30246357      15.03634436       0.00000000      -0.00000000      -0.00000000
Si      21.87104634      13.66940396      13.66940396      -0.00000000       0.00000000       0.00000000
Si      23.23798674      15.03634436      15.03634436       0.00000000       0.00000000      -0.00000000
Si      24.60492713      16.40328476      13.66940396      -0.00000000      -0.00000000       0.00000000
Si      25.97186753      17.77022515      15.03634436      -0.00000000      -0.00000000      -0.00000000
Si      27.33880793      19.13716555      13.66940396       0.00000000       0.00000000       0.00000000
Si      28.70574832      20.50410595      15.03634436       0.00000000       0.00000000      -0.00000000
Si      30.07268872      21.87104634      13.66940396       0.00000000      -0.00000000       0.00000000
Si      31.43962912      23.23798674      15.03634436       0.00000000       0.00000000      -0.00000000
Si      32.80656951      24.60492713      13.66940396      -0.00000000      -0.00000000       0.00000000
Si      34.17350991      25.97186753      15.03634436       0.00000000      -0.00000000       0.00000000
Si      35.54045031      27.33880793      13.66940396       0.00000000       0.00000000      -0.00000000
Si      36.90739070      28.70574832      15.03634436      -0.00000000      -0.00000000       0.00000000
Si      13.66940396       2.73388079      16.40328476       0.00000000      -0.00000000       0.00000000
Si      15.03634436       4.10082119      17.77022515      -0.00000000      -0.00000000       0.00000000
Si      16.40328476       5.46776159      16.40328476      -0.00000000       0.00000000      -0.00000000
Si      17.77022515       6.83470198      17.77022515       0.00000000      -0.00000000       0.00000000
Si      19.13716555       8.20164238      16.40328476      -0.00000000      -0.00000000      -0.00000000
Si      20.50410595       9.56858277      17.77022515       0.00000000      -0.00000000      -0.00000000
Si      21.87104634      10.93552317      16.40328476      -0.00000000      -0.00000000      -0.00000000
Si      23.23798674      12.30246357      17.77022515       0.00000000      -0.00000000       0.00000000
Si      24.60492713      13.66940396      16.40328476      -0.00000000       0.00000000      -0.00000000
Si      25.97186753      15.03634436      17.77022515       0.00000000       0.00000000       0.00000000
Si      27.33880793      16.40328476      16.40328476       0.00000000      -0.00000000       0.00000000
Si      28.70574832      17.77022515      17.77022515      -0.00000000      -0.00000000       0.00000000
Si      30.07268872      19.13716555      16.40328476       0.00000000       0.00000000      -0.00000000
Si      31.43962912      20.50410595      17.77022515      -0.00000000      -0.00000000      -0.00000000
Si      32.80656951      21.87104634      16.40328476      -0.00000000      -0.00000000      -0.00000000
Si      34.17350991      23.23798674      17.77022515       0.00000000       0.00000000      -0.00000000
Si      35.54045031      24.60492713      16.40328476       0.00000000      -0.00000000      -0.00000000
Si      36.90739070      25.97186753      17.77022515      -0.00000000      -0.00000000       0.00000000
Si      38.27433110      27.33880793      16.40328476       0.00000000       0.00000000      -0.00000000
Si      39.64127150      28.70574832      17.77022515       0.00000000      -0.00000000       0.00000000
Si      16.40328476       2.73388079      19.13716555       0.00000000       0.00000000       0.00000000
Si      17.77022515       4.10082119      20.50410595      -0.00000000      -0.00000000      -0.00000000
Si      19.13716555       5.46776159      19.13716555       0.00000000       0.00000000       0.00000000
Si      20.50410595       6.83470198      20.50410595      -0.00000000      -0.00000000      -0.00000000
Si      21.87104634       8.20164238      19.13716555      -0.00000000      -0.00000000      -0.00000000
Si      23.23798674       9.56858277      20.50410595       0.00000000       0.00000000      -0.00000000
Si      24.60492713      10.93552317      19.13716555      -0.00000000      -0.00000000       0.00000000
Si      25.97186753      12.30246357      20.50410595      -0.00000000      -0.00000000      -0.00000000
Si      27.33880793      13.66940396      19.13716555       0.00000000       0.00000000      -0.00000000
Si      28.70574832      15.03634436      20.50410595       0.00000000      -0.00000000      -0.00000000
Si      30.07268872      16.40328476      19.13716555      -0.00000000       0.00000000       0.00000000
Si      31.43962912      17.77022515      20.50410595       0.00000000       0.00000000      -0.00000000
Si      32.80656951      19.13716555      19.13716555      -0.00000000       0.00000000       0.00000000
Si      34.17350991      20.50410595      20.50410595      -0.00000000      -0.00000000      -0.00000000
Si      35.54045031      21.87104634      19.13716555       0.00000000       0.00000000       0.00000000
Si      36.90739070      23.23798674      20.50410595      -0.00000000      -0.00000000       0.00000000
Si      38.27433110      24.60492713      19.13716555       0.00000000       0.00000000      -0.00000000
Si      39.64127150      25.97186753      20.50410595      -0.00000000      -0.00000000       0.00000000
Si      41.00821189      27.33880793      19.13716555       0.00000000       0.00000000       0.00000000
Si      42.37515229      28.70574832      20.50410595      -0.00000000      -0.00000000      -0.00000000
Si      19.13716555       2.73388079      21.87104634      -0.00000000      -0.00000000      -0.00000000
Si      20.50410595       4.10082119      23.23798674       0.00000000      -0.00000000       0.00000000
Si      21.87104634       5.46776159      21.87104634      -0.00000000      -0.00000000      -0.00000000
Si      23.23798674       6.83470198      23.23798674       0.00000000      -0.00000000       0.00000000
Si      24.60492713       8.20164238      21.87104634      -0.00000000      -0.00000000      -0.00000000
Si      25.97186753       9.56858277      23.23798674       0.00000000       0.00000000       0.00000000
Si      27.33880793      10.93552317      21.87104634      -0.00000000      -0.00000000      -0.00000000
Si      28.70574832      12.30246357      23.23798674       0.00000000      -0.00000000       0.00000000
Si      30.07268872      13.66940396      21.87104634       0.00000000       0.00000000      -0.00000000
Si      31.43962912      15.03634436      23.23798674       0.00000000      -0.00000000       0.00000000
Si      32.80656951      16.40328476      21.87104634      -0.00000000      -0.00000000      -0.00000000
Si      34.17350991      17.77022515      23.23798674       0.00000000       0.00000000       0.00000000
Si      35.54045031      19.13716555      21.87104634       0.00000000       0.00000000       0.00000000
Si      36.90739070      20.50410595      23.23798674      -0.00000000      -0.00000000       0.00000000
Si      38.27433110      21.87104634      21.87104634       0.00000000      -0.00000000      -0.00000000
Si      39.64127150      23.23798674      23.23798674       0.00000000       0.00000000       0.00000000
Si      41.00821189      24.60492713      21.87104634       0.00000000       0.00000000      -0.00000000
Si      42.37515229      25.97186753      23.23798674       0.00000000      -0.00000000       0.00000000
Si      43.74209268      27.33880793      21.87104634      -0.00000000      -0.00000000      -0.00000000
Si      45.10903308      28.70574832      23.23798674       0.00000000      -0.00000000       0.00000000
Si      21.87104634       2.73388079      24.60492713      -0.00000000      -0.00000000      -0.00000000
Si      23.23798674       4.10082119      25.97186753       0.00000000       0.00000000       0.00000000
Si      24.60492713       5.46776159      24.60492713      -0.00000000       0.00000000      -0.00000000
Si      25.97186753       6.83470198      25.97186753       0.00000000      -0.00000000       0.00000000
Si      27.33880793       8.20164238      24.60492713      -0.00000000      -0.00000000      -0.00000000
Si      28.70574832       9.56858277      25.97186753       0.00000000       0.00000000       0.00000000
Si      30.07268872      10.93552317      24.60492713       0.00000000       0.00000000       0.00000000
Si      31.43962912      12.30246357      25.97186753       0.00000000      -0.00000000      -0.00000000
Si      32.80656951      13.66940396      24.60492713      -0.00000000       0.00000000      -0.00000000
Si      34.17350991      15.03634436      25.97186753       0.00000000      -0.00000000       0.00000000
Si      35.54045031      16.40328476      24.60492713       0.00000000      -0.00000000      -0.00000000
Si      36.90739070      17.77022515      25.97186753      -0.00000000       0.00000000       0.00000000
Si      38.27433110      19.13716555      24.60492713       0.00000000      -0.00000000      -0.00000000
Si      39.64127150      20.50410595      25.97186753       0.00000000       0.00000000       0.00000000
Si      41.00821189      21.87104634      24.60492713      -0.00000000      -0.00000000      -0.00000000
Si      42.37515229      23.23798674      25.97186753       0.00000000       0.00000000       0.00000000
Si      43.74209268      24.60492713      24.60492713      -0.00000000       0.00000000      -0.00000000
Si      45.10903308      25.97186753      25.97186753       0.00000000       0.00000000       0.00000000
Si      46.47597348      27.33880793      24.60492713      -0.00000000      -0.00000000      -0.00000000
Si      47.84291387      28.70574832      25.97186753       0.00000000      -0.00000000       0.00000000
Si      24.60492713       2.73388079      27.33880793       0.00000000       0.00000000      -0.00000000
Si      25.97186753       4.10082119      28.70574832       0.00000000      -0.00000000      -0.00000000
Si      27.33880793       5.46776159      27.33880793      -0.00000000       0.00000000      -0.00000000
Si      28.70574832       6.83470198      28.70574832      -0.00000000       0.00000000      -0.00000000
Si      30.07268872       8.20164238      27.33880793      -0.00000000      -0.00000000      -0.00000000
Si      31.43962912       9.56858277      28.70574832       0.00000000      -0.00000000      -0.00000000
Si      32.80656951      10.93552317      27.33880793      -0.00000000       0.00000000      -0.00000000
Si      34.17350991      12.30246357      28.70574832      -0.00000000      -0.00000000      -0.00000000
Si      35.54045031      13.66940396      27.33880793       0.00000000       0.00000000      -0.00000000
Si      36.90739070      15.03634436      28.70574832      -0.00000000       0.00000000      -0.00000000
Si      38.27433110      16.40328476      27.33880793       0.00000000      -0.00000000      -0.00000000
Si      39.64127150      17.77022515      28.70574832       0.00000000       0.00000000       0.00000000
Si      41.00821189      19.13716555      27.33880793      -0.00000000       0.00000000      -0.00000000
Si      42.37515229      20.50410595      28.70574832      -0.00000000       0.00000000       0.00000000
Si      43.74209268      21.87104634      27.33880793       0.00000000       0.00000000      -0.00000000
Si      45.10903308      23.23798674      28.70574832       0.00000000       0.00000000      -0.00000000
Si      46.47597348      24.60492713      27.33880793      -0.00000000       0.00000000      -0.00000000
Si      47.84291387      25.97186753      28.70574832      -0.00000000       0.00000000      -0.00000000
Si      49.20985427      27.33880793      27.33880793       0.00000000       0.00000000       0.00000000
Si      50.57679467      28.70574832      28.70574832      -0.00000000      -0.00000000      -0.00000000
Si      -0.00000000       5.46776159       5.46776159       0.00000000       0.00000000      -0.00000000
Si       1.36694040       6.83470198       6.83470198       0.00000000       0.00000000       0.00000000
Si       2.73388079       8.20164238       5.46776159      -0.00000000      -0.00000000      -0.00000000
Si       4.10082119       9.56858277       6.83470198       0.00000000       0.00000000       0.00000000
Si       5.46776159      10.93552317       5.46776159      -0.00000000      -0.00000000      -0.00000000
Si       6.83470198      12.30246357       6.83470198       0.00000000      -0.00000000       0.00000000
Si       8.20164238      13.66940396       5.46776159       0.00000000       0.00000000       0.00000000
Si       9.56858277      15.03634436       6.83470198      -0.00000000      -0.00000000      -0.00000000
Si      10.93552317      16.40328476       5.46776159       0.00000000      -0.00000000      -0.00000000
Si      12.30246357      17.77022515       6.83470198       0.00000000       0.00000000       0.00000000
Si      13.66940396      19.13716555       5.46776159      -0.00000000      -0.00000000       0.00000000
Si      15.03634436      20.50410595       6.83470198       0.00000000       0.00000000      -0.00000000
Si      16.40328476      21.87104634       5.46776159      -0.00000000      -0.00000000       0.00000000
Si      17.77022515      23.23798674       6.83470198      -0.00000000       0.00000000       0.00000000
Si      19.13716555      24.60492713       5.46776159      -0.00000000      -0.00000000       0.00000000
Si      20.50410595      25.97186753       6.83470198       0.00000000       0.00000000       0.00000000
Si      21.87104634      27.33880793       5.46776159      -0.00000000      -0.00000000       0.00000000
Si      23.23798674      28.70574832       6.83470198       0.00000000      -0.00000000      -0.00000000
Si      24.60492713      30.07268872       5.46776159       0.00000000      -0.00000000       0.00000000
Si      25.97186753      31.43962912       6.83470198      -0.00000000       0.00000000      -0.00000000
Si       2.73388079       5.46776159       8.20164238       0.00000000       0.00000000      -0.00000000
Si       4.10082119       6.83470198       9.56858277      -0.00000000      -0.00000000       0.00000000
Si       5.46776159       8.20164238       8.20164238       0.00000000      -0.00000000      -0.00000000
Si       6.83470198       9.56858277       9.56858277       0.00000000       0.00000000       0.00000000
Si       8.20164238      10.93552317       8.20164238      -0.00000000       0.00000000      -0.00000000
Si       9.56858277      12.30246357       9.56858277       0.00000000      -0.00000000       0.00000000
Si      10.93552317      13.66940396       8.20164238       0.00000000       0.00000000      -0.00000000
Si      12.30246357      15.03634436       9.56858277       0.00000000       0.00000000      -0.00000000
Si      13.66940396      16.40328476       8.20164238       0.00000000      -0.00000000       0.00000000
Si      15.03634436      17.77022515       9.56858277      -0.00000000       0.00000000      -0.00000000
Si      16.40328476      19.13716555       8.20164238      -0.00000000      -0.00000000      -0.00000000
Si      17.77022515      20.50410595       9.56858277      -0.00000000       0.00000000      -0.00000000
Si      19.13716555      21.87104634       8.20164238       0.00000000      -0.00000000      -0.00000000
Si      20.50410595      23.23798674       9.56858277       0.00000000      -0.00000000       0.00000000
Si      21.87104634      24.60492713       8.20164238      -0.00000000       0.00000000      -0.00000000
Si      23.23798674      25.97186753       9.56858277       0.00000000       0.00000000      -0.00000000
Si      24.60492713      27.33880793       8.20164238      -0.00000000      -0.00000000       0.00000000
Si      25.97186753      28.70574832       9.56858277       0.00000000       0.00000000      -0.00000000
Si      27.33880793      30.07268872       8.20164238       0.00000000      -0.00000000       0.00000000
Si      28.70574832      31.43962912       9.56858277      -0.00000000       0.00000000       0.00000000
Si       5.46776159       5.46776159      10.93552317       0.00000000       0.00000000      -0.00000000
Si       6.83470198       6.83470198      12.30246357       0.00000000       0.00000000      -0.00000000
Si       8.20164238       8.20164238      10.93552317      -0.00000000      -0.00000000      -0.00000000
Si       9.56858277       9.56858277      12.30246357       0.00000000       0.00000000      -0.00000000
Si      10.93552317      10.93552317      10.93552317       0.00000000       0.00000000      -0.00000000
Si      12.30246357      12.30246357      12.30246357      -0.00000000      -0.00000000      -0.00000000
Si      13.66940396      13.66940396      10.93552317       0.00000000       0.00000000       0.00000000
Si      15.03634436      15.03634436      12.30246357       0.00000000       0.00000000      -0.00000000
Si      16.40328476      16.40328476      10.93552317      -0.00000000      -0.00000000       0.00000000
Si      17.77022515      17.77022515      12.30246357      -0.00000000      -0.00000000      -0.00000000
Si      19.13716555      19.13716555      10.93552317       0.00000000       0.00000000       0.00000000
Si      20.50410595      20.50410595      12.30246357       0.00000000       0.00000000      -0.00000000
Si      21.87104634      21.87104634      10.93552317      -0.00000000      -0.00000000       0.00000000
Si      23.23798674      23.23798674      12.30246357      -0.00000000      -0.00000000       0.00000000
Si      24.60492713      24.60492713      10.93552317      -0.00000000      -0.00000000      -0.00000000
Si      25.97186753      25.97186753      12.30246357       0.00000000       0.00000000      -0.00000000
Si      27.33880793      27.33880793      10.93552317      -0.00000000      -0.00000000       0.00000000
Si      28.70574832      28.70574832      12.30246357       0.00000000       0.00000000       0.00000000
Si      30.07268872      30.07268872      10.93552317      -0.00000000      -0.00000000       0.00000000
Si      31.43962912      31.43962912      12.30246357       0.00000000       0.00000000       0.00000000
Si       8.20164238       5.46776159      13.66940396       0.00000000       0.00000000      -0.00000000
Si       9.56858277       6.83470198      15.03634436      -0.00000000       0.00000000      -0.00000000
Si      10.93552317       8.20164238      13.66940396       0.00000000      -0.00000000       0.00000000
Si      12.30246357       9.56858277      15.03634436      -0.00000000       0.00000000      -0.00000000
Si      13.66940396      10.93552317      13.66940396       0.00000000      -0.00000000       0.00000000
Si      15.03634436      12.30246357      15.03634436       0.00000000      -0.00000000       0.00000000
Si      16.40328476      13.66940396      13.66940396      -0.00000000       0.00000000       0.00000000
Si      17.77022515      15.03634436      15.03634436      -0.00000000      -0.00000000       0.00000000
Si      19.13716555      16.40328476      13.66940396      -0.00000000      -0.00000000       0.00000000
Si      20.50410595      17.77022515      15.03634436       0.00000000      -0.00000000      -0.00000000
Si      21.87104634      19.13716555      13.66940396      -0.00000000       0.00000000       0.00000000
Si      23.23798674      20.50410595      15.03634436       0.00000000       0.00000000      -0.00000000
Si      24.60492713      21.87104634      13.66940396      -0.00000000      -0.00000000       0.00000000
Si      25.97186753      23.23798674      15.03634436      -0.00000000      -0.00000000      -0.00000000
Si      27.33880793      24.60492713      13.66940396      -0.00000000      -0.00000000       0.00000000
Si      28.70574832      25.97186753      15.03634436       0.00000000       0.00000000      -0.00000000
Si      30.07268872      27.33880793      13.66940396      -0.00000000      -0.00000000       0.00000000
Si      31.43962912      28.70574832      15.03634436       0.00000000      -0.00000000       0.00000000
Si      32.80656951      30.07268872      13.66940396      -0.00000000       0.00000000      -0.00000000
Si      34.17350991      31.43962912      15.03634436      -0.00000000       0.00000000       0.00000000
Si      10.93552317       5.46776159      16.40328476       0.00000000      -0.00000000      -0.00000000
Si      12.30246357       6.83470198      17.77022515      -0.00000000       0.00000000       0.00000000
Si      13.66940396       8.20164238      16.40328476       0.00000000       0.00000000      -0.00000000
Si      15.03634436       9.56858277      17.77022515      -0.00000000       0.00000000       0.00000000
Si      16.40328476      10.93552317      16.40328476      -0.00000000       0.00000000      -0.00000000
Si      17.77022515      12.30246357      17.77022515      -0.00000000      -0.00000000      -0.00000000
Si      19.13716555      13.66940396      16.40328476      -0.00000000       0.00000000      -0.00000000
Si      20.50410595      15.03634436      17.77022515       0.00000000       0.00000000      -0.00000000
Si      21.87104634      16.40328476      16.40328476      -0.00000000      -0.00000000      -0.00000000
Si      23.23798674      17.77022515      17.77022515       0.00000000      -0.00000000      -0.00000000
Si      24.60492713      19.13716555      16.40328476      -0.00000000      -0.00000000      -0.00000000
Si      25.97186753      20.50410595      17.77022515      -0.00000000       0.00000000       0.00000000
Si      27.33880793      21.87104634      16.40328476       0.00000000       0.00000000       0.00000000
Si      28.70574832      23.23798674      17.77022515      -0.00000000      -0.00000000       0.00000000
Si      30.07268872      24.60492713      16.40328476       0.00000000       0.00000000      -0.00000000
Si      31.43962912      25.97186753      17.77022515       0.00000000       0.00000000      -0.00000000
Si      32.80656951      27.33880793      16.40328476      -0.00000000       0.00000000      -0.00000000
Si      34.17350991      28.70574832      17.77022515       0.00000000       0.00000000       0.00000000
Si      35.54045031      30.07268872      16.40328476       0.00000000      -0.00000000      -0.00000000
Si      36.90739070      31.43962912      17.77022515      -0.00000000       0.00000000      -0.00000000
Si      13.66940396       5.46776159      19.13716555      -0.00000000      -0.00000000       0.00000000
Si      15.03634436       6.83470198      20.50410595       0.00000000      -0.00000000       0.00000000
Si      16.40328476       8.20164238      19.13716555      -0.00000000      -0.00000000      -0.00000000
Si      17.77022515       9.56858277      20.50410595      -0.00000000       0.00000000       0.00000000
Si      19.13716555      10.93552317      19.13716555      -0.00000000       0.00000000      -0.00000000
Si      20.50410595      12.30246357      20.50410595       0.00000000       0.00000000       0.00000000
Si      21.87104634      13.66940396      19.13716555      -0.00000000       0.00000000       0.00000000
Si      23.23798674      15.03634436      20.50410595       0.00000000       0.00000000       0.00000000
Si      24.60492713      16.40328476      19.13716555      -0.00000000      -0.00000000       0.00000000
Si      25.97186753      17.77022515      20.50410595      -0.00000000       0.00000000       0.00000000
Si      27.33880793      19.13716555      19.13716555       0.00000000      -0.00000000      -0.00000000
Si      28.70574832      20.50410595      20.50410595       0.00000000       0.00000000       0.00000000
Si      30.07268872      21.87104634      19.13716555      -0.00000000      -0.00000000       0.00000000
Si      31.43962912      23.23798674      20.50410595       0.00000000      -0.00000000       0.00000000
Si      32.80656951      24.60492713      19.13716555      -0.00000000      -0.00000000       0.00000000
Si      34.17350991      25.97186753      20.50410595      -0.00000000      -0.00000000       0.00000000
Si      35.54045031      27.33880793      19.13716555       0.00000000       0.00000000      -0.00000000
Si      36.90739070      28.70574832      20.50410595      -0.00000000       0.00000000       0.00000000
Si      38.27433110      30.07268872      19.13716555      -0.00000000      -0.00000000      -0.00000000
Si      39.64127150      31.43962912      20.50410595       0.00000000       0.00000000       0.00000000
Si      16.40328476       5.46776159      21.87104634      -0.00000000       0.00000000      -0.00000000
Si      17.77022515       6.83470198      23.23798674      -0.00000000       0.00000000       0.00000000
Si      19.13716555       8.20164238      21.87104634       0.00000000       0.00000000      -0.00000000
Si      20.50410595       9.56858277      23.23798674      -0.00000000       0.00000000       0.00000000
Si      21.87104634      10.93552317      21.87104634      -0.00000000       0.00000000      -0.00000000
Si      23.23798674      12.30246357      23.23798674      -0.00000000       0.00000000       0.00000000
Si      24.60492713      13.66940396      21.87104634      -0.00000000       0.00000000      -0.00000000
Si      25.97186753      15.03634436      23.23798674      -0.00000000       0.00000000       0.00000000
Si      27.33880793      16.40328476      21.87104634       0.00000000       0.00000000      -0.00000000
Si      28.70574832      17.77022515      23.23798674      -0.00000000       0.00000000       0.00000000
Si      30.07268872      19.13716555      21.87104634      -0.00000000      -0.00000000      -0.00000000
Si      31.43962912      20.50410595      23.23798674       0.00000000       0.00000000       0.00000000
Si      32.80656951      21.87104634      21.87104634      -0.00000000       0.00000000      -0.00000000
Si      34.17350991      23.23798674      23.23798674      -0.00000000       0.00000000       0.00000000
Si      35.54045031      24.60492713      21.87104634      -0.00000000      -0.00000000      -0.00000000
Si      36.90739070      25.97186753      23.23798674       0.00000000       0.00000000       0.00000000
Si      38.27433110      27.33880793      21.87104634       0.00000000      -0.00000000       0.00000000
Si      39.64127150      28.70574832      23.23798674      -0.00000000       0.00000000      -0.00000000
Si      41.00821189      30.07268872      21.87104634      -0.00000000      -0.00000000      -0.00000000
Si      42.37515229      31.43962912      23.23798674       0.00000000       0.00000000       0.00000000
Si      19.13716555       5.46776159      24.60492713      -0.00000000       0.00000000      -0.00000000
Si      20.50410595       6.83470198      25.97186753       0.00000000      -0.00000000       0.00000000
Si      21.87104634       8.20164238      24.60492713      -0.00000000      -0.00000000       0.00000000
Si      23.23798674       9.56858277      25.97186753       0.00000000      -0.00000000       0.00000000
Si      24.60492713      10.93552317      24.60492713       0.00000000       0.00000000      -0.00000000
Si      25.97186753      12.30246357      25.97186753       0.00000000       0.00000000       0.00000000
Si      27.33880793      13.66940396      24.60492713      -0.00000000       0.00000000       0.00000000
Si      28.70574832      15.03634436      25.97186753       0.00000000      -0.00000000       0.00000000
Si      30.07268872      16.40328476      24.60492713       0.00000000      -0.00000000      -0.00000000
Si      31.43962912      17.77022515      25.97186753       0.00000000       0.00000000       0.00000000
Si      32.80656951      19.13716555      24.60492713      -0.00000000      -0.00000000       0.00000000
Si      34.17350991      20.50410595      25.97186753       0.00000000       0.00000000      -0.00000000
Si      35.54045031      21.87104634      24.60492713       0.00000000       0.00000000       0.00000000
Si      36.90739070      23.23798674      25.97186753      -0.00000000      -0.00000000      -0.00000000
Si      38.27433110      24.60492713      24.60492713       0.00000000       0.00000000      -0.00000000
Si      39.64127150      25.97186753      25.97186753      -0.00000000       0.00000000       0.00000000
Si      41.00821189      27.33880793      24.60492713       0.00000000      -0.00000000       0.00000000
Si      42.37515229      28.70574832      25.97186753       0.00000000       0.00000000       0.00000000
Si      43.74209268      30.07268872      24.60492713      -0.00000000      -0.00000000       0.00000000
Si      45.10903308      31.43962912      25.97186753       0.00000000       0.00000000       0.00000000
Si      21.87104634       5.46776159      27.33880793      -0.00000000       0.00000000      -0.00000000
Si      23.23798674       6.83470198      28.70574832       0.00000000       0.00000000       0.00000000
Si      24.60492713       8.20164238      27.33880793      -0.00000000      -0.00000000       0.00000000
Si      25.97186753       9.56858277      28.70574832       0.00000000      -0.00000000       0.00000000
Si      27.33880793      10.93552317      27.33880793      -0.00000000       0.00000000      -0.00000000
Si      28.70574832      12.30246357      28.70574832       0.00000000      -0.00000000       0.00000000
Si      30.07268872      13.66940396      27.33880793      -0.00000000       0.00000000       0.00000000
Si      31.43962912      15.03634436      28.70574832       0.00000000       0.00000000      -0.00000000
Si      32.80656951      16.40328476      27.33880793      -0.00000000      -0.00000000      -0.00000000
Si      34.17350991      17.77022515      28.70574832       0.00000000       0.00000000       0.00000000
Si      35.54045031      19.13716555      27.33880793       0.00000000      -0.00000000       0.00000000
Si      36.90739070      20.50410595      28.70574832      -0.00000000      -0.00000000      -0.00000000
Si      38.27433110      21.87104634      27.33880793       0.00000000      -0.00000000       0.00000000
Si      39.64127150      23.23798674      28.70574832       0.00000000       0.00000000       0.00000000
Si      41.00821189      24.60492713      27.33880793       0.00000000       0.00000000       0.00000000
Si      42.37515229      25.97186753      28.70574832      -0.00000000      -0.00000000      -0.00000000
Si      43.74209268      27.33880793      27.33880793      -0.00000000       0.00000000      -0.00000000
Si      45.10903308      28.70574832      28.70574832       0.00000000      -0.00000000      -0.00000000
Si      46.47597348      30.07268872      27.33880793      -0.00000000       0.00000000       0.00000000
Si      47.84291387      31.43962912      28.70574832      -0.00000000      -0.00000000       0.00000000
Si      24.60492713       5.46776159      30.07268872      -0.00000000       0.00000000      -0.00000000
Si      25.97186753       6.83470198      31.43962912       0.00000000       0.00000000       0.00000000
Si      27.33880793       8.20164238      30.07268872      -0.00000000      -0.00000000      -0.00000000
Si      28.70574832       9.56858277      31.43962912      -0.00000000       0.00000000       0.00000000
Si      30.07268872      10.93552317      30.07268872      -0.00000000       0.00000000      -0.00000000
Si      31.43962912      12.30246357      31.43962912       0.00000000       0.00000000       0.00000000
Si      32.80656951      13.66940396      30.07268872      -0.00000000       0.00000000      -0.00000000
Si      34.17350991      15.03634436      31.43962912      -0.00000000       0.00000000       0.00000000
Si      35.54045031      16.40328476      30.07268872       0.00000000      -0.00000000      -0.00000000
Si      36.90739070      17.77022515      31.43962912      -0.00000000      -0.00000000       0.00000000
Si      38.27433110      19.13716555      30.07268872       0.00000000       0.00000000      -0.00000000
Si      39.64127150      20.50410595      31.43962912       0.00000000       0.00000000       0.00000000
Si      41.00821189      21.87104634      30.07268872      -0.00000000      -0.00000000      -0.00000000
Si      42.37515229      23.23798674      31.43962912      -0.00000000       0.00000000       0.00000000
Si      43.74209268      24.60492713      30.07268872      -0.00000000       0.00000000      -0.00000000
Si      45.10903308      25.97186753      31.43962912       0.00000000       0.00000000       0.00000000
Si      46.47597348      27.33880793      30.07268872      -0.00000000      -0.00000000      -0.00000000
Si      47.84291387      28.70574832      31.43962912      -0.00000000       0.00000000       0.00000000
Si      49.20985427      30.07268872      30.07268872       0.00000000       0.00000000      -0.00000000
Si      50.57679467      31.43962912      31.43962912      -0.00000000       0.00000000       0.00000000
Si      -0.00000000       8.20164238       8.20164238       0.00000000       0.00000000      -0.00000000
Si       1.36694040       9.56858277       9.56858277       0.00000000      -0.00000000      -0.00000000
Si       2.73388079      10.93552317       8.20164238       0.00000000      -0.00000000       0.00000000
Si       4.10082119      12.30246357       9.56858277      -0.00000000      -0.00000000      -0.00000000
Si       5.46776159      13.66940396       8.20164238       0.00000000       0.00000000       0.00000000
Si       6.83470198      15.03634436       9.56858277       0.00000000      -0.00000000      -0.00000000
Si       8.20164238      16.40328476       8.20164238       0.00000000      -0.00000000       0.00000000
Si       9.56858277      17.77022515       9.56858277       0.00000000       0.00000000      -0.00000000
Si      10.93552317      19.13716555       8.20164238      -0.00000000      -0.00000000       0.00000000
Si      12.30246357      20.50410595       9.56858277      -0.00000000       0.00000000      -0.00000000
Si      13.66940396      21.87104634       8.20164238       0.00000000      -0.00000000      -0.00000000
Si      15.03634436      23.23798674       9.56858277       0.00000000       0.00000000       0.00000000
Si      16.40328476      24.60492713       8.20164238      -0.00000000      -0.00000000       0.00000000
Si      17.77022515      25.97186753       9.56858277      -0.00000000      -0.00000000      -0.00000000
Si      19.13716555      27.33880793       8.20164238      -0.00000000      -0.00000000      -0.00000000
Si      20.50410595      28.70574832       9.56858277       0.00000000       0.00000000      -0.00000000
Si      21.87104634      30.07268872       8.20164238      -0.00000000      -0.00000000       0.00000000
Si      23.23798674      31.43962912       9.56858277       0.00000000       0.00000000       0.00000000
Si      24.60492713      32.80656951       8.20164238      -0.00000000      -0.00000000       0.00000000
Si      25.97186753      34.17350991       9.56858277       0.00000000      -0.00000000       0.00000000
Si       2.73388079       8.20164238      10.93552317       0.00000000      -0.00000000      -0.00000000
Si       4.10082119       9.56858277      12.30246357       0.00000000      -0.00000000      -0.00000000
Si       5.46776159      10.93552317      10.93552317       0.00000000       0.00000000       0.00000000
Si       6.83470198      12.30246357      12.30246357       0.00000000      -0.00000000      -0.00000000
Si       8.20164238      13.66940396      10.93552317      -0.00000000       0.00000000       0.00000000
Si       9.56858277      15.03634436      12.30246357      -0.00000000      -0.00000000      -0.00000000
Si      10.93552317      16.40328476      10.93552317       0.00000000      -0.00000000       0.00000000
Si      12.30246357      17.77022515      12.30246357      -0.00000000      -0.00000000      -0.00000000
Si      13.66940396      19.13716555      10.93552317       0.00000000      -0.00000000      -0.00000000
Si      15.03634436      20.50410595      12.30246357       0.00000000       0.00000000      -0.00000000
Si      16.40328476      21.87104634      10.93552317      -0.00000000      -0.00000000       0.00000000
Si      17.77022515      23.23798674      12.30246357      -0.00000000       0.00000000      -0.00000000
Si      19.13716555      24.60492713      10.93552317       0.00000000      -0.00000000       0.00000000
Si      20.50410595      25.97186753      12.30246357       0.00000000      -0.00000000      -0.00000000
Si      21.87104634      27.33880793      10.93552317      -0.00000000       0.00000000      -0.00000000
Si      23.23798674      28.70574832      12.30246357       0.00000000       0.00000000      -0.00000000
Si      24.60492713      30.07268872      10.93552317      -0.00000000      -0.00000000       0.00000000
Si      25.97186753      31.43962912      12.30246357      -0.00000000       0.00000000       0.00000000
Si      27.33880793      32.80656951      10.93552317      -0.00000000      -0.00000000      -0.00000000
Si      28.70574832      34.17350991      12.30246357      -0.00000000       0.00000000       0.00000000
Si       5.46776159       8.20164238      13.66940396       0.00000000       0.00000000      -0.00000000
Si       6.83470198       9.56858277      15.03634436       0.00000000      -0.00000000      -0.00000000
Si       8.20164238      10.93552317      13.66940396      -0.00000000       0.00000000       0.00000000
Si       9.56858277      12.30246357      15.03634436       0.00000000      -0.00000000      -0.00000000
Si      10.93552317      13.66940396      13.66940396      -0.00000000       0.00000000       0.00000000
Si      12.30246357      15.03634436      15.03634436      -0.00000000       0.00000000       0.00000000
Si      13.66940396      16.40328476      13.66940396       0.00000000      -0.00000000       0.00000000
Si      15.03634436      17.77022515      15.03634436      -0.00000000      -0.00000000       0.00000000
Si      16.40328476      19.13716555      13.66940396      -0.00000000      -0.00000000       0.00000000
Si      17.77022515      20.50410595      15.03634436      -0.00000000       0.00000000       0.00000000
Si      19.13716555      21.87104634      13.66940396       0.00000000      -0.00000000       0.00000000
Si      20.50410595      23.23798674      15.03634436       0.00000000       0.00000000      -0.00000000
Si      21.87104634      24.60492713      13.66940396      -0.00000000      -0.00000000       0.00000000
Si      23.23798674      25.97186753      15.03634436      -0.00000000      -0.00000000      -0.00000000
Si      24.60492713      27.33880793      13.66940396      -0.00000000      -0.00000000       0.00000000
Si      25.97186753      28.70574832      15.03634436       0.00000000       0.00000000      -0.00000000
Si      27.33880793      30.07268872      13.66940396      -0.00000000      -0.00000000       0.00000000
Si      28.70574832      31.43962912      15.03634436      -0.00000000       0.00000000       0.00000000
Si      30.07268872      32.80656951      13.66940396       0.00000000      -0.00000000      -0.00000000
Si      31.43962912      34.17350991      15.03634436       0.00000000      -0.00000000       0.00000000
Si       8.20164238       8.20164238      16.40328476       0.00000000       0.00000000      -0.00000000
Si       9.56858277       9.56858277      17.77022515      -0.00000000      -0.00000000       0.00000000
Si      10.93552317      10.93552317      16.40328476       0.00000000       0.00000000      -0.00000000
Si      12.30246357      12.30246357      17.77022515      -0.00000000      -0.00000000      -0.00000000
Si      13.66940396      13.66940396      16.40328476       0.00000000       0.00000000      -0.00000000
Si      15.03634436      15.03634436      17.77022515      -0.00000000      -0.00000000      -0.00000000
Si      16.40328476      16.40328476      16.40328476      -0.00000000      -0.00000000      -0.00000000
Si      17.77022515      17.77022515      17.77022515      -0.00000000      -0.00000000      -0.00000000
Si      19.13716555      19.13716555      16.40328476       0.00000000       0.00000000      -0.00000000
Si      20.50410595      20.50410595      17.77022515       0.00000000       0.00000000       0.00000000
Si      21.87104634      21.87104634      16.40328476      -0.00000000      -0.00000000      -0.00000000
Si      23.23798674      23.23798674      17.77022515       0.00000000       0.00000000      -0.00000000
Si      24.60492713      24.60492713      16.40328476      -0.00000000      -0.00000000       0.00000000
Si      25.97186753      25.97186753      17.77022515      -0.00000000      -0.00000000       0.00000000
Si      27.33880793      27.33880793      16.40328476       0.00000000       0.00000000      -0.00000000
Si      28.70574832      28.70574832      17.77022515      -0.00000000      -0.00000000      -0.00000000
Si      30.07268872      30.07268872      16.40328476       0.00000000       0.00000000      -0.00000000
Si      31.43962912      31.43962912      17.77022515       0.00000000       0.00000000      -0.00000000
Si      32.80656951      32.80656951      16.40328476      -0.00000000      -0.00000000      -0.00000000
Si      34.17350991      34.17350991      17.77022515       0.00000000       0.00000000      -0.00000000
Si      10.93552317       8.20164238      19.13716555       0.00000000      -0.00000000       0.00000000
Si      12.30246357       9.56858277      20.50410595      -0.00000000       0.00000000       0.00000000
Si      13.66940396      10.93552317      19.13716555       0.00000000      -0.00000000      -0.00000000
Si      15.03634436      12.30246357      20.50410595       0.00000000       0.00000000       0.00000000
Si      16.40328476      13.66940396      19.13716555      -0.00000000       0.00000000       0.00000000
Si      17.77022515      15.03634436      20.50410595      -0.00000000      -0.00000000       0.00000000
Si      19.13716555      16.40328476      19.13716555      -0.00000000      -0.00000000       0.00000000
Si      20.50410595      17.77022515      20.50410595       0.00000000      -0.00000000       0.00000000
Si      21.87104634      19.13716555      19.13716555      -0.00000000       0.00000000       0.00000000
Si      23.23798674      20.50410595      20.50410595       0.00000000       0.00000000       0.00000000
Si      24.60492713      21.87104634      19.13716555      -0.00000000      -0.00000000      -0.00000000
Si      25.97186753      23.23798674      20.50410595       0.00000000       0.00000000       0.00000000
Si      27.33880793      24.60492713      19.13716555       0.00000000      -0.00000000      -0.00000000
Si      28.70574832      25.97186753      20.50410595      -0.00000000      -0.00000000       0.00000000
Si      30.07268872      27.33880793      19.13716555       0.00000000       0.00000000      -0.00000000
Si      31.43962912      28.70574832      20.50410595       0.00000000      -0.00000000      -0.00000000
Si      32.80656951      30.07268872      19.13716555      -0.00000000      -0.00000000       0.00000000
Si      34.17350991      31.43962912      20.50410595       0.00000000       0.00000000       0.00000000
Si      35.54045031      32.80656951      19.13716555       0.00000000      -0.00000000      -0.00000000
Si      36.90739070      34.17350991      20.50410595      -0.00000000       0.00000000       0.00000000
Si      13.66940396       8.20164238      21.87104634       0.00000000      -0.00000000      -0.00000000
Si      15.03634436       9.56858277      23.23798674      -0.00000000       0.00000000       0.00000000
Si      16.40328476      10.93552317      21.87104634       0.00000000       0.00000000      -0.00000000
Si      17.77022515      12.30246357      23.23798674      -0.00000000      -0.00000000       0.00000000
Si      19.13716555      13.66940396      21.87104634      -0.00000000       0.00000000      -0.00000000
Si      20.50410595      15.03634436      23.23798674       0.00000000       0.00000000       0.00000000
Si      21.87104634      16.40328476      21.87104634      -0.00000000      -0.00000000      -0.00000000
Si      23.23798674      17.77022515      23.23798674       0.00000000      -0.00000000       0.00000000
Si      24.60492713      19.13716555      21.87104634      -0.00000000      -0.00000000      -0.00000000
Si      25.97186753      20.50410595      23.23798674       0.00000000       0.00000000       0.00000000
Si      27.33880793      21.87104634      21.87104634       0.00000000      -0.00000000      -0.00000000
Si      28.70574832      23.23798674      23.23798674       0.00000000       0.00000000       0.00000000
Si      30.07268872      24.60492713      21.87104634      -0.00000000       0.00000000      -0.00000000
Si      31.43962912      25.97186753      23.23798674       0.00000000      -0.00000000       0.00000000
Si      32.80656951      27.33880793      21.87104634      -0.00000000      -0.00000000      -0.00000000
Si      34.17350991      28.70574832      23.23798674       0.00000000       0.00000000       0.00000000
Si      35.54045031      30.07268872      21.87104634       0.00000000      -0.00000000      -0.00000000
Si      36.90739070      31.43962912      23.23798674      -0.00000000       0.00000000       0.00000000
Si      38.27433110      32.80656951      21.87104634       0.00000000      -0.00000000      -0.00000000
Si      39.64127150      34.17350991      23.23798674       0.00000000       0.00000000       0.00000000
Si      16.40328476       8.20164238      24.60492713      -0.00000000      -0.00000000       0.00000000
Si      17.77022515       9.56858277      25.97186753       0.00000000      -0.00000000      -0.00000000
Si      19.13716555      10.93552317      24.60492713       0.00000000       0.00000000      -0.00000000
Si      20.50410595      12.30246357      25.97186753      -0.00000000      -0.00000000      -0.00000000
Si      21.87104634      13.66940396      24.60492713      -0.00000000       0.00000000      -0.00000000
Si      23.23798674      15.03634436      25.97186753       0.00000000       0.00000000      -0.00000000
Si      24.60492713      16.40328476      24.60492713      -0.00000000      -0.00000000      -0.00000000
Si      25.97186753      17.77022515      25.97186753       0.00000000      -0.00000000      -0.00000000
Si      27.33880793      19.13716555      24.60492713       0.00000000      -0.00000000      -0.00000000
Si      28.70574832      20.50410595      25.97186753       0.00000000       0.00000000      -0.00000000
Si      30.07268872      21.87104634      24.60492713      -0.00000000      -0.00000000      -0.00000000
Si      31.43962912      23.23798674      25.97186753       0.00000000       0.00000000       0.00000000
Si      32.80656951      24.60492713      24.60492713      -0.00000000      -0.00000000      -0.00000000
Si      34.17350991      25.97186753      25.97186753       0.00000000       0.00000000       0.00000000
Si      35.54045031      27.33880793      24.60492713       0.00000000       0.00000000      -0.00000000
Si      36.90739070      28.70574832      25.97186753      -0.00000000      -0.00000000      -0.00000000
Si      38.27433110      30.07268872      24.60492713       0.00000000      -0.00000000      -0.00000000
Si      39.64127150      31.43962912      25.97186753       0.00000000       0.00000000      -0.00000000
Si      41.00821189      32.80656951      24.60492713      -0.00000000      -0.00000000      -0.00000000
Si      42.37515229      34.17350991      25.97186753       0.00000000       0.00000000      -0.00000000
Si      19.13716555       8.20164238      27.33880793      -0.00000000      -0.00000000      -0.00000000
Si      20.50410595       9.56858277      28.70574832       0.00000000       0.00000000       0.00000000
Si      21.87104634      10.93552317      27.33880793      -0.00000000      -0.00000000       0.00000000
Si      23.23798674      12.30246357      28.70574832       0.00000000      -0.00000000       0.00000000
Si      24.60492713      13.66940396      27.33880793       0.00000000      -0.00000000      -0.00000000
Si      25.97186753      15.03634436      28.70574832       0.00000000      -0.00000000       0.00000000
Si      27.33880793      16.40328476      27.33880793       0.00000000      -0.00000000       0.00000000
Si      28.70574832      17.77022515      28.70574832      -0.00000000      -0.00000000      -0.00000000
Si      30.07268872      19.13716555      27.33880793       0.00000000      -0.00000000       0.00000000
Si      31.43962912      20.50410595      28.70574832       0.00000000       0.00000000      -0.00000000
Si      32.80656951      21.87104634      27.33880793      -0.00000000       0.00000000       0.00000000
Si      34.17350991      23.23798674      28.70574832       0.00000000      -0.00000000      -0.00000000
Si      35.54045031      24.60492713      27.33880793       0.00000000       0.00000000       0.00000000
Si      36.90739070      25.97186753      28.70574832      -0.00000000      -0.00000000      -0.00000000
Si      38.27433110      27.33880793      27.33880793       0.00000000      -0.00000000      -0.00000000
Si      39.64127150      28.70574832      28.70574832      -0.00000000      -0.00000000       0.00000000
Si      41.00821189      30.07268872      27.33880793       0.00000000       0.00000000      -0.00000000
Si      42.37515229      31.43962912      28.70574832       0.00000000       0.00000000       0.00000000
Si      43.74209268      32.80656951      27.33880793      -0.00000000      -0.00000000       0.00000000
Si      45.10903308      34.17350991      28.70574832       0.00000000      -0.00000000       0.00000000
Si      21.87104634       8.20164238      30.07268872      -0.00000000      -0.00000000      -0.00000000
Si      23.23798674       9.56858277      31.43962912       0.00000000      -0.00000000       0.00000000
Si      24.60492713      10.93552317      30.07268872      -0.00000000       0.00000000      -0.00000000
Si      25.97186753      12.30246357      31.43962912       0.00000000       0.00000000       0.00000000
Si      27.33880793      13.66940396      30.07268872      -0.00000000       0.00000000      -0.00000000
Si      28.70574832      15.03634436      31.43962912      -0.00000000      -0.00000000       0.00000000
Si      30.07268872      16.40328476      30.07268872      -0.00000000      -0.00000000      -0.00000000
Si      31.43962912      17.77022515      31.43962912       0.00000000       0.00000000       0.00000000
Si      32.80656951      19.13716555      30.07268872      -0.00000000      -0.00000000      -0.00000000
Si      34.17350991      20.50410595      31.43962912       0.00000000      -0.00000000       0.00000000
Si      35.54045031      21.87104634      30.07268872       0.00000000       0.00000000       0.00000000
Si      36.90739070      23.23798674      31.43962912      -0.00000000       0.00000000       0.00000000
Si      38.27433110      24.60492713      30.07268872       0.00000000      -0.00000000      -0.00000000
Si      39.64127150      25.97186753      31.43962912      -0.00000000      -0.00000000       0.00000000
Si      41.00821189      27.33880793      30.07268872       0.00000000      -0.00000000      -0.00000000
Si      42.37515229      28.70574832      31.43962912       0.00000000       0.00000000       0.00000000
Si      43.74209268      30.07268872      30.07268872      -0.00000000       0.00000000      -0.00000000
Si      45.10903308      31.43962912      31.43962912       0.00000000       0.00000000       0.00000000
Si      46.47597348      32.80656951      30.07268872      -0.00000000      -0.00000000      -0.00000000
Si      47.84291387      34.17350991      31.43962912       0.00000000       0.00000000       0.00000000
Si      24.60492713       8.20164238      32.80656951      -0.00000000      -0.00000000      -0.00000000
Si      25.97186753       9.56858277      34.17350991       0.00000000       0.00000000      -0.00000000
Si      27.33880793      10.93552317      32.80656951      -0.00000000       0.00000000      -0.00000000
Si      28.70574832      12.30246357      34.17350991      -0.00000000       0.00000000      -0.00000000
Si      30.07268872      13.66940396      32.80656951      -0.00000000       0.00000000      -0.00000000
Si      31.43962912      15.03634436      34.17350991       0.00000000       0.00000000      -0.00000000
Si      32.80656951      16.40328476      32.80656951      -0.00000000      -0.00000000      -0.00000000
Si      34.17350991      17.77022515      34.17350991      -0.00000000       0.00000000      -0.00000000
Si      35.54045031      19.13716555      32.80656951       0.00000000       0.00000000      -0.00000000
Si      36.90739070      20.50410595      34.17350991      -0.00000000      -0.00000000       0.00000000
Si      38.27433110      21.87104634      32.80656951       0.00000000       0.00000000      -0.00000000
Si      39.64127150      23.23798674      34.17350991       0.00000000       0.00000000      -0.00000000
Si      41.00821189      24.60492713      32.80656951      -0.00000000      -0.00000000      -0.00000000
Si      42.37515229      25.97186753      34.17350991      -0.00000000      -0.00000000       0.00000000
Si      43.74209268      27.33880793      32.80656951      -0.00000000       0.00000000      -0.00000000
Si      45.10903308      28.70574832      34.17350991       0.00000000      -0.00000000      -0.00000000
Si      46.47597348      30.07268872      32.80656951       0.00000000       0.00000000      -0.00000000
Si      47.84291387      31.43962912      34.17350991      -0.00000000       0.00000000      -0.00000000
Si      49.20985427      32.80656951      32.80656951      -0.00000000      -0.00000000      -0.00000000
Si      50.57679467      34.17350991      34.17350991       0.00000000       0.00000000      -0.00000000
Si      -0.00000000      10.93552317      10.93552317       0.00000000       0.00000000      -0.00000000
Si       1.36694040      12.30246357      12.30246357       0.00000000      -0.00000000      -0.00000000
Si       2.73388079      13.66940396      10.93552317       0.00000000       0.00000000       0.00000000
Si       4.10082119      15.03634436      12.30246357       0.00000000      -0.00000000      -0.00000000
Si       5.46776159      16.40328476      10.93552317      -0.00000000      -0.00000000       0.00000000
Si       6.83470198      17.77022515      12.30246357      -0.00000000       0.00000000      -0.00000000
Si       8.20164238      19.13716555      10.93552317      -0.00000000      -0.00000000       0.00000000
Si       9.56858277      20.50410595      12.30246357       0.00000000       0.00000000      -0.00000000
Si      10.93552317      21.87104634      10.93552317       0.00000000      -0.00000000       0.00000000
Si      12.30246357      23.23798674      12.30246357       0.00000000      -0.00000000      -0.00000000
Si      13.66940396      24.60492713      10.93552317       0.00000000      -0.00000000       0.00000000
Si      15.03634436      25.97186753      12.30246357       0.00000000      -0.00000000      -0.00000000
Si      16.40328476      27.33880793      10.93552317       0.00000000      -0.00000000       0.00000000
Si      17.77022515      28.70574832      12.30246357      -0.00000000      -0.00000000      -0.00000000
Si      19.13716555      30.07268872      10.93552317       0.00000000      -0.00000000       0.00000000
Si      20.50410595      31.43962912      12.30246357       0.00000000       0.00000000      -0.00000000
Si      21.87104634      32.80656951      10.93552317       0.00000000      -0.00000000       0.00000000
Si      23.23798674      34.17350991      12.30246357       0.00000000       0.00000000      -0.00000000
Si      24.60492713      35.54045031      10.93552317       0.00000000      -0.00000000       0.00000000
Si      25.97186753      36.90739070      12.30246357      -0.00000000      -0.00000000       0.00000000
Si       2.73388079      10.93552317      13.66940396       0.00000000       0.00000000      -0.00000000
Si       4.10082119      12.30246357      15.03634436       0.00000000      -0.00000000      -0.00000000
Si       5.46776159      13.66940396      13.66940396       0.00000000       0.00000000       0.00000000
Si       6.83470198      15.03634436      15.03634436      -0.00000000      -0.00000000      -0.00000000
Si       8.20164238      16.40328476      13.66940396      -0.00000000      -0.00000000       0.00000000
Si       9.56858277      17.77022515      15.03634436       0.00000000       0.00000000      -0.00000000
Si      10.93552317      19.13716555      13.66940396      -0.00000000      -0.00000000       0.00000000
Si      12.30246357      20.50410595      15.03634436      -0.00000000       0.00000000      -0.00000000
Si      13.66940396      21.87104634      13.66940396       0.00000000      -0.00000000       0.00000000
Si      15.03634436      23.23798674      15.03634436       0.00000000       0.00000000      -0.00000000
Si      16.40328476      24.60492713      13.66940396      -0.00000000      -0.00000000       0.00000000
Si      17.77022515      25.97186753      15.03634436      -0.00000000      -0.00000000      -0.00000000
Si      19.13716555      27.33880793      13.66940396       0.00000000       0.00000000       0.00000000
Si      20.50410595      28.70574832      15.03634436       0.00000000       0.00000000      -0.00000000
Si      21.87104634      30.07268872      13.66940396      -0.00000000       0.00000000       0.00000000
Si      23.23798674      31.43962912      15.03634436       0.00000000       0.00000000      -0.00000000
Si      24.60492713      32.80656951      13.66940396      -0.00000000      -0.00000000       0.00000000
Si      25.97186753      34.17350991      15.03634436      -0.00000000       0.00000000       0.00000000
Si      27.33880793      35.54045031      13.66940396       0.00000000       0.00000000      -0.00000000
Si      28.70574832      36.90739070      15.03634436      -0.00000000      -0.00000000       0.00000000
Si       5.46776159      10.93552317      16.40328476      -0.00000000       0.00000000      -0.00000000
Si       6.83470198      12.30246357      17.77022515       0.00000000      -0.00000000       0.00000000
Si       8.20164238      13.66940396      16.40328476       0.00000000       0.00000000      -0.00000000
Si       9.56858277      15.03634436      17.77022515       0.00000000      -0.00000000       0.00000000
Si      10.93552317      16.40328476      16.40328476       0.00000000      -0.00000000      -0.00000000
Si      12.30246357      17.77022515      17.77022515      -0.00000000      -0.00000000      -0.00000000
Si      13.66940396      19.13716555      16.40328476       0.00000000      -0.00000000      -0.00000000
Si      15.03634436      20.50410595      17.77022515       0.00000000       0.00000000      -0.00000000
Si      16.40328476      21.87104634      16.40328476      -0.00000000      -0.00000000      -0.00000000
Si      17.77022515      23.23798674      17.77022515      -0.00000000       0.00000000      -0.00000000
Si      19.13716555      24.60492713      16.40328476      -0.00000000      -0.00000000      -0.00000000
Si      20.50410595      25.97186753      17.77022515       0.00000000      -0.00000000       0.00000000
Si      21.87104634      27.33880793      16.40328476       0.00000000       0.00000000       0.00000000
Si      23.23798674      28.70574832      17.77022515      -0.00000000      -0.00000000       0.00000000
Si      24.60492713      30.07268872      16.40328476       0.00000000       0.00000000      -0.00000000
Si      25.97186753      31.43962912      17.77022515       0.00000000       0.00000000      -0.00000000
Si      27.33880793      32.80656951      16.40328476       0.00000000      -0.00000000      -0.00000000
Si      28.70574832      34.17350991      17.77022515       0.00000000       0.00000000       0.00000000
Si      30.07268872      35.54045031      16.40328476      -0.00000000       0.00000000      -0.00000000
Si      31.43962912      36.90739070      17.77022515       0.00000000      -0.00000000      -0.00000000
Si       8.20164238      10.93552317      19.13716555      -0.00000000       0.00000000       0.00000000
Si       9.56858277      12.30246357      20.50410595       0.00000000      -0.00000000       0.00000000
Si      10.93552317      13.66940396      19.13716555      -0.00000000       0.00000000      -0.00000000
Si      12.30246357      15.03634436      20.50410595       0.00000000       0.00000000       0.00000000
Si      13.66940396      16.40328476      19.13716555       0.00000000      -0.00000000       0.00000000
Si      15.03634436      17.77022515      20.50410595      -0.00000000      -0.00000000       0.00000000
Si      16.40328476      19.13716555      19.13716555      -0.00000000      -0.00000000       0.00000000
Si      17.77022515      20.50410595      20.50410595      -0.00000000       0.00000000       0.00000000
Si      19.13716555      21.87104634      19.13716555       0.00000000      -0.00000000       0.00000000
Si      20.50410595      23.23798674      20.50410595       0.00000000       0.00000000       0.00000000
Si      21.87104634      24.60492713      19.13716555      -0.00000000      -0.00000000      -0.00000000
Si      23.23798674      25.97186753      20.50410595       0.00000000       0.00000000       0.00000000
Si      24.60492713      27.33880793      19.13716555      -0.00000000       0.00000000      -0.00000000
Si      25.97186753      28.70574832      20.50410595      -0.00000000      -0.00000000       0.00000000
Si      27.33880793      30.07268872      19.13716555       0.00000000       0.00000000      -0.00000000
Si      28.70574832      31.43962912      20.50410595      -0.00000000       0.00000000      -0.00000000
Si      30.07268872      32.80656951      19.13716555      -0.00000000      -0.00000000      -0.00000000
Si      31.43962912      34.17350991      20.50410595       0.00000000       0.00000000       0.00000000
Si      32.80656951      35.54045031      19.13716555      -0.00000000       0.00000000      -0.00000000
Si      34.17350991      36.90739070      20.50410595       0.00000000      -0.00000000       0.00000000
Si      10.93552317      10.93552317      21.87104634       0.00000000       0.00000000      -0.00000000
Si      12.30246357      12.30246357      23.23798674      -0.00000000      -0.00000000       0.00000000
Si      13.66940396      13.66940396      21.87104634       0.00000000       0.00000000      -0.00000000
Si      15.03634436      15.03634436      23.23798674       0.00000000       0.00000000       0.00000000
Si      16.40328476      16.40328476      21.87104634      -0.00000000      -0.00000000      -0.00000000
Si      17.77022515      17.77022515      23.23798674      -0.00000000      -0.00000000       0.00000000
Si      19.13716555      19.13716555      21.87104634       0.00000000       0.00000000      -0.00000000
Si      20.50410595      20.50410595      23.23798674       0.00000000       0.00000000       0.00000000
Si      21.87104634      21.87104634      21.87104634      -0.00000000      -0.00000000      -0.00000000
Si      23.23798674      23.23798674      23.23798674       0.00000000       0.00000000       0.00000000
Si      24.60492713      24.60492713      21.87104634      -0.00000000      -0.00000000      -0.00000000
Si      25.97186753      25.97186753      23.23798674      -0.00000000      -0.00000000       0.00000000
Si      27.33880793      27.33880793      21.87104634       0.00000000      -0.00000000      -0.00000000
Si      28.70574832      28.70574832      23.23798674       0.00000000       0.00000000       0.00000000
Si      30.07268872      30.07268872      21.87104634       0.00000000       0.00000000      -0.00000000
Si      31.43962912      31.43962912      23.23798674       0.00000000       0.00000000       0.00000000
Si      32.80656951      32.80656951      21.87104634      -0.00000000      -0.00000000      -0.00000000
Si      34.17350991      34.17350991      23.23798674       0.00000000       0.00000000       0.00000000
Si      35.54045031      35.54045031      21.87104634      -0.00000000      -0.00000000      -0.00000000
Si      36.90739070      36.90739070      23.23798674       0.00000000       0.00000000      -0.00000000
Si      13.66940396      10.93552317      24.60492713       0.00000000      -0.00000000      -0.00000000
Si      15.03634436      12.30246357      25.97186753      -0.00000000      -0.00000000      -0.00000000
Si      16.40328476      13.66940396      24.60492713       0.00000000       0.00000000      -0.00000000
Si      17.77022515      15.03634436      25.97186753      -0.00000000      -0.00000000       0.00000000
Si      19.13716555      16.40328476      24.60492713       0.00000000      -0.00000000      -0.00000000
Si      20.50410595      17.77022515      25.97186753       0.00000000       0.00000000      -0.00000000
Si      21.87104634      19.13716555      24.60492713      -0.00000000      -0.00000000      -0.00000000
Si      23.23798674      20.50410595      25.97186753       0.00000000       0.00000000       0.00000000
Si      24.60492713      21.87104634      24.60492713      -0.00000000      -0.00000000      -0.00000000
Si      25.97186753      23.23798674      25.97186753      -0.00000000       0.00000000       0.00000000
Si      27.33880793      24.60492713      24.60492713       0.00000000      -0.00000000      -0.00000000
Si      28.70574832      25.97186753      25.97186753       0.00000000       0.00000000      -0.00000000
Si      30.07268872      27.33880793      24.60492713      -0.00000000       0.00000000      -0.00000000
Si      31.43962912      28.70574832      25.97186753       0.00000000      -0.00000000       0.00000000
Si      32.80656951      30.07268872      24.60492713      -0.00000000       0.00000000      -0.00000000
Si      34.17350991      31.43962912      25.97186753       0.00000000       0.00000000      -0.00000000
Si      35.54045031      32.80656951      24.60492713       0.00000000      -0.00000000      -0.00000000
Si      36.90739070      34.17350991      25.97186753      -0.00000000       0.00000000      -0.00000000
Si      38.27433110      35.54045031      24.60492713       0.00000000      -0.00000000      -0.00000000
Si      39.64127150      36.90739070      25.97186753       0.00000000       0.00000000       0.00000000
Si      16.40328476      10.93552317      27.33880793       0.00000000       0.00000000       0.00000000
Si      17.77022515      12.30246357      28.70574832       0.00000000      -0.00000000      -0.00000000
Si      19.13716555      13.66940396      27.33880793      -0.00000000       0.00000000       0.00000000
Si      20.50410595      15.03634436      28.70574832      -0.00000000      -0.00000000       0.00000000
Si      21.87104634      16.40328476      27.33880793       0.00000000       0.00000000      -0.00000000
Si      23.23798674      17.77022515      28.70574832       0.00000000       0.00000000      -0.00000000
Si      24.60492713      19.13716555      27.33880793      -0.00000000       0.00000000       0.00000000
Si      25.97186753      20.50410595      28.70574832      -0.00000000       0.00000000      -0.00000000
Si      27.33880793      21.87104634      27.33880793      -0.00000000      -0.00000000       0.00000000
Si      28.70574832      23.23798674      28.70574832      -0.00000000       0.00000000       0.00000000
Si      30.07268872      24.60492713      27.33880793       0.00000000       0.00000000       0.00000000
Si      31.43962912      25.97186753      28.70574832      -0.00000000      -0.00000000      -0.00000000
Si      32.80656951      27.33880793      27.33880793      -0.00000000       0.00000000      -0.00000000
Si      34.17350991      28.70574832      28.70574832       0.00000000      -0.00000000      -0.00000000
Si      35.54045031      30.07268872      27.33880793      -0.00000000       0.00000000       0.00000000
Si      36.90739070      31.43962912      28.70574832      -0.00000000       0.00000000      -0.00000000
Si      38.27433110      32.80656951      27.33880793       0.00000000      -0.00000000       0.00000000
Si      39.64127150      34.17350991      28.70574832      -0.00000000       0.00000000      -0.00000000
Si      41.00821189      35.54045031      27.33880793      -0.00000000       0.00000000       0.00000000
Si      42.37515229      36.90739070      28.70574832       0.00000000      -0.00000000      -0.00000000
Si      19.13716555      10.93552317      30.07268872      -0.00000000       0.00000000      -0.00000000
Si      20.50410595      12.30246357      31.43962912       0.00000000      -0.00000000       0.00000000
Si      21.87104634      13.66940396      30.07268872      -0.00000000      -0.00000000       0.00000000
Si      23.23798674      15.03634436      31.43962912       0.00000000       0.00000000       0.00000000
Si      24.60492713      16.40328476      30.07268872      -0.00000000      -0.00000000       0.00000000
Si      25.97186753      17.77022515      31.43962912       0.00000000      -0.00000000       0.00000000
Si      27.33880793      19.13716555      30.07268872       0.00000000      -0.00000000       0.00000000
Si      28.70574832      20.50410595      31.43962912       0.00000000       0.00000000       0.00000000
Si      30.07268872      21.87104634      30.07268872       0.00000000      -0.00000000       0.00000000
Si      31.43962912      23.23798674      31.43962912       0.00000000      -0.00000000       0.00000000
Si      32.80656951      24.60492713      30.07268872      -0.00000000      -0.00000000       0.00000000
Si      34.17350991      25.97186753      31.43962912       0.00000000      -0.00000000       0.00000000
Si      35.54045031      27.33880793      30.07268872      -0.00000000       0.00000000       0.00000000
Si      36.90739070      28.70574832      31.43962912      -0.00000000      -0.00000000       0.00000000
Si      38.27433110      30.07268872      30.07268872       0.00000000      -0.00000000      -0.00000000
Si      39.64127150      31.43962912      31.43962912       0.00000000       0.00000000       0.00000000
Si      41.00821189      32.80656951      30.07268872       0.00000000      -0.00000000       0.00000000
Si      42.37515229      34.17350991      31.43962912       0.00000000       0.00000000       0.00000000
Si      43.74209268      35.54045031      30.07268872      -0.00000000       0.00000000       0.00000000
Si      45.10903308      36.90739070      31.43962912       0.00000000      -0.00000000       0.00000000
Si      21.87104634      10.93552317      32.80656951      -0.00000000       0.00000000      -0.00000000
Si      23.23798674      12.30246357      34.17350991       0.00000000       0.00000000       0.00000000
Si      24.60492713      13.66940396      32.80656951      -0.00000000      -0.00000000      -0.00000000
Si      25.97186753      15.03634436      34.17350991       0.00000000       0.00000000       0.00000000
Si      27.33880793      16.40328476      32.80656951      -0.00000000      -0.00000000      -0.00000000
Si      28.70574832      17.77022515      34.17350991       0.00000000       0.00000000       0.00000000
Si      30.07268872      19.13716555      32.80656951      -0.00000000      -0.00000000      -0.00000000
Si      31.43962912      20.50410595      34.17350991       0.00000000      -0.00000000       0.00000000
Si      32.80656951      21.87104634      32.80656951      -0.00000000       0.00000000      -0.00000000
Si      34.17350991      23.23798674      34.17350991       0.00000000       0.00000000       0.00000000
Si      35.54045031      24.60492713      32.80656951      -0.00000000      -0.00000000      -0.00000000
Si      36.90739070      25.97186753      34.17350991       0.00000000       0.00000000       0.00000000
Si      38.27433110      27.33880793      32.80656951       0.00000000      -0.00000000      -0.00000000
Si      39.64127150      28.70574832      34.17350991      -0.00000000      -0.00000000       0.00000000
Si      41.00821189      30.07268872      32.80656951       0.00000000       0.00000000      -0.00000000
Si      42.37515229      31.43962912      34.17350991       0.00000000      -0.00000000      -0.00000000
Si      43.74209268      32.80656951      32.80656951      -0.00000000      -0.00000000      -0.00000000
Si      45.10903308      34.17350991      34.17350991       0.00000000      -0.00000000      -0.00000000
Si      46.47597348      35.54045031      32.80656951      -0.00000000       0.00000000      -0.00000000
Si      47.84291387      36.90739070      34.17350991      -0.00000000      -0.00000000       0.00000000
Si      24.60492713      10.93552317      35.54045031      -0.00000000       0.00000000      -0.00000000
Si      25.97186753      12.30246357      36.90739070       0.00000000       0.00000000      -0.00000000
Si      27.33880793      13.66940396      35.54045031      -0.00000000       0.00000000      -0.00000000
Si      28.70574832      15.03634436      36.90739070      -0.00000000      -0.00000000      -0.00000000
Si      30.07268872      16.40328476      35.54045031      -0.00000000       0.00000000      -0.00000000
Si      31.43962912      17.77022515      36.90739070       0.00000000       0.00000000      -0.00000000
Si      32.80656951      19.13716555      35.54045031      -0.00000000       0.00000000       0.00000000
Si      34.17350991      20.50410595      36.90739070       0.00000000      -0.00000000      -0.00000000
Si      35.54045031      21.87104634      35.54045031       0.00000000       0.00000000      -0.00000000
Si      36.90739070      23.23798674      36.90739070      -0.00000000       0.00000000      -0.00000000
Si      38.27433110      24.60492713      35.54045031       0.00000000       0.00000000       0.00000000
Si      39.64127150      25.97186753      36.90739070      -0.00000000       0.00000000      -0.00000000
Si      41.00821189      27.33880793      35.54045031       0.00000000       0.00000000       0.00000000
Si      42.37515229      28.70574832      36.90739070      -0.00000000      -0.00000000      -0.00000000
Si      43.74209268      30.07268872      35.54045031      -0.00000000       0.00000000       0.00000000
Si      45.10903308      31.43962912      36.90739070       0.00000000       0.00000000      -0.00000000
Si      46.47597348      32.80656951      35.54045031      -0.00000000      -0.00000000       0.00000000
Si      47.84291387      34.17350991      36.90739070      -0.00000000       0.00000000      -0.00000000
Si      49.20985427      35.54045031      35.54045031      -0.00000000      -0.00000000       0.00000000
Si      50.57679467      36.90739070      36.90739070      -0.00000000      -0.00000000      -0.00000000
Si      -0.00000000      13.66940396      13.66940396       0.00000000       0.00000000       0.00000000
Si       1.36694040      15.03634436      15.03634436       0.00000000      -0.00000000      -0.00000000
Si       2.73388079      16.40328476      13.66940396      -0.00000000       0.00000000       0.00000000
Si       4.10082119      17.77022515      15.03634436      -0.00000000      -0.00000000      -0.00000000
Si       5.46776159      19.13716555      13.66940396       0.00000000      -0.00000000       0.00000000
Si       6.83470198      20.50410595      15.03634436       0.00000000       0.00000000       0.00000000
Si       8.20164238      21.87104634      13.66940396      -0.00000000      -0.00000000       0.00000000
Si       9.56858277      23.23798674      15.03634436       0.00000000       0.00000000      -0.00000000
Si      10.93552317      24.60492713      13.66940396      -0.00000000      -0.00000000       0.00000000
Si      12.30246357      25.97186753      15.03634436      -0.00000000       0.00000000      -0.00000000
Si      13.66940396      27.33880793      13.66940396       0.00000000       0.00000000       0.00000000
Si      15.03634436      28.70574832      15.03634436       0.00000000      -0.00000000      -0.00000000
Si      16.40328476      30.07268872      13.66940396      -0.00000000      -0.00000000       0.00000000
Si      17.77022515      31.43962912      15.03634436       0.00000000       0.00000000       0.00000000
Si      19.13716555      32.80656951      13.66940396      -0.00000000      -0.00000000       0.00000000
Si      20.50410595      34.17350991      15.03634436       0.00000000       0.00000000      -0.00000000
Si      21.87104634      35.54045031      13.66940396      -0.00000000      -0.00000000       0.00000000
Si      23.23798674      36.90739070      15.03634436       0.00000000      -0.00000000       0.00000000
Si      24.60492713      38.27433110      13.66940396       0.00000000       0.00000000       0.00000000
Si      25.97186753      39.64127150      15.03634436      -0.00000000       0.00000000       0.00000000
Si       2.73388079      13.66940396      16.40328476      -0.00000000       0.00000000       0.00000000
Si       4.10082119      15.03634436      17.77022515      -0.00000000      -0.00000000       0.00000000
Si       5.46776159      16.40328476      16.40328476       0.00000000      -0.00000000      -0.00000000
Si       6.83470198      17.77022515      17.77022515      -0.00000000       0.00000000       0.00000000
Si       8.20164238      19.13716555      16.40328476      -0.00000000      -0.00000000      -0.00000000
Si       9.56858277      20.50410595      17.77022515      -0.00000000       0.00000000      -0.00000000
Si      10.93552317      21.87104634      16.40328476      -0.00000000      -0.00000000      -0.00000000
Si      12.30246357      23.23798674      17.77022515      -0.00000000       0.00000000       0.00000000
Si      13.66940396      24.60492713      16.40328476       0.00000000      -0.00000000      -0.00000000
Si      15.03634436      25.97186753      17.77022515       0.00000000       0.00000000       0.00000000
Si      16.40328476      27.33880793      16.40328476      -0.00000000       0.00000000       0.00000000
Si      17.77022515      28.70574832      17.77022515      -0.00000000      -0.00000000       0.00000000
Si      19.13716555      30.07268872      16.40328476       0.00000000       0.00000000      -0.00000000
Si      20.50410595      31.43962912      17.77022515      -0.00000000      -0.00000000      -0.00000000
Si      21.87104634      32.80656951      16.40328476      -0.00000000      -0.00000000      -0.00000000
Si      23.23798674      34.17350991      17.77022515       0.00000000       0.00000000      -0.00000000
Si      24.60492713      35.54045031      16.40328476      -0.00000000       0.00000000      -0.00000000
Si      25.97186753      36.90739070      17.77022515      -0.00000000      -0.00000000       0.00000000
Si      27.33880793      38.27433110      16.40328476       0.00000000       0.00000000      -0.00000000
Si      28.70574832      39.64127150      17.77022515      -0.00000000       0.00000000       0.00000000
Si       5.46776159      13.66940396      19.13716555      -0.00000000      -0.00000000       0.00000000
Si       6.83470198      15.03634436      20.50410595      -0.00000000       0.00000000       0.00000000
Si       8.20164238      16.40328476      19.13716555      -0.00000000      -0.00000000      -0.00000000
Si       9.56858277      17.77022515      20.50410595       0.00000000      -0.00000000       0.00000000
Si      10.93552317      19.13716555      19.13716555       0.00000000      -0.00000000      -0.00000000
Si      12.30246357      20.50410595      20.50410595       0.00000000       0.00000000       0.00000000
Si      13.66940396      21.87104634      19.13716555       0.00000000      -0.00000000       0.00000000
Si      15.03634436      23.23798674      20.50410595       0.00000000       0.00000000       0.00000000
Si      16.40328476      24.60492713      19.13716555      -0.00000000      -0.00000000       0.00000000
Si      17.77022515      25.97186753      20.50410595       0.00000000      -0.00000000       0.00000000
Si      19.13716555      27.33880793      19.13716555      -0.00000000       0.00000000      -0.00000000
Si      20.50410595      28.70574832      20.50410595       0.00000000       0.00000000       0.00000000
Si      21.87104634      30.07268872      19.13716555      -0.00000000      -0.00000000       0.00000000
Si      23.23798674      31.43962912      20.50410595      -0.00000000       0.00000000       0.00000000
Si      24.60492713      32.80656951      19.13716555      -0.00000000      -0.00000000       0.00000000
Si      25.97186753      34.17350991      20.50410595      -0.00000000      -0.00000000       0.00000000
Si      27.33880793      35.54045031      19.13716555       0.00000000       0.00000000      -0.00000000
Si      28.70574832      36.90739070      20.50410595       0.00000000      -0.00000000       0.00000000
Si      30.07268872      38.27433110      19.13716555      -0.00000000      -0.00000000      -0.00000000
Si      31.43962912      39.64127150      20.50410595       0.00000000       0.00000000       0.00000000
Si       8.20164238      13.66940396      21.87104634      -0.00000000       0.00000000      -0.00000000
Si       9.56858277      15.03634436      23.23798674       0.00000000      -0.00000000       0.00000000
Si      10.93552317      16.40328476      21.87104634       0.00000000       0.00000000      -0.00000000
Si      12.30246357      17.77022515      23.23798674      -0.00000000      -0.00000000       0.00000000
Si      13.66940396      19.13716555      21.87104634       0.00000000      -0.00000000      -0.00000000
Si      15.03634436      20.50410595      23.23798674       0.00000000       0.00000000       0.00000000
Si      16.40328476      21.87104634      21.87104634      -0.00000000      -0.00000000      -0.00000000
Si      17.77022515      23.23798674      23.23798674      -0.00000000       0.00000000       0.00000000
Si      19.13716555      24.60492713      21.87104634      -0.00000000      -0.00000000      -0.00000000
Si      20.50410595      25.97186753      23.23798674       0.00000000       0.00000000       0.00000000
Si      21.87104634      27.33880793      21.87104634      -0.00000000       0.00000000      -0.00000000
Si      23.23798674      28.70574832      23.23798674       0.00000000       0.00000000       0.00000000
Si      24.60492713      30.07268872      21.87104634       0.00000000      -0.00000000      -0.00000000
Si      25.97186753      31.43962912      23.23798674      -0.00000000       0.00000000       0.00000000
Si      27.33880793      32.80656951      21.87104634      -0.00000000      -0.00000000      -0.00000000
Si      28.70574832      34.17350991      23.23798674       0.00000000       0.00000000       0.00000000
Si      30.07268872      35.54045031      21.87104634      -0.00000000       0.00000000      -0.00000000
Si      31.43962912      36.90739070      23.23798674       0.00000000      -0.00000000       0.00000000
Si      32.80656951      38.27433110      21.87104634      -0.00000000       0.00000000      -0.00000000
Si      34.17350991      39.64127150      23.23798674       0.00000000       0.00000000       0.00000000
Si      10.93552317      13.66940396      24.60492713      -0.00000000       0.00000000      -0.00000000
Si      12.30246357      15.03634436      25.97186753      -0.00000000      -0.00000000      -0.00000000
Si      13.66940396      16.40328476      24.60492713       0.00000000       0.00000000      -0.00000000
Si      15.03634436      17.77022515      25.97186753      -0.00000000      -0.00000000       0.00000000
Si      16.40328476      19.13716555      24.60492713      -0.00000000       0.00000000      -0.00000000
Si      17.77022515      20.50410595      25.97186753       0.00000000       0.00000000      -0.00000000
Si      19.13716555      21.87104634      24.60492713      -0.00000000      -0.00000000      -0.00000000
Si      20.50410595      23.23798674      25.97186753       0.00000000       0.00000000       0.00000000
Si      21.87104634      24.60492713      24.60492713      -0.00000000      -0.00000000      -0.00000000
Si      23.23798674      25.97186753      25.97186753       0.00000000      -0.00000000      -0.00000000
Si      24.60492713      27.33880793      24.60492713      -0.00000000       0.00000000      -0.00000000
Si      25.97186753      28.70574832      25.97186753       0.00000000       0.00000000      -0.00000000
Si      27.33880793      30.07268872      24.60492713       0.00000000      -0.00000000      -0.00000000
Si      28.70574832      31.43962912      25.97186753      -0.00000000       0.00000000       0.00000000
Si      30.07268872      32.80656951      24.60492713       0.00000000      -0.00000000      -0.00000000
Si      31.43962912      34.17350991      25.97186753       0.00000000       0.00000000      -0.00000000
Si      32.80656951      35.54045031      24.60492713      -0.00000000       0.00000000      -0.00000000
Si      34.17350991      36.90739070      25.97186753       0.00000000      -0.00000000      -0.00000000
Si      35.54045031      38.27433110      24.60492713      -0.00000000       0.00000000      -0.00000000
Si      36.90739070      39.64127150      25.97186753       0.00000000       0.00000000       0.00000000
Si      13.66940396      13.66940396      27.33880793       0.00000000       0.00000000       0.00000000
Si      15.03634436      15.03634436      28.70574832      -0.00000000      -0.00000000      -0.00000000
Si      16.40328476      16.40328476      27.33880793      -0.00000000      -0.00000000       0.00000000
Si      17.77022515      17.77022515      28.70574832       0.00000000       0.00000000      -0.00000000
Si      19.13716555      19.13716555      27.33880793      -0.00000000      -0.00000000       0.00000000
Si      20.50410595      20.50410595      28.70574832       0.00000000       0.00000000      -0.00000000
Si      21.87104634      21.87104634      27.33880793      -0.00000000      -0.00000000       0.00000000
Si      23.23798674      23.23798674      28.70574832       0.00000000       0.00000000      -0.00000000
Si      24.60492713      24.60492713      27.33880793      -0.00000000      -0.00000000       0.00000000
Si      25.97186753      25.97186753      28.70574832      -0.00000000      -0.00000000      -0.00000000
Si      27.33880793      27.33880793      27.33880793       0.00000000       0.00000000       0.00000000
Si      28.70574832      28.70574832      28.70574832      -0.00000000      -0.00000000      -0.00000000
Si      30.07268872      30.07268872      27.33880793      -0.00000000      -0.00000000       0.00000000
Si      31.43962912      31.43962912      28.70574832       0.00000000       0.00000000      -0.00000000
Si      32.80656951      32.80656951      27.33880793      -0.00000000      -0.00000000       0.00000000
Si      34.17350991      34.17350991      28.70574832      -0.00000000      -0.00000000      -0.00000000
Si      35.54045031      35.54045031      27.33880793       0.00000000       0.00000000      -0.00000000
Si      36.90739070      36.90739070      28.70574832      -0.00000000      -0.00000000      -0.00000000
Si      38.27433110      38.27433110      27.33880793       0.00000000       0.00000000       0.00000000
Si      39.64127150      39.64127150      28.70574832       0.00000000       0.00000000       0.00000000
Si      16.40328476      13.66940396      30.07268872      -0.00000000       0.00000000      -0.00000000
Si      17.77022515      15.03634436      31.43962912      -0.00000000      -0.00000000       0.00000000
Si      19.13716555      16.40328476      30.07268872       0.00000000      -0.00000000      -0.00000000
Si      20.50410595      17.77022515      31.43962912      -0.00000000       0.00000000       0.00000000
Si      21.87104634      19.13716555      30.07268872      -0.00000000       0.00000000      -0.00000000
Si      23.23798674      20.50410595      31.43962912       0.00000000       0.00000000       0.00000000
Si      24.60492713      21.87104634      30.07268872      -0.00000000      -0.00000000      -0.00000000
Si      25.97186753      23.23798674      31.43962912      -0.00000000       0.00000000       0.00000000
Si      27.33880793      24.60492713      30.07268872       0.00000000      -0.00000000      -0.00000000
Si      28.70574832      25.97186753      31.43962912      -0.00000000       0.00000000       0.00000000
Si      30.07268872      27.33880793      30.07268872       0.00000000       0.00000000      -0.00000000
Si      31.43962912      28.70574832      31.43962912       0.00000000      -0.00000000       0.00000000
Si      32.80656951      30.07268872      30.07268872      -0.00000000      -0.00000000      -0.00000000
Si      34.17350991      31.43962912      31.43962912      -0.00000000       0.00000000       0.00000000
Si      35.54045031      32.80656951      30.07268872       0.00000000      -0.00000000      -0.00000000
Si      36.90739070      34.17350991      31.43962912      -0.00000000      -0.00000000       0.00000000
Si      38.27433110      35.54045031      30.07268872       0.00000000       0.00000000      -0.00000000
Si      39.64127150      36.90739070      31.43962912       0.00000000       0.00000000       0.00000000
Si      41.00821189      38.27433110      30.07268872      -0.00000000       0.00000000      -0.00000000
Si      42.37515229      39.64127150      31.43962912       0.00000000       0.00000000       0.00000000
Si      19.13716555      13.66940396      32.80656951      -0.00000000       0.00000000      -0.00000000
Si      20.50410595      15.03634436      34.17350991       0.00000000      -0.00000000       0.00000000
Si      21.87104634      16.40328476      32.80656951      -0.00000000      -0.00000000      -0.00000000
Si      23.23798674      17.77022515      34.17350991       0.00000000      -0.00000000       0.00000000
Si      24.60492713      19.13716555      32.80656951      -0.00000000      -0.00000000      -0.00000000
Si      25.97186753      20.50410595      34.17350991       0.00000000       0.00000000      -0.00000000
Si      27.33880793      21.87104634      32.80656951      -0.00000000      -0.00000000      -0.00000000
Si      28.70574832      23.23798674      34.17350991       0.00000000       0.00000000       0.00000000
Si      30.07268872      24.60492713      32.80656951       0.00000000      -0.00000000      -0.00000000
Si      31.43962912      25.97186753      34.17350991       0.00000000      -0.00000000       0.00000000
Si      32.80656951      27.33880793      32.80656951      -0.00000000       0.00000000      -0.00000000
Si      34.17350991      28.70574832      34.17350991       0.00000000       0.00000000       0.00000000
Si      35.54045031      30.07268872      32.80656951       0.00000000      -0.00000000      -0.00000000
Si      36.90739070      31.43962912      34.17350991      -0.00000000       0.00000000       0.00000000
Si      38.27433110      32.80656951      32.80656951       0.00000000      -0.00000000      -0.00000000
Si      39.64127150      34.17350991      34.17350991      -0.00000000      -0.00000000       0.00000000
Si      41.00821189      35.54045031      32.80656951       0.00000000       0.00000000      -0.00000000
Si      42.37515229      36.90739070      34.17350991       0.00000000      -0.00000000       0.00000000
Si      43.74209268      38.27433110      32.80656951      -0.00000000       0.00000000      -0.00000000
Si      45.10903308      39.64127150      34.17350991       0.00000000       0.00000000       0.00000000
Si      21.87104634      13.66940396      35.54045031      -0.00000000       0.00000000      -0.00000000
Si      23.23798674      15.03634436      36.90739070       0.00000000       0.00000000       0.00000000
Si      24.60492713      16.40328476      35.54045031       0.00000000       0.00000000      -0.00000000
Si      25.97186753      17.77022515      36.90739070      -0.00000000      -0.00000000       0.00000000
Si      27.33880793      19.13716555      35.54045031       0.00000000      -0.00000000      -0.00000000
Si      28.70574832      20.50410595      36.90739070       0.00000000       0.00000000       0.00000000
Si      30.07268872      21.87104634      35.54045031      -0.00000000      -0.00000000       0.00000000
Si      31.43962912      23.23798674      36.90739070       0.00000000       0.00000000       0.00000000
Si      32.80656951      24.60492713      35.54045031      -0.00000000       0.00000000      -0.00000000
Si      34.17350991      25.97186753      36.90739070       0.00000000      -0.00000000       0.00000000
Si      35.54045031      27.33880793      35.54045031       0.00000000       0.00000000      -0.00000000
Si      36.90739070      28.70574832      36.90739070      -0.00000000      -0.00000000      -0.00000000
Si      38.27433110      30.07268872      35.54045031       0.00000000      -0.00000000      -0.00000000
Si      39.64127150      31.43962912      36.90739070       0.00000000       0.00000000       0.00000000
Si      41.00821189      32.80656951      35.54045031      -0.00000000      -0.00000000       0.00000000
Si      42.37515229      34.17350991      36.90739070       0.00000000       0.00000000      -0.00000000
Si      43.74209268      35.54045031      35.54045031      -0.00000000       0.00000000       0.00000000
Si      45.10903308      36.90739070      36.90739070       0.00000000      -0.00000000      -0.00000000
Si      46.47597348      38.27433110      35.54045031      -0.00000000      -0.00000000      -0.00000000
Si      47.84291387      39.64127150      36.90739070      -0.00000000       0.00000000       0.00000000
Si      24.60492713      13.66940396      38.27433110      -0.00000000      -0.00000000       0.00000000
Si      25.97186753      15.03634436      39.64127150      -0.00000000       0.00000000       0.00000000
Si      27.33880793      16.40328476      38.27433110      -0.00000000       0.00000000       0.00000000
Si      28.70574832      17.77022515      39.64127150      -0.00000000       0.00000000       0.00000000
Si      30.07268872      19.13716555      38.27433110      -0.00000000       0.00000000       0.00000000
Si      31.43962912      20.50410595      39.64127150      -0.00000000       0.00000000       0.00000000
Si      32.80656951      21.87104634      38.27433110      -0.00000000       0.00000000      -0.00000000
Si      34.17350991      23.23798674      39.64127150       0.00000000       0.00000000       0.00000000
Si      35.54045031      24.60492713      38.27433110      -0.00000000      -0.00000000       0.00000000
Si      36.90739070      25.97186753      39.64127150       0.00000000       0.00000000       0.00000000
Si      38.27433110      27.33880793      38.27433110      -0.00000000      -0.00000000       0.00000000
Si      39.64127150      28.70574832      39.64127150      -0.00000000       0.00000000       0.00000000
Si      41.00821189      30.07268872      38.27433110      -0.00000000       0.00000000       0.00000000
Si      42.37515229      31.43962912      39.64127150      -0.00000000       0.00000000       0.00000000
Si      43.74209268      32.80656951      38.27433110      -0.00000000       0.00000000      -0.00000000
Si      45.10903308      34.17350991      39.64127150       0.00000000       0.00000000      -0.00000000
Si      46.47597348      35.54045031      38.27433110      -0.00000000       0.00000000       0.00000000
Si      47.84291387      36.90739070      39.64127150      -0.00000000      -0.00000000       0.00000000
Si      49.20985427      38.27433110      38.27433110      -0.00000000       0.00000000      -0.00000000
Si      50.57679467      39.64127150      39.64127150       0.00000000       0.00000000       0.00000000
Si      -0.00000000      16.40328476      16.40328476      -0.00000000      -0.00000000      -0.00000000
Si       1.36694040      17.77022515      17.77022515       0.00000000       0.00000000      -0.00000000
Si       2.73388079      19.13716555      16.40328476       0.00000000       0.00000000       0.00000000
Si       4.10082119      20.50410595      17.77022515      -0.00000000      -0.00000000      -0.00000000
Si       5.46776159      21.87104634      16.40328476       0.00000000      -0.00000000      -0.00000000
Si       6.83470198      23.23798674      17.77022515       0.00000000      -0.00000000      -0.00000000
Si       8.20164238      24.60492713      16.40328476      -0.00000000      -0.00000000       0.00000000
Si       9.56858277      25.97186753      17.77022515       0.00000000      -0.00000000       0.00000000
Si      10.93552317      27.33880793      16.40328476       0.00000000       0.00000000      -0.00000000
Si      12.30246357      28.70574832      17.77022515       0.00000000      -0.00000000      -0.00000000
Si      13.66940396      30.07268872      16.40328476      -0.00000000      -0.00000000       0.00000000
Si      15.03634436      31.43962912      17.77022515      -0.00000000       0.00000000      -0.00000000
Si      16.40328476      32.80656951      16.40328476       0.00000000      -0.00000000       0.00000000
Si      17.77022515      34.17350991      17.77022515       0.00000000      -0.00000000      -0.00000000
Si      19.13716555      35.54045031      16.40328476       0.00000000       0.00000000      -0.00000000
Si      20.50410595      36.90739070      17.77022515       0.00000000      -0.00000000      -0.00000000
Si      21.87104634      38.27433110      16.40328476      -0.00000000       0.00000000       0.00000000
Si      23.23798674      39.64127150      17.77022515       0.00000000      -0.00000000      -0.00000000
Si      24.60492713      41.00821189      16.40328476       0.00000000      -0.00000000       0.00000000
Si      25.97186753      42.37515229      17.77022515       0.00000000      -0.00000000       0.00000000
Si       2.73388079      16.40328476      19.13716555       0.00000000       0.00000000       0.00000000
Si       4.10082119      17.77022515      20.50410595      -0.00000000      -0.00000000      -0.00000000
Si       5.46776159      19.13716555      19.13716555       0.00000000       0.00000000       0.00000000
Si       6.83470198      20.50410595      20.50410595       0.00000000      -0.00000000      -0.00000000
Si       8.20164238      21.87104634      19.13716555      -0.00000000      -0.00000000      -0.00000000
Si       9.56858277      23.23798674      20.50410595       0.00000000       0.00000000      -0.00000000
Si      10.93552317      24.60492713      19.13716555      -0.00000000      -0.00000000       0.00000000
Si      12.30246357      25.97186753      20.50410595      -0.00000000      -0.00000000      -0.00000000
Si      13.66940396      27.33880793      19.13716555       0.00000000       0.00000000      -0.00000000
Si      15.03634436      28.70574832      20.50410595      -0.00000000       0.00000000      -0.00000000
Si      16.40328476      30.07268872      19.13716555       0.00000000      -0.00000000       0.00000000
Si      17.77022515      31.43962912      20.50410595       0.00000000       0.00000000      -0.00000000
Si      19.13716555      32.80656951      19.13716555       0.00000000      -0.00000000       0.00000000
Si      20.50410595      34.17350991      20.50410595      -0.00000000      -0.00000000      -0.00000000
Si      21.87104634      35.54045031      19.13716555       0.00000000       0.00000000       0.00000000
Si      23.23798674      36.90739070      20.50410595      -0.00000000      -0.00000000       0.00000000
Si      24.60492713      38.27433110      19.13716555       0.00000000       0.00000000      -0.00000000
Si      25.97186753      39.64127150      20.50410595      -0.00000000      -0.00000000       0.00000000
Si      27.33880793      41.00821189      19.13716555       0.00000000       0.00000000       0.00000000
Si      28.70574832      42.37515229      20.50410595      -0.00000000      -0.00000000      -0.00000000
Si       5.46776159      16.40328476      21.87104634       0.00000000      -0.00000000      -0.00000000
Si       6.83470198      17.77022515      23.23798674       0.00000000      -0.00000000       0.00000000
Si       8.20164238      19.13716555      21.87104634       0.00000000       0.00000000      -0.00000000
Si       9.56858277      20.50410595      23.23798674       0.00000000      -0.00000000       0.00000000
Si      10.93552317      21.87104634      21.87104634       0.00000000      -0.00000000      -0.00000000
Si      12.30246357      23.23798674      23.23798674       0.00000000      -0.00000000       0.00000000
Si      13.66940396      24.60492713      21.87104634       0.00000000      -0.00000000      -0.00000000
Si      15.03634436      25.97186753      23.23798674       0.00000000      -0.00000000       0.00000000
Si      16.40328476      27.33880793      21.87104634       0.00000000       0.00000000      -0.00000000
Si      17.77022515      28.70574832      23.23798674       0.00000000      -0.00000000       0.00000000
Si      19.13716555      30.07268872      21.87104634      -0.00000000      -0.00000000      -0.00000000
Si      20.50410595      31.43962912      23.23798674       0.00000000       0.00000000       0.00000000
Si      21.87104634      32.80656951      21.87104634       0.00000000      -0.00000000      -0.00000000
Si      23.23798674      34.17350991      23.23798674       0.00000000      -0.00000000       0.00000000
Si      24.60492713      35.54045031      21.87104634      -0.00000000      -0.00000000      -0.00000000
Si      25.97186753      36.90739070      23.23798674       0.00000000       0.00000000       0.00000000
Si      27.33880793      38.27433110      21.87104634      -0.00000000       0.00000000       0.00000000
Si      28.70574832      39.64127150      23.23798674       0.00000000      -0.00000000      -0.00000000
Si      30.07268872      41.00821189      21.87104634      -0.00000000      -0.00000000      -0.00000000
Si      31.43962912      42.37515229      23.23798674       0.00000000       0.00000000       0.00000000
Si       8.20164238      16.40328476      24.60492713      -0.00000000      -0.00000000       0.00000000
Si       9.56858277      17.77022515      25.97186753      -0.00000000      -0.00000000      -0.00000000
Si      10.93552317      19.13716555      24.60492713       0.00000000       0.00000000      -0.00000000
Si      12.30246357      20.50410595      25.97186753      -0.00000000      -0.00000000      -0.00000000
Si      13.66940396      21.87104634      24.60492713       0.00000000      -0.00000000      -0.00000000
Si      15.03634436      23.23798674      25.97186753       0.00000000       0.00000000      -0.00000000
Si      16.40328476      24.60492713      24.60492713      -0.00000000      -0.00000000      -0.00000000
Si      17.77022515      25.97186753      25.97186753      -0.00000000       0.00000000      -0.00000000
Si      19.13716555      27.33880793      24.60492713      -0.00000000       0.00000000      -0.00000000
Si      20.50410595      28.70574832      25.97186753       0.00000000       0.00000000      -0.00000000
Si      21.87104634      30.07268872      24.60492713      -0.00000000      -0.00000000      -0.00000000
Si      23.23798674      31.43962912      25.97186753       0.00000000       0.00000000       0.00000000
Si      24.60492713      32.80656951      24.60492713      -0.00000000      -0.00000000      -0.00000000
Si      25.97186753      34.17350991      25.97186753       0.00000000      -0.00000000       0.00000000
Si      27.33880793      35.54045031      24.60492713       0.00000000       0.00000000      -0.00000000
Si      28.70574832      36.90739070      25.97186753      -0.00000000      -0.00000000      -0.00000000
Si      30.07268872      38.27433110      24.60492713      -0.00000000       0.00000000      -0.00000000
Si      31.43962912      39.64127150      25.97186753       0.00000000       0.00000000      -0.00000000
Si      32.80656951      41.00821189      24.60492713      -0.00000000      -0.00000000      -0.00000000
Si      34.17350991      42.37515229      25.97186753       0.00000000       0.00000000      -0.00000000
Si      10.93552317      16.40328476      27.33880793       0.00000000       0.00000000       0.00000000
Si      12.30246357      17.77022515      28.70574832      -0.00000000       0.00000000      -0.00000000
Si      13.66940396      19.13716555      27.33880793       0.00000000      -0.00000000       0.00000000
Si      15.03634436      20.50410595      28.70574832      -0.00000000      -0.00000000       0.00000000
Si      16.40328476      21.87104634      27.33880793       0.00000000       0.00000000      -0.00000000
Si      17.77022515      23.23798674      28.70574832       0.00000000       0.00000000      -0.00000000
Si      19.13716555      24.60492713      27.33880793       0.00000000      -0.00000000       0.00000000
Si      20.50410595      25.97186753      28.70574832       0.00000000      -0.00000000      -0.00000000
Si      21.87104634      27.33880793      27.33880793      -0.00000000      -0.00000000       0.00000000
Si      23.23798674      28.70574832      28.70574832       0.00000000      -0.00000000       0.00000000
Si      24.60492713      30.07268872      27.33880793       0.00000000       0.00000000       0.00000000
Si      25.97186753      31.43962912      28.70574832      -0.00000000      -0.00000000      -0.00000000
Si      27.33880793      32.80656951      27.33880793       0.00000000      -0.00000000      -0.00000000
Si      28.70574832      34.17350991      28.70574832      -0.00000000       0.00000000      -0.00000000
Si      30.07268872      35.54045031      27.33880793       0.00000000      -0.00000000       0.00000000
Si      31.43962912      36.90739070      28.70574832       0.00000000      -0.00000000      -0.00000000
Si      32.80656951      38.27433110      27.33880793      -0.00000000       0.00000000       0.00000000
Si      34.17350991      39.64127150      28.70574832       0.00000000      -0.00000000      -0.00000000
Si      35.54045031      41.00821189      27.33880793       0.00000000      -0.00000000       0.00000000
Si      36.90739070      42.37515229      28.70574832      -0.00000000       0.00000000      -0.00000000
Si      13.66940396      16.40328476      30.07268872       0.00000000      -0.00000000      -0.00000000
Si      15.03634436      17.77022515      31.43962912      -0.00000000      -0.00000000       0.00000000
Si      16.40328476      19.13716555      30.07268872      -0.00000000       0.00000000      -0.00000000
Si      17.77022515      20.50410595      31.43962912       0.00000000      -0.00000000       0.00000000
Si      19.13716555      21.87104634      30.07268872       0.00000000      -0.00000000      -0.00000000
Si      20.50410595      23.23798674      31.43962912       0.00000000       0.00000000       0.00000000
Si      21.87104634      24.60492713      30.07268872      -0.00000000      -0.00000000      -0.00000000
Si      23.23798674      25.97186753      31.43962912       0.00000000      -0.00000000       0.00000000
Si      24.60492713      27.33880793      30.07268872      -0.00000000       0.00000000      -0.00000000
Si      25.97186753      28.70574832      31.43962912       0.00000000      -0.00000000       0.00000000
Si      27.33880793      30.07268872      30.07268872       0.00000000       0.00000000      -0.00000000
Si      28.70574832      31.43962912      31.43962912      -0.00000000       0.00000000       0.00000000
Si      30.07268872      32.80656951      30.07268872      -0.00000000      -0.00000000      -0.00000000
Si      31.43962912      34.17350991      31.43962912       0.00000000      -0.00000000       0.00000000
Si      32.80656951      35.54045031      30.07268872      -0.00000000       0.00000000      -0.00000000
Si      34.17350991      36.90739070      31.43962912      -0.00000000      -0.00000000       0.00000000
Si      35.54045031      38.27433110      30.07268872       0.00000000       0.00000000      -0.00000000
Si      36.90739070      39.64127150      31.43962912       0.00000000       0.00000000       0.00000000
Si      38.27433110      41.00821189      30.07268872       0.00000000      -0.00000000      -0.00000000
Si      39.64127150      42.37515229      31.43962912       0.00000000       0.00000000       0.00000000
Si      16.40328476      16.40328476      32.80656951      -0.00000000      -0.00000000      -0.00000000
Si      17.77022515      17.77022515      34.17350991       0.00000000       0.00000000       0.00000000
Si      19.13716555      19.13716555      32.80656951       0.00000000       0.00000000      -0.00000000
Si      20.50410595      20.50410595      34.17350991      -0.00000000      -0.00000000      -0.00000000
Si      21.87104634      21.87104634      32.80656951       0.00000000       0.00000000      -0.00000000
Si      23.23798674      23.23798674      34.17350991       0.00000000       0.00000000      -0.00000000
Si      24.60492713      24.60492713      32.80656951      -0.00000000      -0.00000000      -0.00000000
Si      25.97186753      25.97186753      34.17350991      -0.00000000      -0.00000000      -0.00000000
Si      27.33880793      27.33880793      32.80656951       0.00000000       0.00000000      -0.00000000
Si      28.70574832      28.70574832      34.17350991      -0.00000000      -0.00000000      -0.00000000
Si      30.07268872      30.07268872      32.80656951      -0.00000000      -0.00000000      -0.00000000
Si      31.43962912      31.43962912      34.17350991       0.00000000       0.00000000       0.00000000
Si      32.80656951      32.80656951      32.80656951      -0.00000000      -0.00000000      -0.00000000
Si      34.17350991      34.17350991      34.17350991       0.00000000       0.00000000       0.00000000
Si      35.54045031      35.54045031      32.80656951       0.00000000       0.00000000      -0.00000000
Si      36.90739070      36.90739070      34.17350991      -0.00000000      -0.00000000      -0.00000000
Si      38.27433110      38.27433110      32.80656951       0.00000000       0.00000000      -0.00000000
Si      39.64127150      39.64127150      34.17350991      -0.00000000      -0.00000000      -0.00000000
Si      41.00821189      41.00821189      32.80656951      -0.00000000      -0.00000000      -0.00000000
Si      42.37515229      42.37515229      34.17350991       0.00000000       0.00000000      -0.00000000
Si      19.13716555      16.40328476      35.54045031      -0.00000000      -0.00000000       0.00000000
Si      20.50410595      17.77022515      36.90739070       0.00000000      -0.00000000      -0.00000000
Si      21.87104634      19.13716555      35.54045031       0.00000000       0.00000000       0.00000000
Si      23.23798674      20.50410595      36.90739070      -0.00000000      -0.00000000      -0.00000000
Si      24.60492713      21.87104634      35.54045031       0.00000000      -0.00000000       0.00000000
Si      25.97186753      23.23798674      36.90739070       0.00000000       0.00000000      -0.00000000
Si      27.33880793      24.60492713      35.54045031      -0.00000000      -0.00000000       0.00000000
Si      28.70574832      25.97186753      36.90739070      -0.00000000      -0.00000000      -0.00000000
Si      30.07268872      27.33880793      35.54045031       0.00000000       0.00000000       0.00000000
Si      31.43962912      28.70574832      36.90739070      -0.00000000      -0.00000000      -0.00000000
Si      32.80656951      30.07268872      35.54045031      -0.00000000      -0.00000000       0.00000000
Si      34.17350991      31.43962912      36.90739070      -0.00000000       0.00000000      -0.00000000
Si      35.54045031      32.80656951      35.54045031       0.00000000      -0.00000000       0.00000000
Si      36.90739070      34.17350991      36.90739070      -0.00000000      -0.00000000      -0.00000000
Si      38.27433110      35.54045031      35.54045031       0.00000000      -0.00000000      -0.00000000
Si      39.64127150      36.90739070      36.90739070       0.00000000      -0.00000000      -0.00000000
Si      41.00821189      38.27433110      35.54045031       0.00000000       0.00000000       0.00000000
Si      42.37515229      39.64127150      36.90739070       0.00000000      -0.00000000      -0.00000000
Si      43.74209268      41.00821189      35.54045031      -0.00000000      -0.00000000       0.00000000
Si      45.10903308      42.37515229      36.90739070       0.00000000       0.00000000      -0.00000000
Si      21.87104634      16.40328476      38.27433110       0.00000000       0.00000000       0.00000000
Si      23.23798674      17.77022515      39.64127150       0.00000000      -0.00000000      -0.00000000
Si      24.60492713      19.13716555      38.27433110       0.00000000       0.00000000       0.00000000
Si      25.97186753      20.50410595      39.64127150      -0.00000000      -0.00000000      -0.00000000
Si      27.33880793      21.87104634      38.27433110       0.00000000      -0.00000000       0.00000000
Si      28.70574832      23.23798674      39.64127150       0.00000000      -0.00000000      -0.00000000
Si      30.07268872      24.60492713      38.27433110       0.00000000       0.00000000       0.00000000
Si      31.43962912      25.97186753      39.64127150      -0.00000000      -0.00000000      -0.00000000
Si      32.80656951      27.33880793      38.27433110      -0.00000000       0.00000000       0.00000000
Si      34.17350991      28.70574832      39.64127150       0.00000000      -0.00000000      -0.00000000
Si      35.54045031      30.07268872      38.27433110      -0.00000000      -0.00000000       0.00000000
Si      36.90739070      31.43962912      39.64127150       0.00000000       0.00000000       0.00000000
Si      38.27433110      32.80656951      38.27433110       0.00000000      -0.00000000       0.00000000
Si      39.64127150      34.17350991      39.64127150      -0.00000000      -0.00000000      -0.00000000
Si      41.00821189      35.54045031      38.27433110       0.00000000       0.00000000       0.00000000
Si      42.37515229      36.90739070      39.64127150       0.00000000      -0.00000000      -0.00000000
Si      43.74209268      38.27433110      38.27433110      -0.00000000       0.00000000       0.00000000
Si      45.10903308      39.64127150      39.64127150       0.00000000      -0.00000000      -0.00000000
Si      46.47597348      41.00821189      38.27433110       0.00000000       0.00000000       0.00000000
Si      47.84291387      42.37515229      39.64127150      -0.00000000      -0.00000000      -0.00000000
Si      24.60492713      16.40328476      41.00821189       0.00000000      -0.00000000      -0.00000000
Si      25.97186753      17.77022515      42.37515229       0.00000000       0.00000000      -0.00000000
Si      27.33880793      19.13716555      41.00821189       0.00000000       0.00000000      -0.00000000
Si      28.70574832      20.50410595      42.37515229      -0.00000000      -0.00000000      -0.00000000
Si      30.07268872      21.87104634      41.00821189       0.00000000      -0.00000000      -0.00000000
Si      31.43962912      23.23798674      42.37515229       0.00000000       0.00000000      -0.00000000
Si      32.80656951      24.60492713      41.00821189      -0.00000000      -0.00000000      -0.00000000
Si      34.17350991      25.97186753      42.37515229       0.00000000      -0.00000000       0.00000000
Si      35.54045031      27.33880793      41.00821189       0.00000000       0.00000000      -0.00000000
Si      36.90739070      28.70574832      42.37515229      -0.00000000      -0.00000000       0.00000000
Si      38.27433110      30.07268872      41.00821189       0.00000000      -0.00000000      -0.00000000
Si      39.64127150      31.43962912      42.37515229       0.00000000       0.00000000       0.00000000
Si      41.00821189      32.80656951      41.00821189       0.00000000      -0.00000000      -0.00000000
Si      42.37515229      34.17350991      42.37515229      -0.00000000       0.00000000      -0.00000000
Si      43.74209268      35.54045031      41.00821189      -0.00000000      -0.00000000      -0.00000000
Si      45.10903308      36.90739070      42.37515229       0.00000000      -0.00000000      -0.00000000
Si      46.47597348      38.27433110      41.00821189      -0.00000000       0.00000000      -0.00000000
Si      47.84291387      39.64127150      42.37515229       0.00000000       0.00000000      -0.00000000
Si      49.20985427      41.00821189      41.00821189       0.00000000      -0.00000000      -0.00000000
Si      50.57679467      42.37515229      42.37515229      -0.00000000       0.00000000      -0.00000000
Si      -0.00000000      19.13716555      19.13716555       0.00000000      -0.00000000      -0.00000000
Si       1.36694040      20.50410595      20.50410595       0.00000000       0.00000000       0.00000000
Si       2.73388079      21.87104634      19.13716555      -0.00000000      -0.00000000      -0.00000000
Si       4.10082119      23.23798674      20.50410595      -0.00000000       0.00000000       0.00000000
Si       5.46776159      24.60492713      19.13716555      -0.00000000      -0.00000000      -0.00000000
Si       6.83470198      25.97186753      20.50410595      -0.00000000       0.00000000       0.00000000
Si       8.20164238      27.33880793      19.13716555      -0.00000000      -0.00000000      -0.00000000
Si       9.56858277      28.70574832      20.50410595      -0.00000000       0.00000000       0.00000000
Si      10.93552317      30.07268872      19.13716555       0.00000000      -0.00000000       0.00000000
Si      12.30246357      31.43962912      20.50410595      -0.00000000       0.00000000       0.00000000
Si      13.66940396      32.80656951      19.13716555       0.00000000      -0.00000000      -0.00000000
Si      15.03634436      34.17350991      20.50410595      -0.00000000       0.00000000       0.00000000
Si      16.40328476      35.54045031      19.13716555      -0.00000000      -0.00000000      -0.00000000
Si      17.77022515      36.90739070      20.50410595       0.00000000      -0.00000000       0.00000000
Si      19.13716555      38.27433110      19.13716555      -0.00000000      -0.00000000      -0.00000000
Si      20.50410595      39.64127150      20.50410595       0.00000000       0.00000000       0.00000000
Si      21.87104634      41.00821189      19.13716555      -0.00000000      -0.00000000       0.00000000
Si      23.23798674      42.37515229      20.50410595      -0.00000000       0.00000000       0.00000000
Si      24.60492713      43.74209268      19.13716555      -0.00000000      -0.00000000       0.00000000
Si      25.97186753      45.10903308      20.50410595      -0.00000000       0.00000000       0.00000000
Si       2.73388079      19.13716555      21.87104634      -0.00000000      -0.00000000      -0.00000000
Si       4.10082119      20.50410595      23.23798674      -0.00000000       0.00000000       0.00000000
Si       5.46776159      21.87104634      21.87104634      -0.00000000      -0.00000000      -0.00000000
Si       6.83470198      23.23798674      23.23798674      -0.00000000       0.00000000       0.00000000
Si       8.20164238      24.60492713      21.87104634      -0.00000000      -0.00000000      -0.00000000
Si       9.56858277      25.97186753      23.23798674       0.00000000       0.00000000       0.00000000
Si      10.93552317      27.33880793      21.87104634      -0.00000000      -0.00000000      -0.00000000
Si      12.30246357      28.70574832      23.23798674      -0.00000000       0.00000000       0.00000000
Si      13.66940396      30.07268872      21.87104634       0.00000000       0.00000000      -0.00000000
Si      15.03634436      31.43962912      23.23798674      -0.00000000       0.00000000       0.00000000
Si      16.40328476      32.80656951      21.87104634      -0.00000000      -0.00000000      -0.00000000
Si      17.77022515      34.17350991      23.23798674       0.00000000       0.00000000       0.00000000
Si      19.13716555      35.54045031      21.87104634       0.00000000       0.00000000       0.00000000
Si      20.50410595      36.90739070      23.23798674      -0.00000000      -0.00000000       0.00000000
Si      21.87104634      38.27433110      21.87104634      -0.00000000       0.00000000      -0.00000000
Si      23.23798674      39.64127150      23.23798674       0.00000000       0.00000000       0.00000000
Si      24.60492713      41.00821189      21.87104634       0.00000000       0.00000000       0.00000000
Si      25.97186753      42.37515229      23.23798674      -0.00000000       0.00000000       0.00000000
Si      27.33880793      43.74209268      21.87104634      -0.00000000      -0.00000000      -0.00000000
Si      28.70574832      45.10903308      23.23798674      -0.00000000       0.00000000       0.00000000
Si       5.46776159      19.13716555      24.60492713       0.00000000      -0.00000000      -0.00000000
Si       6.83470198      20.50410595      25.97186753      -0.00000000       0.00000000       0.00000000
Si       8.20164238      21.87104634      24.60492713      -0.00000000      -0.00000000       0.00000000
Si       9.56858277      23.23798674      25.97186753      -0.00000000       0.00000000       0.00000000
Si      10.93552317      24.60492713      24.60492713       0.00000000       0.00000000      -0.00000000
Si      12.30246357      25.97186753      25.97186753       0.00000000       0.00000000       0.00000000
Si      13.66940396      27.33880793      24.60492713       0.00000000      -0.00000000       0.00000000
Si      15.03634436      28.70574832      25.97186753      -0.00000000       0.00000000       0.00000000
Si      16.40328476      30.07268872      24.60492713      -0.00000000       0.00000000      -0.00000000
Si      17.77022515      31.43962912      25.97186753       0.00000000       0.00000000       0.00000000
Si      19.13716555      32.80656951      24.60492713      -0.00000000      -0.00000000       0.00000000
Si      20.50410595      34.17350991      25.97186753       0.00000000       0.00000000      -0.00000000
Si      21.87104634      35.54045031      24.60492713       0.00000000       0.00000000       0.00000000
Si      23.23798674      36.90739070      25.97186753      -0.00000000      -0.00000000      -0.00000000
Si      24.60492713      38.27433110      24.60492713       0.00000000       0.00000000      -0.00000000
Si      25.97186753      39.64127150      25.97186753       0.00000000      -0.00000000       0.00000000
Si      27.33880793      41.00821189      24.60492713      -0.00000000       0.00000000       0.00000000
Si      28.70574832      42.37515229      25.97186753       0.00000000       0.00000000       0.00000000
Si      30.07268872      43.74209268      24.60492713      -0.00000000      -0.00000000       0.00000000
Si      31.43962912      45.10903308      25.97186753       0.00000000       0.00000000       0.00000000
Si       8.20164238      19.13716555      27.33880793      -0.00000000      -0.00000000      -0.00000000
Si       9.56858277      20.50410595      28.70574832       0.00000000       0.00000000       0.00000000
Si      10.93552317      21.87104634      27.33880793      -0.00000000      -0.00000000       0.00000000
Si      12.30246357      23.23798674      28.70574832      -0.00000000       0.00000000       0.00000000
Si      13.66940396      24.60492713      27.33880793      -0.00000000       0.00000000      -0.00000000
Si      15.03634436      25.97186753      28.70574832      -0.00000000       0.00000000       0.00000000
Si      16.40328476      27.33880793      27.33880793      -0.00000000       0.00000000       0.00000000
Si      17.77022515      28.70574832      28.70574832      -0.00000000      -0.00000000      -0.00000000
Si      19.13716555      30.07268872      27.33880793      -0.00000000       0.00000000       0.00000000
Si      20.50410595      31.43962912      28.70574832       0.00000000       0.00000000      -0.00000000
Si      21.87104634      32.80656951      27.33880793       0.00000000      -0.00000000       0.00000000
Si      23.23798674      34.17350991      28.70574832      -0.00000000       0.00000000      -0.00000000
Si      24.60492713      35.54045031      27.33880793       0.00000000       0.00000000       0.00000000
Si      25.97186753      36.90739070      28.70574832      -0.00000000      -0.00000000      -0.00000000
Si      27.33880793      38.27433110      27.33880793      -0.00000000       0.00000000      -0.00000000
Si      28.70574832      39.64127150      28.70574832      -0.00000000      -0.00000000       0.00000000
Si      30.07268872      41.00821189      27.33880793       0.00000000       0.00000000      -0.00000000
Si      31.43962912      42.37515229      28.70574832       0.00000000       0.00000000       0.00000000
Si      32.80656951      43.74209268      27.33880793      -0.00000000      -0.00000000       0.00000000
Si      34.17350991      45.10903308      28.70574832      -0.00000000       0.00000000       0.00000000
Si      10.93552317      19.13716555      30.07268872       0.00000000      -0.00000000       0.00000000
Si      12.30246357      20.50410595      31.43962912      -0.00000000       0.00000000       0.00000000
Si      13.66940396      21.87104634      30.07268872      -0.00000000      -0.00000000       0.00000000
Si      15.03634436      23.23798674      31.43962912       0.00000000       0.00000000       0.00000000
Si      16.40328476      24.60492713      30.07268872      -0.00000000      -0.00000000       0.00000000
Si      17.77022515      25.97186753      31.43962912      -0.00000000       0.00000000       0.00000000
Si      19.13716555      27.33880793      30.07268872      -0.00000000       0.00000000       0.00000000
Si      20.50410595      28.70574832      31.43962912       0.00000000       0.00000000       0.00000000
Si      21.87104634      30.07268872      30.07268872      -0.00000000       0.00000000       0.00000000
Si      23.23798674      31.43962912      31.43962912      -0.00000000       0.00000000       0.00000000
Si      24.60492713      32.80656951      30.07268872      -0.00000000      -0.00000000       0.00000000
Si      25.97186753      34.17350991      31.43962912      -0.00000000       0.00000000       0.00000000
Si      27.33880793      35.54045031      30.07268872       0.00000000      -0.00000000       0.00000000
Si      28.70574832      36.90739070      31.43962912      -0.00000000      -0.00000000       0.00000000
Si      30.07268872      38.27433110      30.07268872      -0.00000000       0.00000000      -0.00000000
Si      31.43962912      39.64127150      31.43962912       0.00000000       0.00000000       0.00000000
Si      32.80656951      41.00821189      30.07268872      -0.00000000       0.00000000       0.00000000
Si      34.17350991      42.37515229      31.43962912       0.00000000       0.00000000       0.00000000
Si      35.54045031      43.74209268      30.07268872       0.00000000      -0.00000000       0.00000000
Si      36.90739070      45.10903308      31.43962912      -0.00000000       0.00000000       0.00000000
Si      13.66940396      19.13716555      32.80656951       0.00000000      -0.00000000      -0.00000000
Si      15.03634436      20.50410595      34.17350991      -0.00000000       0.00000000       0.00000000
Si      16.40328476      21.87104634      32.80656951      -0.00000000      -0.00000000      -0.00000000
Si      17.77022515      23.23798674      34.17350991      -0.00000000       0.00000000       0.00000000
Si      19.13716555      24.60492713      32.80656951      -0.00000000      -0.00000000      -0.00000000
Si      20.50410595      25.97186753      34.17350991       0.00000000       0.00000000      -0.00000000
Si      21.87104634      27.33880793      32.80656951      -0.00000000      -0.00000000      -0.00000000
Si      23.23798674      28.70574832      34.17350991       0.00000000       0.00000000       0.00000000
Si      24.60492713      30.07268872      32.80656951      -0.00000000       0.00000000      -0.00000000
Si      25.97186753      31.43962912      34.17350991      -0.00000000       0.00000000       0.00000000
Si      27.33880793      32.80656951      32.80656951       0.00000000      -0.00000000      -0.00000000
Si      28.70574832      34.17350991      34.17350991       0.00000000       0.00000000       0.00000000
Si      30.07268872      35.54045031      32.80656951      -0.00000000       0.00000000      -0.00000000
Si      31.43962912      36.90739070      34.17350991       0.00000000      -0.00000000       0.00000000
Si      32.80656951      38.27433110      32.80656951      -0.00000000       0.00000000      -0.00000000
Si      34.17350991      39.64127150      34.17350991      -0.00000000      -0.00000000       0.00000000
Si      35.54045031      41.00821189      32.80656951       0.00000000       0.00000000      -0.00000000
Si      36.90739070      42.37515229      34.17350991      -0.00000000       0.00000000       0.00000000
Si      38.27433110      43.74209268      32.80656951       0.00000000      -0.00000000      -0.00000000
Si      39.64127150      45.10903308      34.17350991       0.00000000       0.00000000       0.00000000
Si      16.40328476      19.13716555      35.54045031      -0.00000000      -0.00000000       0.00000000
Si      17.77022515      20.50410595      36.90739070      -0.00000000       0.00000000      -0.00000000
Si      19.13716555      21.87104634      35.54045031       0.00000000       0.00000000       0.00000000
Si      20.50410595      23.23798674      36.90739070      -0.00000000      -0.00000000      -0.00000000
Si      21.87104634      24.60492713      35.54045031      -0.00000000       0.00000000       0.00000000
Si      23.23798674      25.97186753      36.90739070       0.00000000       0.00000000      -0.00000000
Si      24.60492713      27.33880793      35.54045031      -0.00000000      -0.00000000       0.00000000
Si      25.97186753      28.70574832      36.90739070      -0.00000000      -0.00000000      -0.00000000
Si      27.33880793      30.07268872      35.54045031       0.00000000       0.00000000       0.00000000
Si      28.70574832      31.43962912      36.90739070      -0.00000000      -0.00000000      -0.00000000
Si      30.07268872      32.80656951      35.54045031      -0.00000000      -0.00000000       0.00000000
Si      31.43962912      34.17350991      36.90739070       0.00000000      -0.00000000      -0.00000000
Si      32.80656951      35.54045031      35.54045031      -0.00000000       0.00000000       0.00000000
Si      34.17350991      36.90739070      36.90739070      -0.00000000      -0.00000000      -0.00000000
Si      35.54045031      38.27433110      35.54045031      -0.00000000       0.00000000      -0.00000000
Si      36.90739070      39.64127150      36.90739070      -0.00000000       0.00000000      -0.00000000
Si      38.27433110      41.00821189      35.54045031       0.00000000       0.00000000       0.00000000
Si      39.64127150      42.37515229      36.90739070      -0.00000000       0.00000000      -0.00000000
Si      41.00821189      43.74209268      35.54045031      -0.00000000      -0.00000000       0.00000000
Si      42.37515229      45.10903308      36.90739070       0.00000000       0.00000000      -0.00000000
Si      19.13716555      19.13716555      38.27433110      -0.00000000      -0.00000000       0.00000000
Si      20.50410595      20.50410595      39.64127150       0.00000000       0.00000000       0.00000000
Si      21.87104634      21.87104634      38.27433110      -0.00000000      -0.00000000       0.00000000
Si      23.23798674      23.23798674      39.64127150       0.00000000       0.00000000       0.00000000
Si      24.60492713      24.60492713      38.27433110      -0.00000000      -0.00000000       0.00000000
Si      25.97186753      25.97186753      39.64127150       0.00000000       0.00000000       0.00000000
Si      27.33880793      27.33880793      38.27433110      -0.00000000      -0.00000000       0.00000000
Si      28.70574832      28.70574832      39.64127150      -0.00000000       0.00000000       0.00000000
Si      30.07268872      30.07268872      38.27433110       0.00000000       0.00000000       0.00000000
Si      31.43962912      31.43962912      39.64127150       0.00000000       0.00000000       0.00000000
Si      32.80656951      32.80656951      38.27433110      -0.00000000      -0.00000000       0.00000000
Si      34.17350991      34.17350991      39.64127150       0.00000000       0.00000000       0.00000000
Si      35.54045031      35.54045031      38.27433110       0.00000000       0.00000000       0.00000000
Si      36.90739070      36.90739070      39.64127150      -0.00000000      -0.00000000       0.00000000
Si      38.27433110      38.27433110      38.27433110       0.00000000       0.00000000       0.00000000
Si      39.64127150      39.64127150      39.64127150      -0.00000000      -0.00000000      -0.00000000
Si      41.00821189      41.00821189      38.27433110       0.00000000       0.00000000       0.00000000
Si      42.37515229      42.37515229      39.64127150       0.00000000       0.00000000       0.00000000
Si      43.74209268      43.74209268      38.27433110      -0.00000000      -0.00000000       0.00000000
Si      45.10903308      45.10903308      39.64127150       0.00000000       0.00000000       0.00000000
Si      21.87104634      19.13716555      41.00821189       0.00000000       0.00000000      -0.00000000
Si      23.23798674      20.50410595      42.37515229       0.00000000       0.00000000       0.00000000
Si      24.60492713      21.87104634      41.00821189      -0.00000000       0.00000000       0.00000000
Si      25.97186753      23.23798674      42.37515229      -0.00000000       0.00000000       0.00000000
Si      27.33880793      24.60492713      41.00821189      -0.00000000       0.00000000       0.00000000
Si      28.70574832      25.97186753      42.37515229      -0.00000000       0.00000000       0.00000000
Si      30.07268872      27.33880793      41.00821189       0.00000000       0.00000000       0.00000000
Si      31.43962912      28.70574832      42.37515229      -0.00000000      -0.00000000       0.00000000
Si      32.80656951      30.07268872      41.00821189      -0.00000000       0.00000000       0.00000000
Si      34.17350991      31.43962912      42.37515229      -0.00000000       0.00000000       0.00000000
Si      35.54045031      32.80656951      41.00821189       0.00000000      -0.00000000       0.00000000
Si      36.90739070      34.17350991      42.37515229      -0.00000000       0.00000000       0.00000000
Si      38.27433110      35.54045031      41.00821189       0.00000000       0.00000000       0.00000000
Si      39.64127150      36.90739070      42.37515229       0.00000000      -0.00000000       0.00000000
Si      41.00821189      38.27433110      41.00821189       0.00000000       0.00000000       0.00000000
Si      42.37515229      39.64127150      42.37515229      -0.00000000      -0.00000000       0.00000000
Si      43.74209268      41.00821189      41.00821189       0.00000000       0.00000000      -0.00000000
Si      45.10903308      42.37515229      42.37515229       0.00000000       0.00000000       0.00000000
Si      46.47597348      43.74209268      41.00821189      -0.00000000      -0.00000000       0.00000000
Si      47.84291387      45.10903308      42.37515229      -0.00000000       0.00000000       0.00000000
Si      24.60492713      19.13716555      43.74209268      -0.00000000       0.00000000      -0.00000000
Si      25.97186753      20.50410595      45.10903308      -0.00000000       0.00000000       0.00000000
Si      27.33880793      21.87104634      43.74209268      -0.00000000      -0.00000000      -0.00000000
Si      28.70574832      23.23798674      45.10903308      -0.00000000       0.00000000       0.00000000
Si      30.07268872      24.60492713      43.74209268      -0.00000000      -0.00000000      -0.00000000
Si      31.43962912      25.97186753      45.10903308       0.00000000       0.00000000       0.00000000
Si      32.80656951      27.33880793      43.74209268      -0.00000000      -0.00000000      -0.00000000
Si      34.17350991      28.70574832      45.10903308       0.00000000       0.00000000       0.00000000
Si      35.54045031      30.07268872      43.74209268      -0.00000000       0.00000000       0.00000000
Si      36.90739070      31.43962912      45.10903308      -0.00000000       0.00000000       0.00000000
Si      38.27433110      32.80656951      43.74209268       0.00000000      -0.00000000      -0.00000000
Si      39.64127150      34.17350991      45.10903308      -0.00000000       0.00000000       0.00000000
Si      41.00821189      35.54045031      43.74209268      -0.00000000       0.00000000      -0.00000000
Si      42.37515229      36.90739070      45.10903308       0.00000000      -0.00000000       0.00000000
Si      43.74209268      38.27433110      43.74209268      -0.00000000       0.00000000      -0.00000000
Si      45.10903308      39.64127150      45.10903308       0.00000000       0.00000000      -0.00000000
Si      46.47597348      41.00821189      43.74209268      -0.00000000      -0.00000000      -0.00000000
Si      47.84291387      42.37515229      45.10903308      -0.00000000       0.00000000       0.00000000
Si      49.20985427      43.74209268      43.74209268      -0.00000000      -0.00000000      -0.00000000
Si      50.57679467      45.10903308      45.10903308      -0.00000000       0.00000000       0.00000000
Si      -0.00000000      21.87104634      21.87104634       0.00000000      -0.00000000      -0.00000000
Si       1.36694040      23.23798674      23.23798674       0.00000000       0.00000000       0.00000000
Si       2.73388079      24.60492713      21.87104634       0.00000000      -0.00000000      -0.00000000
Si       4.10082119      25.97186753      23.23798674      -0.00000000      -0.00000000       0.00000000
Si       5.46776159      27.33880793      21.87104634       0.00000000      -0.00000000      -0.00000000
Si       6.83470198      28.70574832      23.23798674       0.00000000       0.00000000       0.00000000
Si       8.20164238      30.07268872      21.87104634       0.00000000      -0.00000000       0.00000000
Si       9.56858277      31.43962912      23.23798674      -0.00000000      -0.00000000       0.00000000
Si      10.93552317      32.80656951      21.87104634       0.00000000      -0.00000000      -0.00000000
Si      12.30246357      34.17350991      23.23798674       0.00000000       0.00000000       0.00000000
Si      13.66940396      35.54045031      21.87104634       0.00000000      -0.00000000      -0.00000000
Si      15.03634436      36.90739070      23.23798674       0.00000000       0.00000000       0.00000000
Si      16.40328476      38.27433110      21.87104634       0.00000000       0.00000000       0.00000000
Si      17.77022515      39.64127150      23.23798674      -0.00000000      -0.00000000       0.00000000
Si      19.13716555      41.00821189      21.87104634       0.00000000      -0.00000000      -0.00000000
Si      20.50410595      42.37515229      23.23798674       0.00000000       0.00000000      -0.00000000
Si      21.87104634      43.74209268      21.87104634      -0.00000000      -0.00000000       0.00000000
Si      23.23798674      45.10903308      23.23798674       0.00000000       0.00000000       0.00000000
Si      24.60492713      46.47597348      21.87104634      -0.00000000      -0.00000000      -0.00000000
Si      25.97186753      47.84291387      23.23798674       0.00000000       0.00000000       0.00000000
Si       2.73388079      21.87104634      24.60492713      -0.00000000      -0.00000000      -0.00000000
Si       4.10082119      23.23798674      25.97186753       0.00000000       0.00000000       0.00000000
Si       5.46776159      24.60492713      24.60492713       0.00000000      -0.00000000      -0.00000000
Si       6.83470198      25.97186753      25.97186753      -0.00000000       0.00000000       0.00000000
Si       8.20164238      27.33880793      24.60492713      -0.00000000      -0.00000000      -0.00000000
Si       9.56858277      28.70574832      25.97186753       0.00000000       0.00000000       0.00000000
Si      10.93552317      30.07268872      24.60492713       0.00000000       0.00000000       0.00000000
Si      12.30246357      31.43962912      25.97186753      -0.00000000       0.00000000      -0.00000000
Si      13.66940396      32.80656951      24.60492713       0.00000000      -0.00000000      -0.00000000
Si      15.03634436      34.17350991      25.97186753      -0.00000000      -0.00000000       0.00000000
Si      16.40328476      35.54045031      24.60492713      -0.00000000       0.00000000      -0.00000000
Si      17.77022515      36.90739070      25.97186753       0.00000000      -0.00000000       0.00000000
Si      19.13716555      38.27433110      24.60492713      -0.00000000       0.00000000      -0.00000000
Si      20.50410595      39.64127150      25.97186753       0.00000000       0.00000000       0.00000000
Si      21.87104634      41.00821189      24.60492713      -0.00000000      -0.00000000      -0.00000000
Si      23.23798674      42.37515229      25.97186753       0.00000000       0.00000000       0.00000000
Si      24.60492713      43.74209268      24.60492713       0.00000000      -0.00000000      -0.00000000
Si      25.97186753      45.10903308      25.97186753       0.00000000       0.00000000       0.00000000
Si      27.33880793      46.47597348      24.60492713      -0.00000000      -0.00000000      -0.00000000
Si      28.70574832      47.84291387      25.97186753      -0.00000000       0.00000000       0.00000000
Si       5.46776159      21.87104634      27.33880793       0.00000000      -0.00000000      -0.00000000
Si       6.83470198      23.23798674      28.70574832       0.00000000       0.00000000       0.00000000
Si       8.20164238      24.60492713      27.33880793      -0.00000000      -0.00000000       0.00000000
Si       9.56858277      25.97186753      28.70574832      -0.00000000       0.00000000       0.00000000
Si      10.93552317      27.33880793      27.33880793       0.00000000      -0.00000000      -0.00000000
Si      12.30246357      28.70574832      28.70574832      -0.00000000       0.00000000       0.00000000
Si      13.66940396      30.07268872      27.33880793       0.00000000      -0.00000000       0.00000000
Si      15.03634436      31.43962912      28.70574832       0.00000000       0.00000000      -0.00000000
Si      16.40328476      32.80656951      27.33880793      -0.00000000      -0.00000000      -0.00000000
Si      17.77022515      34.17350991      28.70574832       0.00000000       0.00000000       0.00000000
Si      19.13716555      35.54045031      27.33880793      -0.00000000       0.00000000       0.00000000
Si      20.50410595      36.90739070      28.70574832      -0.00000000      -0.00000000      -0.00000000
Si      21.87104634      38.27433110      27.33880793      -0.00000000       0.00000000       0.00000000
Si      23.23798674      39.64127150      28.70574832       0.00000000       0.00000000       0.00000000
Si      24.60492713      41.00821189      27.33880793       0.00000000       0.00000000       0.00000000
Si      25.97186753      42.37515229      28.70574832      -0.00000000      -0.00000000      -0.00000000
Si      27.33880793      43.74209268      27.33880793       0.00000000      -0.00000000      -0.00000000
Si      28.70574832      45.10903308      28.70574832      -0.00000000       0.00000000      -0.00000000
Si      30.07268872      46.47597348      27.33880793       0.00000000      -0.00000000       0.00000000
Si      31.43962912      47.84291387      28.70574832      -0.00000000      -0.00000000       0.00000000
Si       8.20164238      21.87104634      30.07268872      -0.00000000      -0.00000000      -0.00000000
Si       9.56858277      23.23798674      31.43962912      -0.00000000       0.00000000       0.00000000
Si      10.93552317      24.60492713      30.07268872       0.00000000      -0.00000000      -0.00000000
Si      12.30246357      25.97186753      31.43962912       0.00000000       0.00000000       0.00000000
Si      13.66940396      27.33880793      30.07268872       0.00000000      -0.00000000      -0.00000000
Si      15.03634436      28.70574832      31.43962912      -0.00000000      -0.00000000       0.00000000
Si      16.40328476      30.07268872      30.07268872      -0.00000000      -0.00000000      -0.00000000
Si      17.77022515      31.43962912      31.43962912       0.00000000       0.00000000       0.00000000
Si      19.13716555      32.80656951      30.07268872      -0.00000000      -0.00000000      -0.00000000
Si      20.50410595      34.17350991      31.43962912      -0.00000000       0.00000000       0.00000000
Si      21.87104634      35.54045031      30.07268872       0.00000000       0.00000000       0.00000000
Si      23.23798674      36.90739070      31.43962912       0.00000000      -0.00000000       0.00000000
Si      24.60492713      38.27433110      30.07268872      -0.00000000       0.00000000      -0.00000000
Si      25.97186753      39.64127150      31.43962912      -0.00000000      -0.00000000       0.00000000
Si      27.33880793      41.00821189      30.07268872      -0.00000000       0.00000000      -0.00000000
Si      28.70574832      42.37515229      31.43962912       0.00000000       0.00000000       0.00000000
Si      30.07268872      43.74209268      30.07268872       0.00000000      -0.00000000      -0.00000000
Si      31.43962912      45.10903308      31.43962912       0.00000000       0.00000000       0.00000000
Si      32.80656951      46.47597348      30.07268872      -0.00000000      -0.00000000      -0.00000000
Si      34.17350991      47.84291387      31.43962912       0.00000000       0.00000000       0.00000000
Si      10.93552317      21.87104634      32.80656951       0.00000000      -0.00000000      -0.00000000
Si      12.30246357      23.23798674      34.17350991       0.00000000       0.00000000       0.00000000
Si      13.66940396      24.60492713      32.80656951      -0.00000000      -0.00000000      -0.00000000
Si      15.03634436      25.97186753      34.17350991       0.00000000       0.00000000       0.00000000
Si      16.40328476      27.33880793      32.80656951      -0.00000000      -0.00000000      -0.00000000
Si      17.77022515      28.70574832      34.17350991       0.00000000       0.00000000       0.00000000
Si      19.13716555      30.07268872      32.80656951      -0.00000000      -0.00000000      -0.00000000
Si      20.50410595      31.43962912      34.17350991      -0.00000000       0.00000000       0.00000000
Si      21.87104634      32.80656951      32.80656951       0.00000000      -0.00000000      -0.00000000
Si      23.23798674      34.17350991      34.17350991       0.00000000       0.00000000       0.00000000
Si      24.60492713      35.54045031      32.80656951      -0.00000000      -0.00000000      -0.00000000
Si      25.97186753      36.90739070      34.17350991       0.00000000       0.00000000       0.00000000
Si      27.33880793      38.27433110      32.80656951      -0.00000000       0.00000000      -0.00000000
Si      28.70574832      39.64127150      34.17350991      -0.00000000      -0.00000000       0.00000000
Si      30.07268872      41.00821189      32.80656951       0.00000000       0.00000000      -0.00000000
Si      31.43962912      42.37515229      34.17350991      -0.00000000       0.00000000      -0.00000000
Si      32.80656951      43.74209268      32.80656951      -0.00000000      -0.00000000      -0.00000000
Si      34.17350991      45.10903308      34.17350991      -0.00000000       0.00000000      -0.00000000
Si      35.54045031      46.47597348      32.80656951       0.00000000      -0.00000000      -0.00000000
Si      36.90739070      47.84291387      34.17350991      -0.00000000      -0.00000000       0.00000000
Si      13.66940396      21.87104634      35.54045031       0.00000000      -0.00000000      -0.00000000
Si      15.03634436      23.23798674      36.90739070       0.00000000       0.00000000       0.00000000
Si      16.40328476      24.60492713      35.54045031       0.00000000       0.00000000      -0.00000000
Si      17.77022515      25.97186753      36.90739070      -0.00000000      -0.00000000       0.00000000
Si      19.13716555      27.33880793      35.54045031      -0.00000000       0.00000000      -0.00000000
Si      20.50410595      28.70574832      36.90739070       0.00000000       0.00000000       0.00000000
Si      21.87104634      30.07268872      35.54045031      -0.00000000      -0.00000000       0.00000000
Si      23.23798674      31.43962912      36.90739070       0.00000000       0.00000000       0.00000000
Si      24.60492713      32.80656951      35.54045031       0.00000000      -0.00000000      -0.00000000
Si      25.97186753      34.17350991      36.90739070      -0.00000000       0.00000000       0.00000000
Si      27.33880793      35.54045031      35.54045031       0.00000000       0.00000000      -0.00000000
Si      28.70574832      36.90739070      36.90739070      -0.00000000      -0.00000000      -0.00000000
Si      30.07268872      38.27433110      35.54045031      -0.00000000       0.00000000      -0.00000000
Si      31.43962912      39.64127150      36.90739070       0.00000000       0.00000000       0.00000000
Si      32.80656951      41.00821189      35.54045031      -0.00000000      -0.00000000       0.00000000
Si      34.17350991      42.37515229      36.90739070       0.00000000       0.00000000      -0.00000000
Si      35.54045031      43.74209268      35.54045031       0.00000000      -0.00000000       0.00000000
Si      36.90739070      45.10903308      36.90739070      -0.00000000       0.00000000      -0.00000000
Si      38.27433110      46.47597348      35.54045031      -0.00000000      -0.00000000      -0.00000000
Si      39.64127150      47.84291387      36.90739070       0.00000000      -0.00000000       0.00000000
Si      16.40328476      21.87104634      38.27433110       0.00000000       0.00000000       0.00000000
Si      17.77022515      23.23798674      39.64127150      -0.00000000       0.00000000      -0.00000000
Si      19.13716555      24.60492713      38.27433110       0.00000000       0.00000000       0.00000000
Si      20.50410595      25.97186753      39.64127150      -0.00000000      -0.00000000      -0.00000000
Si      21.87104634      27.33880793      38.27433110      -0.00000000       0.00000000       0.00000000
Si      23.23798674      28.70574832      39.64127150      -0.00000000       0.00000000      -0.00000000
Si      24.60492713      30.07268872      38.27433110       0.00000000       0.00000000       0.00000000
Si      25.97186753      31.43962912      39.64127150      -0.00000000      -0.00000000      -0.00000000
Si      27.33880793      32.80656951      38.27433110      -0.00000000      -0.00000000       0.00000000
Si      28.70574832      34.17350991      39.64127150      -0.00000000       0.00000000      -0.00000000
Si      30.07268872      35.54045031      38.27433110      -0.00000000      -0.00000000       0.00000000
Si      31.43962912      36.90739070      39.64127150       0.00000000       0.00000000       0.00000000
Si      32.80656951      38.27433110      38.27433110      -0.00000000       0.00000000       0.00000000
Si      34.17350991      39.64127150      39.64127150      -0.00000000      -0.00000000      -0.00000000
Si      35.54045031      41.00821189      38.27433110       0.00000000       0.00000000       0.00000000
Si      36.90739070      42.37515229      39.64127150      -0.00000000       0.00000000      -0.00000000
Si      38.27433110      43.74209268      38.27433110       0.00000000      -0.00000000       0.00000000
Si      39.64127150      45.10903308      39.64127150      -0.00000000       0.00000000      -0.00000000
Si      41.00821189      46.47597348      38.27433110       0.00000000       0.00000000       0.00000000
Si      42.37515229      47.84291387      39.64127150      -0.00000000      -0.00000000      -0.00000000
Si      19.13716555      21.87104634      41.00821189       0.00000000       0.00000000      -0.00000000
Si      20.50410595      23.23798674      42.37515229       0.00000000       0.00000000       0.00000000
Si      21.87104634      24.60492713      41.00821189       0.00000000      -0.00000000       0.00000000
Si      23.23798674      25.97186753      42.37515229       0.00000000      -0.00000000       0.00000000
Si      24.60492713      27.33880793      41.00821189       0.00000000      -0.00000000       0.00000000
Si      25.97186753      28.70574832      42.37515229       0.00000000      -0.00000000       0.00000000
Si      27.33880793      30.07268872      41.00821189       0.00000000       0.00000000       0.00000000
Si      28.70574832      31.43962912      42.37515229      -0.00000000      -0.00000000       0.00000000
Si      30.07268872      32.80656951      41.00821189       0.00000000      -0.00000000       0.00000000
Si      31.43962912      34.17350991      42.37515229       0.00000000      -0.00000000       0.00000000
Si      32.80656951      35.54045031      41.00821189      -0.00000000       0.00000000       0.00000000
Si      34.17350991      36.90739070      42.37515229       0.00000000      -0.00000000       0.00000000
Si      35.54045031      38.27433110      41.00821189       0.00000000       0.00000000       0.00000000
Si      36.90739070      39.64127150      42.37515229      -0.00000000       0.00000000       0.00000000
Si      38.27433110      41.00821189      41.00821189       0.00000000       0.00000000       0.00000000
Si      39.64127150      42.37515229      42.37515229      -0.00000000      -0.00000000       0.00000000
Si      41.00821189      43.74209268      41.00821189       0.00000000       0.00000000      -0.00000000
Si      42.37515229      45.10903308      42.37515229       0.00000000       0.00000000       0.00000000
Si      43.74209268      46.47597348      41.00821189      -0.00000000      -0.00000000       0.00000000
Si      45.10903308      47.84291387      42.37515229       0.00000000      -0.00000000       0.00000000
Si      21.87104634      21.87104634      43.74209268       0.00000000       0.00000000      -0.00000000
Si      23.23798674      23.23798674      45.10903308       0.00000000       0.00000000       0.00000000
Si      24.60492713      24.60492713      43.74209268       0.00000000       0.00000000      -0.00000000
Si      25.97186753      25.97186753      45.10903308      -0.00000000      -0.00000000       0.00000000
Si      27.33880793      27.33880793      43.74209268       0.00000000       0.00000000      -0.00000000
Si      28.70574832      28.70574832      45.10903308      -0.00000000      -0.00000000       0.00000000
Si      30.07268872      30.07268872      43.74209268      -0.00000000      -0.00000000      -0.00000000
Si      31.43962912      31.43962912      45.10903308       0.00000000       0.00000000       0.00000000
Si      32.80656951      32.80656951      43.74209268      -0.00000000      -0.00000000      -0.00000000
Si      34.17350991      34.17350991      45.10903308       0.00000000       0.00000000       0.00000000
Si      35.54045031      35.54045031      43.74209268       0.00000000       0.00000000      -0.00000000
Si      36.90739070      36.90739070      45.10903308      -0.00000000      -0.00000000       0.00000000
Si      38.27433110      38.27433110      43.74209268       0.00000000       0.00000000      -0.00000000
Si      39.64127150      39.64127150      45.10903308      -0.00000000      -0.00000000       0.00000000
Si      41.00821189      41.00821189      43.74209268       0.00000000       0.00000000      -0.00000000
Si      42.37515229      42.37515229      45.10903308       0.00000000       0.00000000       0.00000000
Si      43.74209268      43.74209268      43.74209268      -0.00000000      -0.00000000      -0.00000000
Si      45.10903308      45.10903308      45.10903308       0.00000000       0.00000000       0.00000000
Si      46.47597348      46.47597348      43.74209268      -0.00000000      -0.00000000      -0.00000000
Si      47.84291387      47.84291387      45.10903308      -0.00000000      -0.00000000       0.00000000
Si      24.60492713      21.87104634      46.47597348       0.00000000       0.00000000      -0.00000000
Si      25.97186753      23.23798674      47.84291387      -0.00000000       0.00000000      -0.00000000
Si      27.33880793      24.60492713      46.47597348      -0.00000000      -0.00000000      -0.00000000
Si      28.70574832      25.97186753      47.84291387       0.00000000       0.00000000       0.00000000
Si      30.07268872      27.33880793      46.47597348      -0.00000000       0.00000000      -0.00000000
Si      31.43962912      28.70574832      47.84291387       0.00000000      -0.00000000      -0.00000000
Si      32.80656951      30.07268872      46.47597348      -0.00000000      -0.00000000      -0.00000000
Si      34.17350991      31.43962912      47.84291387      -0.00000000       0.00000000      -0.00000000
Si      35.54045031      32.80656951      46.47597348       0.00000000      -0.00000000      -0.00000000
Si      36.90739070      34.17350991      47.84291387      -0.00000000       0.00000000      -0.00000000
Si      38.27433110      35.54045031      46.47597348       0.00000000      -0.00000000      -0.00000000
Si      39.64127150      36.90739070      47.84291387       0.00000000       0.00000000      -0.00000000
Si      41.00821189      38.27433110      46.47597348      -0.00000000       0.00000000      -0.00000000
Si      42.37515229      39.64127150      47.84291387      -0.00000000       0.00000000       0.00000000
Si      43.74209268      41.00821189      46.47597348       0.00000000       0.00000000      -0.00000000
Si      45.10903308      42.37515229      47.84291387      -0.00000000       0.00000000      -0.00000000
Si      46.47597348      43.74209268      46.47597348      -0.00000000      -0.00000000      -0.00000000
Si      47.84291387      45.10903308      47.84291387      -0.00000000       0.00000000      -0.00000000
Si      49.20985427      46.47597348      46.47597348       0.00000000      -0.00000000      -0.00000000
Si      50.57679467      47.84291387      47.84291387      -0.00000000      -0.00000000      -0.00000000
Si      -0.00000000      24.60492713      24.60492713       0.00000000      -0.00000000      -0.00000000
Si       1.36694040      25.97186753      25.97186753       0.00000000       0.00000000       0.00000000
Si       2.73388079      27.33880793      24.60492713      -0.00000000      -0.00000000      -0.00000000
Si       4.10082119      28.70574832      25.97186753       0.00000000       0.00000000       0.00000000
Si       5.46776159      30.07268872      24.60492713       0.00000000      -0.00000000       0.00000000
Si       6.83470198      31.43962912      25.97186753       0.00000000      -0.00000000      -0.00000000
Si       8.20164238      32.80656951      24.60492713       0.00000000      -0.00000000      -0.00000000
Si       9.56858277      34.17350991      25.97186753      -0.00000000      -0.00000000       0.00000000
Si      10.93552317      35.54045031      24.60492713       0.00000000       0.00000000      -0.00000000
Si      12.30246357      36.90739070      25.97186753       0.00000000      -0.00000000       0.00000000
Si      13.66940396      38.27433110      24.60492713       0.00000000      -0.00000000      -0.00000000
Si      15.03634436      39.64127150      25.97186753       0.00000000       0.00000000      -0.00000000
Si      16.40328476      41.00821189      24.60492713      -0.00000000      -0.00000000       0.00000000
Si      17.77022515      42.37515229      25.97186753      -0.00000000      -0.00000000       0.00000000
Si      19.13716555      43.74209268      24.60492713       0.00000000       0.00000000      -0.00000000
Si      20.50410595      45.10903308      25.97186753       0.00000000      -0.00000000       0.00000000
Si      21.87104634      46.47597348      24.60492713       0.00000000       0.00000000      -0.00000000
Si      23.23798674      47.84291387      25.97186753       0.00000000      -0.00000000      -0.00000000
Si      24.60492713      49.20985427      24.60492713      -0.00000000      -0.00000000      -0.00000000
Si      25.97186753      50.57679467      25.97186753       0.00000000      -0.00000000       0.00000000
Si       2.73388079      24.60492713      27.33880793       0.00000000       0.00000000      -0.00000000
Si       4.10082119      25.97186753      28.70574832      -0.00000000       0.00000000      -0.00000000
Si       5.46776159      27.33880793      27.33880793       0.00000000      -0.00000000      -0.00000000
Si       6.83470198      28.70574832      28.70574832       0.00000000      -0.00000000      -0.00000000
Si       8.20164238      30.07268872      27.33880793      -0.00000000      -0.00000000      -0.00000000
Si       9.56858277      31.43962912      28.70574832      -0.00000000       0.00000000      -0.00000000
Si      10.93552317      32.80656951      27.33880793       0.00000000      -0.00000000      -0.00000000
Si      12.30246357      34.17350991      28.70574832      -0.00000000      -0.00000000      -0.00000000
Si      13.66940396      35.54045031      27.33880793       0.00000000       0.00000000      -0.00000000
Si      15.03634436      36.90739070      28.70574832       0.00000000      -0.00000000      -0.00000000
Si      16.40328476      38.27433110      27.33880793      -0.00000000       0.00000000      -0.00000000
Si      17.77022515      39.64127150      28.70574832       0.00000000       0.00000000       0.00000000
Si      19.13716555      41.00821189      27.33880793       0.00000000      -0.00000000      -0.00000000
Si      20.50410595      42.37515229      28.70574832       0.00000000      -0.00000000       0.00000000
Si      21.87104634      43.74209268      27.33880793       0.00000000       0.00000000      -0.00000000
Si      23.23798674      45.10903308      28.70574832       0.00000000       0.00000000      -0.00000000
Si      24.60492713      46.47597348      27.33880793       0.00000000      -0.00000000      -0.00000000
Si      25.97186753      47.84291387      28.70574832       0.00000000      -0.00000000      -0.00000000
Si      27.33880793      49.20985427      27.33880793       0.00000000       0.00000000       0.00000000
Si      28.70574832      50.57679467      28.70574832      -0.00000000      -0.00000000      -0.00000000
Si       5.46776159      24.60492713      30.07268872       0.00000000      -0.00000000      -0.00000000
Si       6.83470198      25.97186753      31.43962912       0.00000000       0.00000000      -0.00000000
Si       8.20164238      27.33880793      30.07268872      -0.00000000      -0.00000000      -0.00000000
Si       9.56858277      28.70574832      31.43962912       0.00000000      -0.00000000       0.00000000
Si      10.93552317      30.07268872      30.07268872       0.00000000      -0.00000000      -0.00000000
Si      12.30246357      31.43962912      31.43962912       0.00000000       0.00000000       0.00000000
Si      13.66940396      32.80656951      30.07268872       0.00000000      -0.00000000      -0.00000000
Si      15.03634436      34.17350991      31.43962912       0.00000000      -0.00000000       0.00000000
Si      16.40328476      35.54045031      30.07268872      -0.00000000       0.00000000      -0.00000000
Si      17.77022515      36.90739070      31.43962912      -0.00000000      -0.00000000       0.00000000
Si      19.13716555      38.27433110      30.07268872       0.00000000       0.00000000      -0.00000000
Si      20.50410595      39.64127150      31.43962912       0.00000000       0.00000000       0.00000000
Si      21.87104634      41.00821189      30.07268872      -0.00000000      -0.00000000      -0.00000000
Si      23.23798674      42.37515229      31.43962912       0.00000000      -0.00000000       0.00000000
Si      24.60492713      43.74209268      30.07268872       0.00000000      -0.00000000      -0.00000000
Si      25.97186753      45.10903308      31.43962912       0.00000000       0.00000000       0.00000000
Si      27.33880793      46.47597348      30.07268872      -0.00000000      -0.00000000      -0.00000000
Si      28.70574832      47.84291387      31.43962912       0.00000000      -0.00000000       0.00000000
Si      30.07268872      49.20985427      30.07268872       0.00000000       0.00000000      -0.00000000
Si      31.43962912      50.57679467      31.43962912       0.00000000      -0.00000000       0.00000000
Si       8.20164238      24.60492713      32.80656951      -0.00000000      -0.00000000      -0.00000000
Si       9.56858277      25.97186753      34.17350991       0.00000000       0.00000000      -0.00000000
Si      10.93552317      27.33880793      32.80656951       0.00000000      -0.00000000      -0.00000000
Si      12.30246357      28.70574832      34.17350991       0.00000000      -0.00000000      -0.00000000
Si      13.66940396      30.07268872      32.80656951       0.00000000      -0.00000000      -0.00000000
Si      15.03634436      31.43962912      34.17350991       0.00000000       0.00000000      -0.00000000
Si      16.40328476      32.80656951      32.80656951      -0.00000000      -0.00000000      -0.00000000
Si      17.77022515      34.17350991      34.17350991       0.00000000      -0.00000000      -0.00000000
Si      19.13716555      35.54045031      32.80656951       0.00000000       0.00000000      -0.00000000
Si      20.50410595      36.90739070      34.17350991      -0.00000000      -0.00000000       0.00000000
Si      21.87104634      38.27433110      32.80656951       0.00000000       0.00000000      -0.00000000
Si      23.23798674      39.64127150      34.17350991       0.00000000       0.00000000      -0.00000000
Si      24.60492713      41.00821189      32.80656951      -0.00000000      -0.00000000      -0.00000000
Si      25.97186753      42.37515229      34.17350991      -0.00000000      -0.00000000       0.00000000
Si      27.33880793      43.74209268      32.80656951       0.00000000      -0.00000000      -0.00000000
Si      28.70574832      45.10903308      34.17350991      -0.00000000       0.00000000      -0.00000000
Si      30.07268872      46.47597348      32.80656951       0.00000000       0.00000000      -0.00000000
Si      31.43962912      47.84291387      34.17350991       0.00000000      -0.00000000      -0.00000000
Si      32.80656951      49.20985427      32.80656951      -0.00000000      -0.00000000      -0.00000000
Si      34.17350991      50.57679467      34.17350991       0.00000000       0.00000000       0.00000000
Si      10.93552317      24.60492713      35.54045031       0.00000000      -0.00000000      -0.00000000
Si      12.30246357      25.97186753      36.90739070       0.00000000       0.00000000      -0.00000000
Si      13.66940396      27.33880793      35.54045031       0.00000000      -0.00000000      -0.00000000
Si      15.03634436      28.70574832      36.90739070      -0.00000000      -0.00000000      -0.00000000
Si      16.40328476      30.07268872      35.54045031       0.00000000      -0.00000000      -0.00000000
Si      17.77022515      31.43962912      36.90739070       0.00000000       0.00000000      -0.00000000
Si      19.13716555      32.80656951      35.54045031       0.00000000      -0.00000000       0.00000000
Si      20.50410595      34.17350991      36.90739070      -0.00000000       0.00000000      -0.00000000
Si      21.87104634      35.54045031      35.54045031       0.00000000       0.00000000      -0.00000000
Si      23.23798674      36.90739070      36.90739070       0.00000000      -0.00000000      -0.00000000
Si      24.60492713      38.27433110      35.54045031       0.00000000       0.00000000       0.00000000
Si      25.97186753      39.64127150      36.90739070       0.00000000      -0.00000000      -0.00000000
Si      27.33880793      41.00821189      35.54045031       0.00000000       0.00000000       0.00000000
Si      28.70574832      42.37515229      36.90739070      -0.00000000      -0.00000000      -0.00000000
Si      30.07268872      43.74209268      35.54045031       0.00000000      -0.00000000       0.00000000
Si      31.43962912      45.10903308      36.90739070       0.00000000       0.00000000      -0.00000000
Si      32.80656951      46.47597348      35.54045031      -0.00000000      -0.00000000       0.00000000
Si      34.17350991      47.84291387      36.90739070       0.00000000      -0.00000000      -0.00000000
Si      35.54045031      49.20985427      35.54045031      -0.00000000      -0.00000000       0.00000000
Si      36.90739070      50.57679467      36.90739070      -0.00000000      -0.00000000      -0.00000000
Si      13.66940396      24.60492713      38.27433110      -0.00000000      -0.00000000       0.00000000
Si      15.03634436      25.97186753      39.64127150       0.00000000      -0.00000000       0.00000000
Si      16.40328476      27.33880793      38.27433110       0.00000000      -0.00000000       0.00000000
Si      17.77022515      28.70574832      39.64127150       0.00000000      -0.00000000       0.00000000
Si      19.13716555      30.07268872      38.27433110       0.00000000      -0.00000000       0.00000000
Si      20.50410595      31.43962912      39.64127150       0.00000000      -0.00000000       0.00000000
Si      21.87104634      32.80656951      38.27433110       0.00000000      -0.00000000      -0.00000000
Si      23.23798674      34.17350991      39.64127150       0.00000000       0.00000000       0.00000000
Si      24.60492713      35.54045031      38.27433110      -0.00000000      -0.00000000       0.00000000
Si      25.97186753      36.90739070      39.64127150       0.00000000       0.00000000       0.00000000
Si      27.33880793      38.27433110      38.27433110      -0.00000000      -0.00000000       0.00000000
Si      28.70574832      39.64127150      39.64127150       0.00000000      -0.00000000       0.00000000
Si      30.07268872      41.00821189      38.27433110       0.00000000      -0.00000000       0.00000000
Si      31.43962912      42.37515229      39.64127150       0.00000000      -0.00000000       0.00000000
Si      32.80656951      43.74209268      38.27433110       0.00000000      -0.00000000      -0.00000000
Si      34.17350991      45.10903308      39.64127150       0.00000000       0.00000000      -0.00000000
Si      35.54045031      46.47597348      38.27433110       0.00000000      -0.00000000       0.00000000
Si      36.90739070      47.84291387      39.64127150      -0.00000000      -0.00000000       0.00000000
Si      38.27433110      49.20985427      38.27433110       0.00000000      -0.00000000      -0.00000000
Si      39.64127150      50.57679467      39.64127150       0.00000000       0.00000000       0.00000000
Si      16.40328476      24.60492713      41.00821189      -0.00000000       0.00000000      -0.00000000
Si      17.77022515      25.97186753      42.37515229       0.00000000       0.00000000      -0.00000000
Si      19.13716555      27.33880793      41.00821189       0.00000000       0.00000000      -0.00000000
Si      20.50410595      28.70574832      42.37515229      -0.00000000      -0.00000000      -0.00000000
Si      21.87104634      30.07268872      41.00821189      -0.00000000       0.00000000      -0.00000000
Si      23.23798674      31.43962912      42.37515229       0.00000000       0.00000000      -0.00000000
Si      24.60492713      32.80656951      41.00821189      -0.00000000      -0.00000000      -0.00000000
Si      25.97186753      34.17350991      42.37515229      -0.00000000       0.00000000       0.00000000
Si      27.33880793      35.54045031      41.00821189       0.00000000       0.00000000      -0.00000000
Si      28.70574832      36.90739070      42.37515229      -0.00000000      -0.00000000       0.00000000
Si      30.07268872      38.27433110      41.00821189      -0.00000000       0.00000000      -0.00000000
Si      31.43962912      39.64127150      42.37515229       0.00000000       0.00000000       0.00000000
Si      32.80656951      41.00821189      41.00821189      -0.00000000       0.00000000      -0.00000000
Si      34.17350991      42.37515229      42.37515229       0.00000000      -0.00000000      -0.00000000
Si      35.54045031      43.74209268      41.00821189      -0.00000000      -0.00000000      -0.00000000
Si      36.90739070      45.10903308      42.37515229      -0.00000000       0.00000000      -0.00000000
Si      38.27433110      46.47597348      41.00821189       0.00000000      -0.00000000      -0.00000000
Si      39.64127150      47.84291387      42.37515229       0.00000000       0.00000000      -0.00000000
Si      41.00821189      49.20985427      41.00821189      -0.00000000       0.00000000      -0.00000000
Si      42.37515229      50.57679467      42.37515229       0.00000000      -0.00000000      -0.00000000
Si      19.13716555      24.60492713      43.74209268       0.00000000      -0.00000000      -0.00000000
Si      20.50410595      25.97186753      45.10903308       0.00000000      -0.00000000       0.00000000
Si      21.87104634      27.33880793      43.74209268      -0.00000000      -0.00000000      -0.00000000
Si      23.23798674      28.70574832      45.10903308       0.00000000      -0.00000000       0.00000000
Si      24.60492713      30.07268872      43.74209268      -0.00000000      -0.00000000      -0.00000000
Si      25.97186753      31.43962912      45.10903308       0.00000000       0.00000000       0.00000000
Si      27.33880793      32.80656951      43.74209268      -0.00000000      -0.00000000      -0.00000000
Si      28.70574832      34.17350991      45.10903308       0.00000000       0.00000000       0.00000000
Si      30.07268872      35.54045031      43.74209268       0.00000000      -0.00000000       0.00000000
Si      31.43962912      36.90739070      45.10903308       0.00000000      -0.00000000       0.00000000
Si      32.80656951      38.27433110      43.74209268      -0.00000000       0.00000000      -0.00000000
Si      34.17350991      39.64127150      45.10903308       0.00000000      -0.00000000       0.00000000
Si      35.54045031      41.00821189      43.74209268       0.00000000      -0.00000000      -0.00000000
Si      36.90739070      42.37515229      45.10903308      -0.00000000       0.00000000       0.00000000
Si      38.27433110      43.74209268      43.74209268       0.00000000      -0.00000000      -0.00000000
Si      39.64127150      45.10903308      45.10903308       0.00000000       0.00000000      -0.00000000
Si      41.00821189      46.47597348      43.74209268      -0.00000000      -0.00000000      -0.00000000
Si      42.37515229      47.84291387      45.10903308       0.00000000      -0.00000000       0.00000000
Si      43.74209268      49.20985427      43.74209268      -0.00000000      -0.00000000      -0.00000000
Si      45.10903308      50.57679467      45.10903308       0.00000000      -0.00000000       0.00000000
Si      21.87104634      24.60492713      46.47597348       0.00000000       0.00000000      -0.00000000
Si      23.23798674      25.97186753      47.84291387       0.00000000      -0.00000000      -0.00000000
Si      24.60492713      27.33880793      46.47597348      -0.00000000      -0.00000000      -0.00000000
Si      25.97186753      28.70574832      47.84291387       0.00000000       0.00000000       0.00000000
Si      27.33880793      30.07268872      46.47597348       0.00000000      -0.00000000      -0.00000000
Si      28.70574832      31.43962912      47.84291387      -0.00000000       0.00000000      -0.00000000
Si      30.07268872      32.80656951      46.47597348      -0.00000000      -0.00000000      -0.00000000
Si      31.43962912      34.17350991      47.84291387       0.00000000      -0.00000000      -0.00000000
Si      32.80656951      35.54045031      46.47597348      -0.00000000       0.00000000      -0.00000000
Si      34.17350991      36.90739070      47.84291387       0.00000000      -0.00000000      -0.00000000
Si      35.54045031      38.27433110      46.47597348      -0.00000000       0.00000000      -0.00000000
Si      36.90739070      39.64127150      47.84291387       0.00000000       0.00000000      -0.00000000
Si      38.27433110      41.00821189      46.47597348       0.00000000      -0.00000000      -0.00000000
Si      39.64127150      42.37515229      47.84291387       0.00000000      -0.00000000       0.00000000
Si      41.00821189      43.74209268      46.47597348       0.00000000       0.00000000      -0.00000000
Si      42.37515229      45.10903308      47.84291387       0.00000000      -0.00000000      -0.00000000
Si      43.74209268      46.47597348      46.47597348      -0.00000000      -0.00000000      -0.00000000
Si      45.10903308      47.84291387      47.84291387       0.00000000      -0.00000000      -0.00000000
Si      46.47597348      49.20985427      46.47597348      -0.00000000       0.00000000      -0.00000000
Si      47.84291387      50.57679467      47.84291387      -0.00000000      -0.00000000      -0.00000000
Si      24.60492713      24.60492713      49.20985427      -0.00000000      -0.00000000      -0.00000000
Si      25.97186753      25.97186753      50.57679467       0.00000000       0.00000000      -0.00000000
Si      27.33880793      27.33880793      49.20985427      -0.00000000      -0.00000000       0.00000000
Si      28.70574832      28.70574832      50.57679467      -0.00000000      -0.00000000       0.00000000
Si      30.07268872      30.07268872      49.20985427      -0.00000000      -0.00000000      -0.00000000
Si      31.43962912      31.43962912      50.57679467       0.00000000       0.00000000      -0.00000000
Si      32.80656951      32.80656951      49.20985427      -0.00000000      -0.00000000       0.00000000
Si      34.17350991      34.17350991      50.57679467       0.00000000       0.00000000       0.00000000
Si      35.54045031      35.54045031      49.20985427       0.00000000       0.00000000      -0.00000000
Si      36.90739070      36.90739070      50.57679467      -0.00000000      -0.00000000       0.00000000
Si      38.27433110      38.27433110      49.20985427       0.00000000       0.00000000      -0.00000000
Si      39.64127150      39.64127150      50.57679467       0.00000000       0.00000000      -0.00000000
Si      41.00821189      41.00821189      49.20985427      -0.00000000      -0.00000000       0.00000000
Si      42.37515229      42.37515229      50.57679467       0.00000000       0.00000000      -0.00000000
Si      43.74209268      43.74209268      49.20985427      -0.00000000      -0.00000000      -0.00000000
Si      45.10903308      45.10903308      50.57679467       0.00000000       0.00000000      -0.00000000
Si      46.47597348      46.47597348      49.20985427      -0.00000000      -0.00000000       0.00000000
Si      47.84291387      47.84291387      50.57679467      -0.00000000      -0.00000000       0.00000000
Si      49.20985427      49.20985427      49.20985427       0.00000000       0.00000000       0.00000000
Si      50.57679467      50.57679467      50.57679467       0.00000000       0.00000000       0.00000000
