1080
Lattice="35.51941751968982 0.0 0.0 0.0 35.51941751968982 0.0 0.0 0.0 35.51941751968982" Properties=species:S:1:pos:R:3 pbc="T T T"
Cs       2.95995146       2.95995146       2.95995146
Pb       0.00000000       0.00000000       0.00000000
Br       0.00000000       0.00000000       2.95995146
Br       0.00000000       2.95995146       0.00000000
Br       2.95995146       0.00000000       0.00000000
Cs       2.95995146       2.95995146       8.87985438
Pb       0.00000000       0.00000000       5.91990292
Br       0.00000000       0.00000000       8.87985438
Br       0.00000000       2.95995146       5.91990292
Br       2.95995146       0.00000000       5.91990292
Cs       2.95995146       2.95995146      14.79975730
Pb       0.00000000       0.00000000      11.83980584
Br       0.00000000       0.00000000      14.79975730
Br       0.00000000       2.95995146      11.83980584
Br       2.95995146       0.00000000      11.83980584
Cs       2.95995146       2.95995146      20.71966022
Pb       0.00000000       0.00000000      17.75970876
Br       0.00000000       0.00000000      20.71966022
Br       0.00000000       2.95995146      17.75970876
Br       2.95995146       0.00000000      17.75970876
Cs       2.95995146       2.95995146      26.63956314
Pb       0.00000000       0.00000000      23.67961168
Br       0.00000000       0.00000000      26.63956314
Br       0.00000000       2.95995146      23.67961168
Br       2.95995146       0.00000000      23.67961168
Cs       2.95995146       2.95995146      32.55946606
Pb       0.00000000       0.00000000      29.59951460
Br       0.00000000       0.00000000      32.55946606
Br       0.00000000       2.95995146      29.59951460
Br       2.95995146       0.00000000      29.59951460
Cs       2.95995146       8.87985438       2.95995146
Pb       0.00000000       5.91990292       0.00000000
Br       0.00000000       5.91990292       2.95995146
Br       0.00000000       8.87985438       0.00000000
Br       2.95995146       5.91990292       0.00000000
Cs       2.95995146       8.87985438       8.87985438
Pb       0.00000000       5.91990292       5.91990292
Br       0.00000000       5.91990292       8.87985438
Br       0.00000000       8.87985438       5.91990292
Br       2.95995146       5.91990292       5.91990292
Cs       2.95995146       8.87985438      14.79975730
Pb       0.00000000       5.91990292      11.83980584
Br       0.00000000       5.91990292      14.79975730
Br       0.00000000       8.87985438      11.83980584
Br       2.95995146       5.91990292      11.83980584
Cs       2.95995146       8.87985438      20.71966022
Pb       0.00000000       5.91990292      17.75970876
Br       0.00000000       5.91990292      20.71966022
Br       0.00000000       8.87985438      17.75970876
Br       2.95995146       5.91990292      17.75970876
Cs       2.95995146       8.87985438      26.63956314
Pb       0.00000000       5.91990292      23.67961168
Br       0.00000000       5.91990292      26.63956314
Br       0.00000000       8.87985438      23.67961168
Br       2.95995146       5.91990292      23.67961168
Cs       2.95995146       8.87985438      32.55946606
Pb       0.00000000       5.91990292      29.59951460
Br       0.00000000       5.91990292      32.55946606
Br       0.00000000       8.87985438      29.59951460
Br       2.95995146       5.91990292      29.59951460
Cs       2.95995146      14.79975730       2.95995146
Pb       0.00000000      11.83980584       0.00000000
Br       0.00000000      11.83980584       2.95995146
Br       0.00000000      14.79975730       0.00000000
Br       2.95995146      11.83980584       0.00000000
Cs       2.95995146      14.79975730       8.87985438
Pb       0.00000000      11.83980584       5.91990292
Br       0.00000000      11.83980584       8.87985438
Br       0.00000000      14.79975730       5.91990292
Br       2.95995146      11.83980584       5.91990292
Cs       2.95995146      14.79975730      14.79975730
Pb       0.00000000      11.83980584      11.83980584
Br       0.00000000      11.83980584      14.79975730
Br       0.00000000      14.79975730      11.83980584
Br       2.95995146      11.83980584      11.83980584
Cs       2.95995146      14.79975730      20.71966022
Pb       0.00000000      11.83980584      17.75970876
Br       0.00000000      11.83980584      20.71966022
Br       0.00000000      14.79975730      17.75970876
Br       2.95995146      11.83980584      17.75970876
Cs       2.95995146      14.79975730      26.63956314
Pb       0.00000000      11.83980584      23.67961168
Br       0.00000000      11.83980584      26.63956314
Br       0.00000000      14.79975730      23.67961168
Br       2.95995146      11.83980584      23.67961168
Cs       2.95995146      14.79975730      32.55946606
Pb       0.00000000      11.83980584      29.59951460
Br       0.00000000      11.83980584      32.55946606
Br       0.00000000      14.79975730      29.59951460
Br       2.95995146      11.83980584      29.59951460
Cs       2.95995146      20.71966022       2.95995146
Pb       0.00000000      17.75970876       0.00000000
Br       0.00000000      17.75970876       2.95995146
Br       0.00000000      20.71966022       0.00000000
Br       2.95995146      17.75970876       0.00000000
Cs       2.95995146      20.71966022       8.87985438
Pb       0.00000000      17.75970876       5.91990292
Br       0.00000000      17.75970876       8.87985438
Br       0.00000000      20.71966022       5.91990292
Br       2.95995146      17.75970876       5.91990292
Cs       2.95995146      20.71966022      14.79975730
Pb       0.00000000      17.75970876      11.83980584
Br       0.00000000      17.75970876      14.79975730
Br       0.00000000      20.71966022      11.83980584
Br       2.95995146      17.75970876      11.83980584
Cs       2.95995146      20.71966022      20.71966022
Pb       0.00000000      17.75970876      17.75970876
Br       0.00000000      17.75970876      20.71966022
Br       0.00000000      20.71966022      17.75970876
Br       2.95995146      17.75970876      17.75970876
Cs       2.95995146      20.71966022      26.63956314
Pb       0.00000000      17.75970876      23.67961168
Br       0.00000000      17.75970876      26.63956314
Br       0.00000000      20.71966022      23.67961168
Br       2.95995146      17.75970876      23.67961168
Cs       2.95995146      20.71966022      32.55946606
Pb       0.00000000      17.75970876      29.59951460
Br       0.00000000      17.75970876      32.55946606
Br       0.00000000      20.71966022      29.59951460
Br       2.95995146      17.75970876      29.59951460
Cs       2.95995146      26.63956314       2.95995146
Pb       0.00000000      23.67961168       0.00000000
Br       0.00000000      23.67961168       2.95995146
Br       0.00000000      26.63956314       0.00000000
Br       2.95995146      23.67961168       0.00000000
Cs       2.95995146      26.63956314       8.87985438
Pb       0.00000000      23.67961168       5.91990292
Br       0.00000000      23.67961168       8.87985438
Br       0.00000000      26.63956314       5.91990292
Br       2.95995146      23.67961168       5.91990292
Cs       2.95995146      26.63956314      14.79975730
Pb       0.00000000      23.67961168      11.83980584
Br       0.00000000      23.67961168      14.79975730
Br       0.00000000      26.63956314      11.83980584
Br       2.95995146      23.67961168      11.83980584
Cs       2.95995146      26.63956314      20.71966022
Pb       0.00000000      23.67961168      17.75970876
Br       0.00000000      23.67961168      20.71966022
Br       0.00000000      26.63956314      17.75970876
Br       2.95995146      23.67961168      17.75970876
Cs       2.95995146      26.63956314      26.63956314
Pb       0.00000000      23.67961168      23.67961168
Br       0.00000000      23.67961168      26.63956314
Br       0.00000000      26.63956314      23.67961168
Br       2.95995146      23.67961168      23.67961168
Cs       2.95995146      26.63956314      32.55946606
Pb       0.00000000      23.67961168      29.59951460
Br       0.00000000      23.67961168      32.55946606
Br       0.00000000      26.63956314      29.59951460
Br       2.95995146      23.67961168      29.59951460
Cs       2.95995146      32.55946606       2.95995146
Pb       0.00000000      29.59951460       0.00000000
Br       0.00000000      29.59951460       2.95995146
Br       0.00000000      32.55946606       0.00000000
Br       2.95995146      29.59951460       0.00000000
Cs       2.95995146      32.55946606       8.87985438
Pb       0.00000000      29.59951460       5.91990292
Br       0.00000000      29.59951460       8.87985438
Br       0.00000000      32.55946606       5.91990292
Br       2.95995146      29.59951460       5.91990292
Cs       2.95995146      32.55946606      14.79975730
Pb       0.00000000      29.59951460      11.83980584
Br       0.00000000      29.59951460      14.79975730
Br       0.00000000      32.55946606      11.83980584
Br       2.95995146      29.59951460      11.83980584
Cs       2.95995146      32.55946606      20.71966022
Pb       0.00000000      29.59951460      17.75970876
Br       0.00000000      29.59951460      20.71966022
Br       0.00000000      32.55946606      17.75970876
Br       2.95995146      29.59951460      17.75970876
Cs       2.95995146      32.55946606      26.63956314
Pb       0.00000000      29.59951460      23.67961168
Br       0.00000000      29.59951460      26.63956314
Br       0.00000000      32.55946606      23.67961168
Br       2.95995146      29.59951460      23.67961168
Cs       2.95995146      32.55946606      32.55946606
Pb       0.00000000      29.59951460      29.59951460
Br       0.00000000      29.59951460      32.55946606
Br       0.00000000      32.55946606      29.59951460
Br       2.95995146      29.59951460      29.59951460
Cs       8.87985438       2.95995146       2.95995146
Pb       5.91990292       0.00000000       0.00000000
Br       5.91990292       0.00000000       2.95995146
Br       5.91990292       2.95995146       0.00000000
Br       8.87985438       0.00000000       0.00000000
Cs       8.87985438       2.95995146       8.87985438
Pb       5.91990292       0.00000000       5.91990292
Br       5.91990292       0.00000000       8.87985438
Br       5.91990292       2.95995146       5.91990292
Br       8.87985438       0.00000000       5.91990292
Cs       8.87985438       2.95995146      14.79975730
Pb       5.91990292       0.00000000      11.83980584
Br       5.91990292       0.00000000      14.79975730
Br       5.91990292       2.95995146      11.83980584
Br       8.87985438       0.00000000      11.83980584
Cs       8.87985438       2.95995146      20.71966022
Pb       5.91990292       0.00000000      17.75970876
Br       5.91990292       0.00000000      20.71966022
Br       5.91990292       2.95995146      17.75970876
Br       8.87985438       0.00000000      17.75970876
Cs       8.87985438       2.95995146      26.63956314
Pb       5.91990292       0.00000000      23.67961168
Br       5.91990292       0.00000000      26.63956314
Br       5.91990292       2.95995146      23.67961168
Br       8.87985438       0.00000000      23.67961168
Cs       8.87985438       2.95995146      32.55946606
Pb       5.91990292       0.00000000      29.59951460
Br       5.91990292       0.00000000      32.55946606
Br       5.91990292       2.95995146      29.59951460
Br       8.87985438       0.00000000      29.59951460
Cs       8.87985438       8.87985438       2.95995146
Pb       5.91990292       5.91990292       0.00000000
Br       5.91990292       5.91990292       2.95995146
Br       5.91990292       8.87985438       0.00000000
Br       8.87985438       5.91990292       0.00000000
Cs       8.87985438       8.87985438       8.87985438
Pb       5.91990292       5.91990292       5.91990292
Br       5.91990292       5.91990292       8.87985438
Br       5.91990292       8.87985438       5.91990292
Br       8.87985438       5.91990292       5.91990292
Cs       8.87985438       8.87985438      14.79975730
Pb       5.91990292       5.91990292      11.83980584
Br       5.91990292       5.91990292      14.79975730
Br       5.91990292       8.87985438      11.83980584
Br       8.87985438       5.91990292      11.83980584
Cs       8.87985438       8.87985438      20.71966022
Pb       5.91990292       5.91990292      17.75970876
Br       5.91990292       5.91990292      20.71966022
Br       5.91990292       8.87985438      17.75970876
Br       8.87985438       5.91990292      17.75970876
Cs       8.87985438       8.87985438      26.63956314
Pb       5.91990292       5.91990292      23.67961168
Br       5.91990292       5.91990292      26.63956314
Br       5.91990292       8.87985438      23.67961168
Br       8.87985438       5.91990292      23.67961168
Cs       8.87985438       8.87985438      32.55946606
Pb       5.91990292       5.91990292      29.59951460
Br       5.91990292       5.91990292      32.55946606
Br       5.91990292       8.87985438      29.59951460
Br       8.87985438       5.91990292      29.59951460
Cs       8.87985438      14.79975730       2.95995146
Pb       5.91990292      11.83980584       0.00000000
Br       5.91990292      11.83980584       2.95995146
Br       5.91990292      14.79975730       0.00000000
Br       8.87985438      11.83980584       0.00000000
Cs       8.87985438      14.79975730       8.87985438
Pb       5.91990292      11.83980584       5.91990292
Br       5.91990292      11.83980584       8.87985438
Br       5.91990292      14.79975730       5.91990292
Br       8.87985438      11.83980584       5.91990292
Cs       8.87985438      14.79975730      14.79975730
Pb       5.91990292      11.83980584      11.83980584
Br       5.91990292      11.83980584      14.79975730
Br       5.91990292      14.79975730      11.83980584
Br       8.87985438      11.83980584      11.83980584
Cs       8.87985438      14.79975730      20.71966022
Pb       5.91990292      11.83980584      17.75970876
Br       5.91990292      11.83980584      20.71966022
Br       5.91990292      14.79975730      17.75970876
Br       8.87985438      11.83980584      17.75970876
Cs       8.87985438      14.79975730      26.63956314
Pb       5.91990292      11.83980584      23.67961168
Br       5.91990292      11.83980584      26.63956314
Br       5.91990292      14.79975730      23.67961168
Br       8.87985438      11.83980584      23.67961168
Cs       8.87985438      14.79975730      32.55946606
Pb       5.91990292      11.83980584      29.59951460
Br       5.91990292      11.83980584      32.55946606
Br       5.91990292      14.79975730      29.59951460
Br       8.87985438      11.83980584      29.59951460
Cs       8.87985438      20.71966022       2.95995146
Pb       5.91990292      17.75970876       0.00000000
Br       5.91990292      17.75970876       2.95995146
Br       5.91990292      20.71966022       0.00000000
Br       8.87985438      17.75970876       0.00000000
Cs       8.87985438      20.71966022       8.87985438
Pb       5.91990292      17.75970876       5.91990292
Br       5.91990292      17.75970876       8.87985438
Br       5.91990292      20.71966022       5.91990292
Br       8.87985438      17.75970876       5.91990292
Cs       8.87985438      20.71966022      14.79975730
Pb       5.91990292      17.75970876      11.83980584
Br       5.91990292      17.75970876      14.79975730
Br       5.91990292      20.71966022      11.83980584
Br       8.87985438      17.75970876      11.83980584
Cs       8.87985438      20.71966022      20.71966022
Pb       5.91990292      17.75970876      17.75970876
Br       5.91990292      17.75970876      20.71966022
Br       5.91990292      20.71966022      17.75970876
Br       8.87985438      17.75970876      17.75970876
Cs       8.87985438      20.71966022      26.63956314
Pb       5.91990292      17.75970876      23.67961168
Br       5.91990292      17.75970876      26.63956314
Br       5.91990292      20.71966022      23.67961168
Br       8.87985438      17.75970876      23.67961168
Cs       8.87985438      20.71966022      32.55946606
Pb       5.91990292      17.75970876      29.59951460
Br       5.91990292      17.75970876      32.55946606
Br       5.91990292      20.71966022      29.59951460
Br       8.87985438      17.75970876      29.59951460
Cs       8.87985438      26.63956314       2.95995146
Pb       5.91990292      23.67961168       0.00000000
Br       5.91990292      23.67961168       2.95995146
Br       5.91990292      26.63956314       0.00000000
Br       8.87985438      23.67961168       0.00000000
Cs       8.87985438      26.63956314       8.87985438
Pb       5.91990292      23.67961168       5.91990292
Br       5.91990292      23.67961168       8.87985438
Br       5.91990292      26.63956314       5.91990292
Br       8.87985438      23.67961168       5.91990292
Cs       8.87985438      26.63956314      14.79975730
Pb       5.91990292      23.67961168      11.83980584
Br       5.91990292      23.67961168      14.79975730
Br       5.91990292      26.63956314      11.83980584
Br       8.87985438      23.67961168      11.83980584
Cs       8.87985438      26.63956314      20.71966022
Pb       5.91990292      23.67961168      17.75970876
Br       5.91990292      23.67961168      20.71966022
Br       5.91990292      26.63956314      17.75970876
Br       8.87985438      23.67961168      17.75970876
Cs       8.87985438      26.63956314      26.63956314
Pb       5.91990292      23.67961168      23.67961168
Br       5.91990292      23.67961168      26.63956314
Br       5.91990292      26.63956314      23.67961168
Br       8.87985438      23.67961168      23.67961168
Cs       8.87985438      26.63956314      32.55946606
Pb       5.91990292      23.67961168      29.59951460
Br       5.91990292      23.67961168      32.55946606
Br       5.91990292      26.63956314      29.59951460
Br       8.87985438      23.67961168      29.59951460
Cs       8.87985438      32.55946606       2.95995146
Pb       5.91990292      29.59951460       0.00000000
Br       5.91990292      29.59951460       2.95995146
Br       5.91990292      32.55946606       0.00000000
Br       8.87985438      29.59951460       0.00000000
Cs       8.87985438      32.55946606       8.87985438
Pb       5.91990292      29.59951460       5.91990292
Br       5.91990292      29.59951460       8.87985438
Br       5.91990292      32.55946606       5.91990292
Br       8.87985438      29.59951460       5.91990292
Cs       8.87985438      32.55946606      14.79975730
Pb       5.91990292      29.59951460      11.83980584
Br       5.91990292      29.59951460      14.79975730
Br       5.91990292      32.55946606      11.83980584
Br       8.87985438      29.59951460      11.83980584
Cs       8.87985438      32.55946606      20.71966022
Pb       5.91990292      29.59951460      17.75970876
Br       5.91990292      29.59951460      20.71966022
Br       5.91990292      32.55946606      17.75970876
Br       8.87985438      29.59951460      17.75970876
Cs       8.87985438      32.55946606      26.63956314
Pb       5.91990292      29.59951460      23.67961168
Br       5.91990292      29.59951460      26.63956314
Br       5.91990292      32.55946606      23.67961168
Br       8.87985438      29.59951460      23.67961168
Cs       8.87985438      32.55946606      32.55946606
Pb       5.91990292      29.59951460      29.59951460
Br       5.91990292      29.59951460      32.55946606
Br       5.91990292      32.55946606      29.59951460
Br       8.87985438      29.59951460      29.59951460
Cs      14.79975730       2.95995146       2.95995146
Pb      11.83980584       0.00000000       0.00000000
Br      11.83980584       0.00000000       2.95995146
Br      11.83980584       2.95995146       0.00000000
Br      14.79975730       0.00000000       0.00000000
Cs      14.79975730       2.95995146       8.87985438
Pb      11.83980584       0.00000000       5.91990292
Br      11.83980584       0.00000000       8.87985438
Br      11.83980584       2.95995146       5.91990292
Br      14.79975730       0.00000000       5.91990292
Cs      14.79975730       2.95995146      14.79975730
Pb      11.83980584       0.00000000      11.83980584
Br      11.83980584       0.00000000      14.79975730
Br      11.83980584       2.95995146      11.83980584
Br      14.79975730       0.00000000      11.83980584
Cs      14.79975730       2.95995146      20.71966022
Pb      11.83980584       0.00000000      17.75970876
Br      11.83980584       0.00000000      20.71966022
Br      11.83980584       2.95995146      17.75970876
Br      14.79975730       0.00000000      17.75970876
Cs      14.79975730       2.95995146      26.63956314
Pb      11.83980584       0.00000000      23.67961168
Br      11.83980584       0.00000000      26.63956314
Br      11.83980584       2.95995146      23.67961168
Br      14.79975730       0.00000000      23.67961168
Cs      14.79975730       2.95995146      32.55946606
Pb      11.83980584       0.00000000      29.59951460
Br      11.83980584       0.00000000      32.55946606
Br      11.83980584       2.95995146      29.59951460
Br      14.79975730       0.00000000      29.59951460
Cs      14.79975730       8.87985438       2.95995146
Pb      11.83980584       5.91990292       0.00000000
Br      11.83980584       5.91990292       2.95995146
Br      11.83980584       8.87985438       0.00000000
Br      14.79975730       5.91990292       0.00000000
Cs      14.79975730       8.87985438       8.87985438
Pb      11.83980584       5.91990292       5.91990292
Br      11.83980584       5.91990292       8.87985438
Br      11.83980584       8.87985438       5.91990292
Br      14.79975730       5.91990292       5.91990292
Cs      14.79975730       8.87985438      14.79975730
Pb      11.83980584       5.91990292      11.83980584
Br      11.83980584       5.91990292      14.79975730
Br      11.83980584       8.87985438      11.83980584
Br      14.79975730       5.91990292      11.83980584
Cs      14.79975730       8.87985438      20.71966022
Pb      11.83980584       5.91990292      17.75970876
Br      11.83980584       5.91990292      20.71966022
Br      11.83980584       8.87985438      17.75970876
Br      14.79975730       5.91990292      17.75970876
Cs      14.79975730       8.87985438      26.63956314
Pb      11.83980584       5.91990292      23.67961168
Br      11.83980584       5.91990292      26.63956314
Br      11.83980584       8.87985438      23.67961168
Br      14.79975730       5.91990292      23.67961168
Cs      14.79975730       8.87985438      32.55946606
Pb      11.83980584       5.91990292      29.59951460
Br      11.83980584       5.91990292      32.55946606
Br      11.83980584       8.87985438      29.59951460
Br      14.79975730       5.91990292      29.59951460
Cs      14.79975730      14.79975730       2.95995146
Pb      11.83980584      11.83980584       0.00000000
Br      11.83980584      11.83980584       2.95995146
Br      11.83980584      14.79975730       0.00000000
Br      14.79975730      11.83980584       0.00000000
Cs      14.79975730      14.79975730       8.87985438
Pb      11.83980584      11.83980584       5.91990292
Br      11.83980584      11.83980584       8.87985438
Br      11.83980584      14.79975730       5.91990292
Br      14.79975730      11.83980584       5.91990292
Cs      14.79975730      14.79975730      14.79975730
Pb      11.83980584      11.83980584      11.83980584
Br      11.83980584      11.83980584      14.79975730
Br      11.83980584      14.79975730      11.83980584
Br      14.79975730      11.83980584      11.83980584
Cs      14.79975730      14.79975730      20.71966022
Pb      11.83980584      11.83980584      17.75970876
Br      11.83980584      11.83980584      20.71966022
Br      11.83980584      14.79975730      17.75970876
Br      14.79975730      11.83980584      17.75970876
Cs      14.79975730      14.79975730      26.63956314
Pb      11.83980584      11.83980584      23.67961168
Br      11.83980584      11.83980584      26.63956314
Br      11.83980584      14.79975730      23.67961168
Br      14.79975730      11.83980584      23.67961168
Cs      14.79975730      14.79975730      32.55946606
Pb      11.83980584      11.83980584      29.59951460
Br      11.83980584      11.83980584      32.55946606
Br      11.83980584      14.79975730      29.59951460
Br      14.79975730      11.83980584      29.59951460
Cs      14.79975730      20.71966022       2.95995146
Pb      11.83980584      17.75970876       0.00000000
Br      11.83980584      17.75970876       2.95995146
Br      11.83980584      20.71966022       0.00000000
Br      14.79975730      17.75970876       0.00000000
Cs      14.79975730      20.71966022       8.87985438
Pb      11.83980584      17.75970876       5.91990292
Br      11.83980584      17.75970876       8.87985438
Br      11.83980584      20.71966022       5.91990292
Br      14.79975730      17.75970876       5.91990292
Cs      14.79975730      20.71966022      14.79975730
Pb      11.83980584      17.75970876      11.83980584
Br      11.83980584      17.75970876      14.79975730
Br      11.83980584      20.71966022      11.83980584
Br      14.79975730      17.75970876      11.83980584
Cs      14.79975730      20.71966022      20.71966022
Pb      11.83980584      17.75970876      17.75970876
Br      11.83980584      17.75970876      20.71966022
Br      11.83980584      20.71966022      17.75970876
Br      14.79975730      17.75970876      17.75970876
Cs      14.79975730      20.71966022      26.63956314
Pb      11.83980584      17.75970876      23.67961168
Br      11.83980584      17.75970876      26.63956314
Br      11.83980584      20.71966022      23.67961168
Br      14.79975730      17.75970876      23.67961168
Cs      14.79975730      20.71966022      32.55946606
Pb      11.83980584      17.75970876      29.59951460
Br      11.83980584      17.75970876      32.55946606
Br      11.83980584      20.71966022      29.59951460
Br      14.79975730      17.75970876      29.59951460
Cs      14.79975730      26.63956314       2.95995146
Pb      11.83980584      23.67961168       0.00000000
Br      11.83980584      23.67961168       2.95995146
Br      11.83980584      26.63956314       0.00000000
Br      14.79975730      23.67961168       0.00000000
Cs      14.79975730      26.63956314       8.87985438
Pb      11.83980584      23.67961168       5.91990292
Br      11.83980584      23.67961168       8.87985438
Br      11.83980584      26.63956314       5.91990292
Br      14.79975730      23.67961168       5.91990292
Cs      14.79975730      26.63956314      14.79975730
Pb      11.83980584      23.67961168      11.83980584
Br      11.83980584      23.67961168      14.79975730
Br      11.83980584      26.63956314      11.83980584
Br      14.79975730      23.67961168      11.83980584
Cs      14.79975730      26.63956314      20.71966022
Pb      11.83980584      23.67961168      17.75970876
Br      11.83980584      23.67961168      20.71966022
Br      11.83980584      26.63956314      17.75970876
Br      14.79975730      23.67961168      17.75970876
Cs      14.79975730      26.63956314      26.63956314
Pb      11.83980584      23.67961168      23.67961168
Br      11.83980584      23.67961168      26.63956314
Br      11.83980584      26.63956314      23.67961168
Br      14.79975730      23.67961168      23.67961168
Cs      14.79975730      26.63956314      32.55946606
Pb      11.83980584      23.67961168      29.59951460
Br      11.83980584      23.67961168      32.55946606
Br      11.83980584      26.63956314      29.59951460
Br      14.79975730      23.67961168      29.59951460
Cs      14.79975730      32.55946606       2.95995146
Pb      11.83980584      29.59951460       0.00000000
Br      11.83980584      29.59951460       2.95995146
Br      11.83980584      32.55946606       0.00000000
Br      14.79975730      29.59951460       0.00000000
Cs      14.79975730      32.55946606       8.87985438
Pb      11.83980584      29.59951460       5.91990292
Br      11.83980584      29.59951460       8.87985438
Br      11.83980584      32.55946606       5.91990292
Br      14.79975730      29.59951460       5.91990292
Cs      14.79975730      32.55946606      14.79975730
Pb      11.83980584      29.59951460      11.83980584
Br      11.83980584      29.59951460      14.79975730
Br      11.83980584      32.55946606      11.83980584
Br      14.79975730      29.59951460      11.83980584
Cs      14.79975730      32.55946606      20.71966022
Pb      11.83980584      29.59951460      17.75970876
Br      11.83980584      29.59951460      20.71966022
Br      11.83980584      32.55946606      17.75970876
Br      14.79975730      29.59951460      17.75970876
Cs      14.79975730      32.55946606      26.63956314
Pb      11.83980584      29.59951460      23.67961168
Br      11.83980584      29.59951460      26.63956314
Br      11.83980584      32.55946606      23.67961168
Br      14.79975730      29.59951460      23.67961168
Cs      14.79975730      32.55946606      32.55946606
Pb      11.83980584      29.59951460      29.59951460
Br      11.83980584      29.59951460      32.55946606
Br      11.83980584      32.55946606      29.59951460
Br      14.79975730      29.59951460      29.59951460
Cs      20.71966022       2.95995146       2.95995146
Pb      17.75970876       0.00000000       0.00000000
Br      17.75970876       0.00000000       2.95995146
Br      17.75970876       2.95995146       0.00000000
Br      20.71966022       0.00000000       0.00000000
Cs      20.71966022       2.95995146       8.87985438
Pb      17.75970876       0.00000000       5.91990292
Br      17.75970876       0.00000000       8.87985438
Br      17.75970876       2.95995146       5.91990292
Br      20.71966022       0.00000000       5.91990292
Cs      20.71966022       2.95995146      14.79975730
Pb      17.75970876       0.00000000      11.83980584
Br      17.75970876       0.00000000      14.79975730
Br      17.75970876       2.95995146      11.83980584
Br      20.71966022       0.00000000      11.83980584
Cs      20.71966022       2.95995146      20.71966022
Pb      17.75970876       0.00000000      17.75970876
Br      17.75970876       0.00000000      20.71966022
Br      17.75970876       2.95995146      17.75970876
Br      20.71966022       0.00000000      17.75970876
Cs      20.71966022       2.95995146      26.63956314
Pb      17.75970876       0.00000000      23.67961168
Br      17.75970876       0.00000000      26.63956314
Br      17.75970876       2.95995146      23.67961168
Br      20.71966022       0.00000000      23.67961168
Cs      20.71966022       2.95995146      32.55946606
Pb      17.75970876       0.00000000      29.59951460
Br      17.75970876       0.00000000      32.55946606
Br      17.75970876       2.95995146      29.59951460
Br      20.71966022       0.00000000      29.59951460
Cs      20.71966022       8.87985438       2.95995146
Pb      17.75970876       5.91990292       0.00000000
Br      17.75970876       5.91990292       2.95995146
Br      17.75970876       8.87985438       0.00000000
Br      20.71966022       5.91990292       0.00000000
Cs      20.71966022       8.87985438       8.87985438
Pb      17.75970876       5.91990292       5.91990292
Br      17.75970876       5.91990292       8.87985438
Br      17.75970876       8.87985438       5.91990292
Br      20.71966022       5.91990292       5.91990292
Cs      20.71966022       8.87985438      14.79975730
Pb      17.75970876       5.91990292      11.83980584
Br      17.75970876       5.91990292      14.79975730
Br      17.75970876       8.87985438      11.83980584
Br      20.71966022       5.91990292      11.83980584
Cs      20.71966022       8.87985438      20.71966022
Pb      17.75970876       5.91990292      17.75970876
Br      17.75970876       5.91990292      20.71966022
Br      17.75970876       8.87985438      17.75970876
Br      20.71966022       5.91990292      17.75970876
Cs      20.71966022       8.87985438      26.63956314
Pb      17.75970876       5.91990292      23.67961168
Br      17.75970876       5.91990292      26.63956314
Br      17.75970876       8.87985438      23.67961168
Br      20.71966022       5.91990292      23.67961168
Cs      20.71966022       8.87985438      32.55946606
Pb      17.75970876       5.91990292      29.59951460
Br      17.75970876       5.91990292      32.55946606
Br      17.75970876       8.87985438      29.59951460
Br      20.71966022       5.91990292      29.59951460
Cs      20.71966022      14.79975730       2.95995146
Pb      17.75970876      11.83980584       0.00000000
Br      17.75970876      11.83980584       2.95995146
Br      17.75970876      14.79975730       0.00000000
Br      20.71966022      11.83980584       0.00000000
Cs      20.71966022      14.79975730       8.87985438
Pb      17.75970876      11.83980584       5.91990292
Br      17.75970876      11.83980584       8.87985438
Br      17.75970876      14.79975730       5.91990292
Br      20.71966022      11.83980584       5.91990292
Cs      20.71966022      14.79975730      14.79975730
Pb      17.75970876      11.83980584      11.83980584
Br      17.75970876      11.83980584      14.79975730
Br      17.75970876      14.79975730      11.83980584
Br      20.71966022      11.83980584      11.83980584
Cs      20.71966022      14.79975730      20.71966022
Pb      17.75970876      11.83980584      17.75970876
Br      17.75970876      11.83980584      20.71966022
Br      17.75970876      14.79975730      17.75970876
Br      20.71966022      11.83980584      17.75970876
Cs      20.71966022      14.79975730      26.63956314
Pb      17.75970876      11.83980584      23.67961168
Br      17.75970876      11.83980584      26.63956314
Br      17.75970876      14.79975730      23.67961168
Br      20.71966022      11.83980584      23.67961168
Cs      20.71966022      14.79975730      32.55946606
Pb      17.75970876      11.83980584      29.59951460
Br      17.75970876      11.83980584      32.55946606
Br      17.75970876      14.79975730      29.59951460
Br      20.71966022      11.83980584      29.59951460
Cs      20.71966022      20.71966022       2.95995146
Pb      17.75970876      17.75970876       0.00000000
Br      17.75970876      17.75970876       2.95995146
Br      17.75970876      20.71966022       0.00000000
Br      20.71966022      17.75970876       0.00000000
Cs      20.71966022      20.71966022       8.87985438
Pb      17.75970876      17.75970876       5.91990292
Br      17.75970876      17.75970876       8.87985438
Br      17.75970876      20.71966022       5.91990292
Br      20.71966022      17.75970876       5.91990292
Cs      20.71966022      20.71966022      14.79975730
Pb      17.75970876      17.75970876      11.83980584
Br      17.75970876      17.75970876      14.79975730
Br      17.75970876      20.71966022      11.83980584
Br      20.71966022      17.75970876      11.83980584
Cs      20.71966022      20.71966022      20.71966022
Pb      17.75970876      17.75970876      17.75970876
Br      17.75970876      17.75970876      20.71966022
Br      17.75970876      20.71966022      17.75970876
Br      20.71966022      17.75970876      17.75970876
Cs      20.71966022      20.71966022      26.63956314
Pb      17.75970876      17.75970876      23.67961168
Br      17.75970876      17.75970876      26.63956314
Br      17.75970876      20.71966022      23.67961168
Br      20.71966022      17.75970876      23.67961168
Cs      20.71966022      20.71966022      32.55946606
Pb      17.75970876      17.75970876      29.59951460
Br      17.75970876      17.75970876      32.55946606
Br      17.75970876      20.71966022      29.59951460
Br      20.71966022      17.75970876      29.59951460
Cs      20.71966022      26.63956314       2.95995146
Pb      17.75970876      23.67961168       0.00000000
Br      17.75970876      23.67961168       2.95995146
Br      17.75970876      26.63956314       0.00000000
Br      20.71966022      23.67961168       0.00000000
Cs      20.71966022      26.63956314       8.87985438
Pb      17.75970876      23.67961168       5.91990292
Br      17.75970876      23.67961168       8.87985438
Br      17.75970876      26.63956314       5.91990292
Br      20.71966022      23.67961168       5.91990292
Cs      20.71966022      26.63956314      14.79975730
Pb      17.75970876      23.67961168      11.83980584
Br      17.75970876      23.67961168      14.79975730
Br      17.75970876      26.63956314      11.83980584
Br      20.71966022      23.67961168      11.83980584
Cs      20.71966022      26.63956314      20.71966022
Pb      17.75970876      23.67961168      17.75970876
Br      17.75970876      23.67961168      20.71966022
Br      17.75970876      26.63956314      17.75970876
Br      20.71966022      23.67961168      17.75970876
Cs      20.71966022      26.63956314      26.63956314
Pb      17.75970876      23.67961168      23.67961168
Br      17.75970876      23.67961168      26.63956314
Br      17.75970876      26.63956314      23.67961168
Br      20.71966022      23.67961168      23.67961168
Cs      20.71966022      26.63956314      32.55946606
Pb      17.75970876      23.67961168      29.59951460
Br      17.75970876      23.67961168      32.55946606
Br      17.75970876      26.63956314      29.59951460
Br      20.71966022      23.67961168      29.59951460
Cs      20.71966022      32.55946606       2.95995146
Pb      17.75970876      29.59951460       0.00000000
Br      17.75970876      29.59951460       2.95995146
Br      17.75970876      32.55946606       0.00000000
Br      20.71966022      29.59951460       0.00000000
Cs      20.71966022      32.55946606       8.87985438
Pb      17.75970876      29.59951460       5.91990292
Br      17.75970876      29.59951460       8.87985438
Br      17.75970876      32.55946606       5.91990292
Br      20.71966022      29.59951460       5.91990292
Cs      20.71966022      32.55946606      14.79975730
Pb      17.75970876      29.59951460      11.83980584
Br      17.75970876      29.59951460      14.79975730
Br      17.75970876      32.55946606      11.83980584
Br      20.71966022      29.59951460      11.83980584
Cs      20.71966022      32.55946606      20.71966022
Pb      17.75970876      29.59951460      17.75970876
Br      17.75970876      29.59951460      20.71966022
Br      17.75970876      32.55946606      17.75970876
Br      20.71966022      29.59951460      17.75970876
Cs      20.71966022      32.55946606      26.63956314
Pb      17.75970876      29.59951460      23.67961168
Br      17.75970876      29.59951460      26.63956314
Br      17.75970876      32.55946606      23.67961168
Br      20.71966022      29.59951460      23.67961168
Cs      20.71966022      32.55946606      32.55946606
Pb      17.75970876      29.59951460      29.59951460
Br      17.75970876      29.59951460      32.55946606
Br      17.75970876      32.55946606      29.59951460
Br      20.71966022      29.59951460      29.59951460
Cs      26.63956314       2.95995146       2.95995146
Pb      23.67961168       0.00000000       0.00000000
Br      23.67961168       0.00000000       2.95995146
Br      23.67961168       2.95995146       0.00000000
Br      26.63956314       0.00000000       0.00000000
Cs      26.63956314       2.95995146       8.87985438
Pb      23.67961168       0.00000000       5.91990292
Br      23.67961168       0.00000000       8.87985438
Br      23.67961168       2.95995146       5.91990292
Br      26.63956314       0.00000000       5.91990292
Cs      26.63956314       2.95995146      14.79975730
Pb      23.67961168       0.00000000      11.83980584
Br      23.67961168       0.00000000      14.79975730
Br      23.67961168       2.95995146      11.83980584
Br      26.63956314       0.00000000      11.83980584
Cs      26.63956314       2.95995146      20.71966022
Pb      23.67961168       0.00000000      17.75970876
Br      23.67961168       0.00000000      20.71966022
Br      23.67961168       2.95995146      17.75970876
Br      26.63956314       0.00000000      17.75970876
Cs      26.63956314       2.95995146      26.63956314
Pb      23.67961168       0.00000000      23.67961168
Br      23.67961168       0.00000000      26.63956314
Br      23.67961168       2.95995146      23.67961168
Br      26.63956314       0.00000000      23.67961168
Cs      26.63956314       2.95995146      32.55946606
Pb      23.67961168       0.00000000      29.59951460
Br      23.67961168       0.00000000      32.55946606
Br      23.67961168       2.95995146      29.59951460
Br      26.63956314       0.00000000      29.59951460
Cs      26.63956314       8.87985438       2.95995146
Pb      23.67961168       5.91990292       0.00000000
Br      23.67961168       5.91990292       2.95995146
Br      23.67961168       8.87985438       0.00000000
Br      26.63956314       5.91990292       0.00000000
Cs      26.63956314       8.87985438       8.87985438
Pb      23.67961168       5.91990292       5.91990292
Br      23.67961168       5.91990292       8.87985438
Br      23.67961168       8.87985438       5.91990292
Br      26.63956314       5.91990292       5.91990292
Cs      26.63956314       8.87985438      14.79975730
Pb      23.67961168       5.91990292      11.83980584
Br      23.67961168       5.91990292      14.79975730
Br      23.67961168       8.87985438      11.83980584
Br      26.63956314       5.91990292      11.83980584
Cs      26.63956314       8.87985438      20.71966022
Pb      23.67961168       5.91990292      17.75970876
Br      23.67961168       5.91990292      20.71966022
Br      23.67961168       8.87985438      17.75970876
Br      26.63956314       5.91990292      17.75970876
Cs      26.63956314       8.87985438      26.63956314
Pb      23.67961168       5.91990292      23.67961168
Br      23.67961168       5.91990292      26.63956314
Br      23.67961168       8.87985438      23.67961168
Br      26.63956314       5.91990292      23.67961168
Cs      26.63956314       8.87985438      32.55946606
Pb      23.67961168       5.91990292      29.59951460
Br      23.67961168       5.91990292      32.55946606
Br      23.67961168       8.87985438      29.59951460
Br      26.63956314       5.91990292      29.59951460
Cs      26.63956314      14.79975730       2.95995146
Pb      23.67961168      11.83980584       0.00000000
Br      23.67961168      11.83980584       2.95995146
Br      23.67961168      14.79975730       0.00000000
Br      26.63956314      11.83980584       0.00000000
Cs      26.63956314      14.79975730       8.87985438
Pb      23.67961168      11.83980584       5.91990292
Br      23.67961168      11.83980584       8.87985438
Br      23.67961168      14.79975730       5.91990292
Br      26.63956314      11.83980584       5.91990292
Cs      26.63956314      14.79975730      14.79975730
Pb      23.67961168      11.83980584      11.83980584
Br      23.67961168      11.83980584      14.79975730
Br      23.67961168      14.79975730      11.83980584
Br      26.63956314      11.83980584      11.83980584
Cs      26.63956314      14.79975730      20.71966022
Pb      23.67961168      11.83980584      17.75970876
Br      23.67961168      11.83980584      20.71966022
Br      23.67961168      14.79975730      17.75970876
Br      26.63956314      11.83980584      17.75970876
Cs      26.63956314      14.79975730      26.63956314
Pb      23.67961168      11.83980584      23.67961168
Br      23.67961168      11.83980584      26.63956314
Br      23.67961168      14.79975730      23.67961168
Br      26.63956314      11.83980584      23.67961168
Cs      26.63956314      14.79975730      32.55946606
Pb      23.67961168      11.83980584      29.59951460
Br      23.67961168      11.83980584      32.55946606
Br      23.67961168      14.79975730      29.59951460
Br      26.63956314      11.83980584      29.59951460
Cs      26.63956314      20.71966022       2.95995146
Pb      23.67961168      17.75970876       0.00000000
Br      23.67961168      17.75970876       2.95995146
Br      23.67961168      20.71966022       0.00000000
Br      26.63956314      17.75970876       0.00000000
Cs      26.63956314      20.71966022       8.87985438
Pb      23.67961168      17.75970876       5.91990292
Br      23.67961168      17.75970876       8.87985438
Br      23.67961168      20.71966022       5.91990292
Br      26.63956314      17.75970876       5.91990292
Cs      26.63956314      20.71966022      14.79975730
Pb      23.67961168      17.75970876      11.83980584
Br      23.67961168      17.75970876      14.79975730
Br      23.67961168      20.71966022      11.83980584
Br      26.63956314      17.75970876      11.83980584
Cs      26.63956314      20.71966022      20.71966022
Pb      23.67961168      17.75970876      17.75970876
Br      23.67961168      17.75970876      20.71966022
Br      23.67961168      20.71966022      17.75970876
Br      26.63956314      17.75970876      17.75970876
Cs      26.63956314      20.71966022      26.63956314
Pb      23.67961168      17.75970876      23.67961168
Br      23.67961168      17.75970876      26.63956314
Br      23.67961168      20.71966022      23.67961168
Br      26.63956314      17.75970876      23.67961168
Cs      26.63956314      20.71966022      32.55946606
Pb      23.67961168      17.75970876      29.59951460
Br      23.67961168      17.75970876      32.55946606
Br      23.67961168      20.71966022      29.59951460
Br      26.63956314      17.75970876      29.59951460
Cs      26.63956314      26.63956314       2.95995146
Pb      23.67961168      23.67961168       0.00000000
Br      23.67961168      23.67961168       2.95995146
Br      23.67961168      26.63956314       0.00000000
Br      26.63956314      23.67961168       0.00000000
Cs      26.63956314      26.63956314       8.87985438
Pb      23.67961168      23.67961168       5.91990292
Br      23.67961168      23.67961168       8.87985438
Br      23.67961168      26.63956314       5.91990292
Br      26.63956314      23.67961168       5.91990292
Cs      26.63956314      26.63956314      14.79975730
Pb      23.67961168      23.67961168      11.83980584
Br      23.67961168      23.67961168      14.79975730
Br      23.67961168      26.63956314      11.83980584
Br      26.63956314      23.67961168      11.83980584
Cs      26.63956314      26.63956314      20.71966022
Pb      23.67961168      23.67961168      17.75970876
Br      23.67961168      23.67961168      20.71966022
Br      23.67961168      26.63956314      17.75970876
Br      26.63956314      23.67961168      17.75970876
Cs      26.63956314      26.63956314      26.63956314
Pb      23.67961168      23.67961168      23.67961168
Br      23.67961168      23.67961168      26.63956314
Br      23.67961168      26.63956314      23.67961168
Br      26.63956314      23.67961168      23.67961168
Cs      26.63956314      26.63956314      32.55946606
Pb      23.67961168      23.67961168      29.59951460
Br      23.67961168      23.67961168      32.55946606
Br      23.67961168      26.63956314      29.59951460
Br      26.63956314      23.67961168      29.59951460
Cs      26.63956314      32.55946606       2.95995146
Pb      23.67961168      29.59951460       0.00000000
Br      23.67961168      29.59951460       2.95995146
Br      23.67961168      32.55946606       0.00000000
Br      26.63956314      29.59951460       0.00000000
Cs      26.63956314      32.55946606       8.87985438
Pb      23.67961168      29.59951460       5.91990292
Br      23.67961168      29.59951460       8.87985438
Br      23.67961168      32.55946606       5.91990292
Br      26.63956314      29.59951460       5.91990292
Cs      26.63956314      32.55946606      14.79975730
Pb      23.67961168      29.59951460      11.83980584
Br      23.67961168      29.59951460      14.79975730
Br      23.67961168      32.55946606      11.83980584
Br      26.63956314      29.59951460      11.83980584
Cs      26.63956314      32.55946606      20.71966022
Pb      23.67961168      29.59951460      17.75970876
Br      23.67961168      29.59951460      20.71966022
Br      23.67961168      32.55946606      17.75970876
Br      26.63956314      29.59951460      17.75970876
Cs      26.63956314      32.55946606      26.63956314
Pb      23.67961168      29.59951460      23.67961168
Br      23.67961168      29.59951460      26.63956314
Br      23.67961168      32.55946606      23.67961168
Br      26.63956314      29.59951460      23.67961168
Cs      26.63956314      32.55946606      32.55946606
Pb      23.67961168      29.59951460      29.59951460
Br      23.67961168      29.59951460      32.55946606
Br      23.67961168      32.55946606      29.59951460
Br      26.63956314      29.59951460      29.59951460
Cs      32.55946606       2.95995146       2.95995146
Pb      29.59951460       0.00000000       0.00000000
Br      29.59951460       0.00000000       2.95995146
Br      29.59951460       2.95995146       0.00000000
Br      32.55946606       0.00000000       0.00000000
Cs      32.55946606       2.95995146       8.87985438
Pb      29.59951460       0.00000000       5.91990292
Br      29.59951460       0.00000000       8.87985438
Br      29.59951460       2.95995146       5.91990292
Br      32.55946606       0.00000000       5.91990292
Cs      32.55946606       2.95995146      14.79975730
Pb      29.59951460       0.00000000      11.83980584
Br      29.59951460       0.00000000      14.79975730
Br      29.59951460       2.95995146      11.83980584
Br      32.55946606       0.00000000      11.83980584
Cs      32.55946606       2.95995146      20.71966022
Pb      29.59951460       0.00000000      17.75970876
Br      29.59951460       0.00000000      20.71966022
Br      29.59951460       2.95995146      17.75970876
Br      32.55946606       0.00000000      17.75970876
Cs      32.55946606       2.95995146      26.63956314
Pb      29.59951460       0.00000000      23.67961168
Br      29.59951460       0.00000000      26.63956314
Br      29.59951460       2.95995146      23.67961168
Br      32.55946606       0.00000000      23.67961168
Cs      32.55946606       2.95995146      32.55946606
Pb      29.59951460       0.00000000      29.59951460
Br      29.59951460       0.00000000      32.55946606
Br      29.59951460       2.95995146      29.59951460
Br      32.55946606       0.00000000      29.59951460
Cs      32.55946606       8.87985438       2.95995146
Pb      29.59951460       5.91990292       0.00000000
Br      29.59951460       5.91990292       2.95995146
Br      29.59951460       8.87985438       0.00000000
Br      32.55946606       5.91990292       0.00000000
Cs      32.55946606       8.87985438       8.87985438
Pb      29.59951460       5.91990292       5.91990292
Br      29.59951460       5.91990292       8.87985438
Br      29.59951460       8.87985438       5.91990292
Br      32.55946606       5.91990292       5.91990292
Cs      32.55946606       8.87985438      14.79975730
Pb      29.59951460       5.91990292      11.83980584
Br      29.59951460       5.91990292      14.79975730
Br      29.59951460       8.87985438      11.83980584
Br      32.55946606       5.91990292      11.83980584
Cs      32.55946606       8.87985438      20.71966022
Pb      29.59951460       5.91990292      17.75970876
Br      29.59951460       5.91990292      20.71966022
Br      29.59951460       8.87985438      17.75970876
Br      32.55946606       5.91990292      17.75970876
Cs      32.55946606       8.87985438      26.63956314
Pb      29.59951460       5.91990292      23.67961168
Br      29.59951460       5.91990292      26.63956314
Br      29.59951460       8.87985438      23.67961168
Br      32.55946606       5.91990292      23.67961168
Cs      32.55946606       8.87985438      32.55946606
Pb      29.59951460       5.91990292      29.59951460
Br      29.59951460       5.91990292      32.55946606
Br      29.59951460       8.87985438      29.59951460
Br      32.55946606       5.91990292      29.59951460
Cs      32.55946606      14.79975730       2.95995146
Pb      29.59951460      11.83980584       0.00000000
Br      29.59951460      11.83980584       2.95995146
Br      29.59951460      14.79975730       0.00000000
Br      32.55946606      11.83980584       0.00000000
Cs      32.55946606      14.79975730       8.87985438
Pb      29.59951460      11.83980584       5.91990292
Br      29.59951460      11.83980584       8.87985438
Br      29.59951460      14.79975730       5.91990292
Br      32.55946606      11.83980584       5.91990292
Cs      32.55946606      14.79975730      14.79975730
Pb      29.59951460      11.83980584      11.83980584
Br      29.59951460      11.83980584      14.79975730
Br      29.59951460      14.79975730      11.83980584
Br      32.55946606      11.83980584      11.83980584
Cs      32.55946606      14.79975730      20.71966022
Pb      29.59951460      11.83980584      17.75970876
Br      29.59951460      11.83980584      20.71966022
Br      29.59951460      14.79975730      17.75970876
Br      32.55946606      11.83980584      17.75970876
Cs      32.55946606      14.79975730      26.63956314
Pb      29.59951460      11.83980584      23.67961168
Br      29.59951460      11.83980584      26.63956314
Br      29.59951460      14.79975730      23.67961168
Br      32.55946606      11.83980584      23.67961168
Cs      32.55946606      14.79975730      32.55946606
Pb      29.59951460      11.83980584      29.59951460
Br      29.59951460      11.83980584      32.55946606
Br      29.59951460      14.79975730      29.59951460
Br      32.55946606      11.83980584      29.59951460
Cs      32.55946606      20.71966022       2.95995146
Pb      29.59951460      17.75970876       0.00000000
Br      29.59951460      17.75970876       2.95995146
Br      29.59951460      20.71966022       0.00000000
Br      32.55946606      17.75970876       0.00000000
Cs      32.55946606      20.71966022       8.87985438
Pb      29.59951460      17.75970876       5.91990292
Br      29.59951460      17.75970876       8.87985438
Br      29.59951460      20.71966022       5.91990292
Br      32.55946606      17.75970876       5.91990292
Cs      32.55946606      20.71966022      14.79975730
Pb      29.59951460      17.75970876      11.83980584
Br      29.59951460      17.75970876      14.79975730
Br      29.59951460      20.71966022      11.83980584
Br      32.55946606      17.75970876      11.83980584
Cs      32.55946606      20.71966022      20.71966022
Pb      29.59951460      17.75970876      17.75970876
Br      29.59951460      17.75970876      20.71966022
Br      29.59951460      20.71966022      17.75970876
Br      32.55946606      17.75970876      17.75970876
Cs      32.55946606      20.71966022      26.63956314
Pb      29.59951460      17.75970876      23.67961168
Br      29.59951460      17.75970876      26.63956314
Br      29.59951460      20.71966022      23.67961168
Br      32.55946606      17.75970876      23.67961168
Cs      32.55946606      20.71966022      32.55946606
Pb      29.59951460      17.75970876      29.59951460
Br      29.59951460      17.75970876      32.55946606
Br      29.59951460      20.71966022      29.59951460
Br      32.55946606      17.75970876      29.59951460
Cs      32.55946606      26.63956314       2.95995146
Pb      29.59951460      23.67961168       0.00000000
Br      29.59951460      23.67961168       2.95995146
Br      29.59951460      26.63956314       0.00000000
Br      32.55946606      23.67961168       0.00000000
Cs      32.55946606      26.63956314       8.87985438
Pb      29.59951460      23.67961168       5.91990292
Br      29.59951460      23.67961168       8.87985438
Br      29.59951460      26.63956314       5.91990292
Br      32.55946606      23.67961168       5.91990292
Cs      32.55946606      26.63956314      14.79975730
Pb      29.59951460      23.67961168      11.83980584
Br      29.59951460      23.67961168      14.79975730
Br      29.59951460      26.63956314      11.83980584
Br      32.55946606      23.67961168      11.83980584
Cs      32.55946606      26.63956314      20.71966022
Pb      29.59951460      23.67961168      17.75970876
Br      29.59951460      23.67961168      20.71966022
Br      29.59951460      26.63956314      17.75970876
Br      32.55946606      23.67961168      17.75970876
Cs      32.55946606      26.63956314      26.63956314
Pb      29.59951460      23.67961168      23.67961168
Br      29.59951460      23.67961168      26.63956314
Br      29.59951460      26.63956314      23.67961168
Br      32.55946606      23.67961168      23.67961168
Cs      32.55946606      26.63956314      32.55946606
Pb      29.59951460      23.67961168      29.59951460
Br      29.59951460      23.67961168      32.55946606
Br      29.59951460      26.63956314      29.59951460
Br      32.55946606      23.67961168      29.59951460
Cs      32.55946606      32.55946606       2.95995146
Pb      29.59951460      29.59951460       0.00000000
Br      29.59951460      29.59951460       2.95995146
Br      29.59951460      32.55946606       0.00000000
Br      32.55946606      29.59951460       0.00000000
Cs      32.55946606      32.55946606       8.87985438
Pb      29.59951460      29.59951460       5.91990292
Br      29.59951460      29.59951460       8.87985438
Br      29.59951460      32.55946606       5.91990292
Br      32.55946606      29.59951460       5.91990292
Cs      32.55946606      32.55946606      14.79975730
Pb      29.59951460      29.59951460      11.83980584
Br      29.59951460      29.59951460      14.79975730
Br      29.59951460      32.55946606      11.83980584
Br      32.55946606      29.59951460      11.83980584
Cs      32.55946606      32.55946606      20.71966022
Pb      29.59951460      29.59951460      17.75970876
Br      29.59951460      29.59951460      20.71966022
Br      29.59951460      32.55946606      17.75970876
Br      32.55946606      29.59951460      17.75970876
Cs      32.55946606      32.55946606      26.63956314
Pb      29.59951460      29.59951460      23.67961168
Br      29.59951460      29.59951460      26.63956314
Br      29.59951460      32.55946606      23.67961168
Br      32.55946606      29.59951460      23.67961168
Cs      32.55946606      32.55946606      32.55946606
Pb      29.59951460      29.59951460      29.59951460
Br      29.59951460      29.59951460      32.55946606
Br      29.59951460      32.55946606      29.59951460
Br      32.55946606      29.59951460      29.59951460
