128
Lattice="-2.104512121665861e-17 11.228532070885228 11.228532070885228 11.228532070885228 5.7330488807598e-18 11.228532070885228 11.228532070885228 11.228532070885228 -1.4373863635766547e-17" Properties=species:S:1:pos:R:3:forces:R:3 energy=-440.3336181640625 stress="-9.916629642248154e-05 8.328926696776762e-06 1.9864558225890505e-05 8.328926696776762e-06 7.242905849125236e-05 -8.56177430250682e-05 1.9864558225890505e-05 -8.56177430250682e-05 1.7875277990242466e-05" pbc="T T T"
Na       0.00000000       0.00000000       0.00000000      -0.00000748      -0.00337612      -0.00322837
Cl       2.80713302       0.00000000       0.00000000      -0.00002969       0.00407739       0.06835844
Na       2.80713302       2.80713302      -0.00000000      -0.00075056      -0.00414911      -0.00320636
Cl       5.61426604       2.80713302      -0.00000000       0.00057565       0.00463835       0.00028012
Na       5.61426604       5.61426604      -0.00000000      -0.00096809      -0.00408662       0.00185110
Cl       8.42139905       5.61426604      -0.00000000       0.00002424       0.00410612      -0.00230985
Na       8.42139905       8.42139905      -0.00000000      -0.00003658      -0.00314523       0.00185299
Cl      11.22853207       8.42139905      -0.00000000      -0.00050068       0.00355880       0.00028440
Na       2.80713302       0.00000000       2.80713302      -0.00000587      -0.00404266      -0.01492246
Cl       5.61426604       0.00000000       2.80713302      -0.00576584       0.00466205      -0.00381741
Na       5.61426604       2.80713302       2.80713302       0.00095364      -0.00310965       0.00099090
Cl       8.42139905       2.80713302       2.80713302      -0.00052423       0.00427396      -0.00135063
Na       8.42139905       5.61426604       2.80713302      -0.00002464      -0.00409161       0.00182208
Cl      11.22853207       5.61426604       2.80713302      -0.00015209       0.00464038      -0.00135261
Na      11.22853207       8.42139905       2.80713302      -0.00100139      -0.00506169       0.00098721
Cl      14.03566509       8.42139905       2.80713302      -0.00052618       0.00988456      -0.00381653
Na       5.61426604       0.00000000       5.61426604       0.00091762      -0.00408701       0.00185105
Cl       8.42139905       0.00000000       5.61426604      -0.00113090       0.00408940      -0.00100490
Na       8.42139905       2.80713302       5.61426604       0.00067535      -0.00409161       0.00137857
Cl      11.22853207       2.80713302       5.61426604      -0.00050300       0.00462652      -0.00151468
Na      11.22853207       5.61426604       5.61426604      -0.00003136      -0.00479303       0.00137839
Cl      14.03566509       5.61426604       5.61426604       0.00004344       0.00525269      -0.00102222
Na      14.03566509       8.42139905       5.61426604      -0.00002563      -0.00502622       0.00185613
Cl      16.84279811       8.42139905       5.61426604      -0.00051656       0.00461662       0.00027575
Na       8.42139905       0.00000000       8.42139905       0.00142028      -0.00264724       0.00081140
Cl      11.22853207       0.00000000       8.42139905      -0.00588467       0.00350866      -0.00386279
Na      11.22853207       2.80713302       8.42139905       0.00095705      -0.00505345       0.00097251
Cl      14.03566509       2.80713302       8.42139905       0.00058029       0.01001171      -0.00387240
Na      14.03566509       5.61426604       8.42139905      -0.00148907      -0.00552931       0.00082697
Cl      16.84279811       5.61426604       8.42139905       0.00584156       0.00468077      -0.00387124
Na      16.84279811       8.42139905       8.42139905      -0.00102002      -0.00310707       0.00098393
Cl      19.64993112       8.42139905       8.42139905      -0.00051343      -0.00173021      -0.00380979
Na      -0.00000000       2.80713302       2.80713302      -0.00246997      -0.00164962       0.00035779
Cl       2.80713302       2.80713302       2.80713302       0.00057438      -0.00173125      -0.00381253
Na       2.80713302       5.61426604       2.80713302      -0.00146036      -0.00264699       0.00082092
Cl       5.61426604       5.61426604       2.80713302       0.00020060       0.00353486      -0.00135509
Na       5.61426604       8.42139905       2.80713302      -0.00050685      -0.00361153       0.00159096
Cl       8.42139905       8.42139905       2.80713302       0.00057616       0.00391105      -0.00135902
Na       8.42139905      11.22853207       2.80713302      -0.00149571      -0.00264717       0.00081077
Cl      11.22853207      11.22853207       2.80713302       0.00584142       0.00358001      -0.00386439
Na       2.80713302       2.80713302       5.61426604      -0.00001069      -0.00314392       0.00186061
Cl       5.61426604       2.80713302       5.61426604      -0.00053392       0.00352765      -0.00152666
Na       5.61426604       5.61426604       5.61426604      -0.00003244      -0.00337761       0.00138151
Cl       8.42139905       5.61426604       5.61426604       0.00003196       0.00408796      -0.00136000
Na       8.42139905       8.42139905       5.61426604      -0.00074284      -0.00409183       0.00137693
Cl      11.22853207       8.42139905       5.61426604       0.00058945       0.00465286      -0.00153118
Na      11.22853207      11.22853207       5.61426604      -0.00096375      -0.00410434       0.00185516
Cl      14.03566509      11.22853207       5.61426604       0.00001739       0.00410267      -0.00231133
Na       5.61426604       2.80713302       8.42139905       0.00044403      -0.00361110       0.00158703
Cl       8.42139905       2.80713302       8.42139905      -0.00051906       0.00391790      -0.00134978
Na       8.42139905       5.61426604       8.42139905      -0.00003811      -0.00408707       0.00179513
Cl      11.22853207       5.61426604       8.42139905       0.00019640       0.00464189      -0.00135436
Na      11.22853207       8.42139905       8.42139905      -0.00050202      -0.00456090       0.00158936
Cl      14.03566509       8.42139905       8.42139905       0.00058075       0.00426965      -0.00135415
Na      14.03566509      11.22853207       8.42139905      -0.00002375      -0.00408454       0.00182118
Cl      16.84279811      11.22853207       8.42139905      -0.00014876       0.00353273      -0.00134708
Na       8.42139905       2.80713302      11.22853207      -0.00004035      -0.00318599       0.00184062
Cl      11.22853207       2.80713302      11.22853207       0.00059662       0.00351553       0.00028573
Na      11.22853207       5.61426604      11.22853207      -0.00093432      -0.00407965       0.00185841
Cl      14.03566509       5.61426604      11.22853207       0.00119682       0.00409339      -0.00101772
Na      14.03566509       8.42139905      11.22853207      -0.00073971      -0.00408688       0.00138036
Cl      16.84279811       8.42139905      11.22853207       0.00058901       0.00352842      -0.00152634
Na      16.84279811      11.22853207      11.22853207      -0.00003145      -0.00337449       0.00137609
Cl      19.64993112      11.22853207      11.22853207       0.00004376       0.00291115      -0.00102559
Na      -0.00000000       5.61426604       5.61426604      -0.00006591      -0.00335489      -0.00318842
Cl       2.80713302       5.61426604       5.61426604       0.00001457       0.00290998      -0.00102568
Na       2.80713302       8.42139905       5.61426604      -0.00002757      -0.00319138       0.00184466
Cl       5.61426604       8.42139905       5.61426604       0.00057820       0.00354969      -0.00151530
Na       5.61426604      11.22853207       5.61426604      -0.00093631      -0.00409771       0.00185826
Cl       8.42139905      11.22853207       5.61426604       0.00119938       0.00410702      -0.00101771
Na       8.42139905      14.03566509       5.61426604      -0.00074035      -0.00407922      -0.00319640
Cl      11.22853207      14.03566509       5.61426604       0.00053874       0.00356108       0.00027467
Na       2.80713302       5.61426604       8.42139905       0.00138625      -0.00264489       0.00080558
Cl       5.61426604       5.61426604       8.42139905      -0.00012115       0.00354002      -0.00134097
Na       5.61426604       8.42139905       8.42139905      -0.00100493      -0.00310624       0.00095796
Cl       8.42139905       8.42139905       8.42139905       0.00057838       0.00424992      -0.00134749
Na       8.42139905      11.22853207       8.42139905      -0.00145042      -0.00552367       0.00081377
Cl      11.22853207      11.22853207       8.42139905       0.00019774       0.00464133      -0.00136139
Na      11.22853207      14.03566509       8.42139905       0.00095526      -0.00506778       0.00098923
Cl      14.03566509      14.03566509       8.42139905      -0.00052478       0.00390556      -0.00135635
Na       5.61426604       5.61426604      11.22853207       0.00087021      -0.00409650       0.00184404
Cl       8.42139905       5.61426604      11.22853207       0.00003394       0.00407637      -0.00225879
Na       8.42139905       8.42139905      11.22853207      -0.00001814      -0.00499179       0.00186192
Cl      11.22853207       8.42139905      11.22853207       0.00057591       0.00462875      -0.00151997
Na      11.22853207      11.22853207      11.22853207      -0.00002599      -0.00479260       0.00138213
Cl      14.03566509      11.22853207      11.22853207       0.00003078       0.00408608      -0.00135926
Na      14.03566509      14.03566509      11.22853207       0.00067988      -0.00408998       0.00137406
Cl      16.84279811      14.03566509      11.22853207      -0.00051032       0.00354420      -0.00151492
Na       8.42139905       5.61426604      14.03566509      -0.00004739      -0.00409748      -0.01903305
Cl      11.22853207       5.61426604      14.03566509       0.00598414       0.00350256      -0.00391701
Na      11.22853207       8.42139905      14.03566509      -0.00101067      -0.00507290       0.00097595
Cl      14.03566509       8.42139905      14.03566509       0.00058011       0.00392057      -0.00135436
Na      14.03566509      11.22853207      14.03566509      -0.00003607      -0.00408593       0.00179226
Cl      16.84279811      11.22853207      14.03566509       0.00020249       0.00354444      -0.00135046
Na      16.84279811      14.03566509      14.03566509       0.00093650      -0.00312282       0.00095460
Cl      19.64993112      14.03566509      14.03566509       0.00059644      -0.00184659      -0.00386431
Na      -0.00000000       8.42139905       8.42139905       0.00239322      -0.00167114       0.00035629
Cl       2.80713302       8.42139905       8.42139905      -0.00051120      -0.00184191      -0.00386031
Na       2.80713302      11.22853207       8.42139905      -0.00004761      -0.00410569      -0.01903082
Cl       5.61426604      11.22853207       8.42139905       0.00597998       0.00461097      -0.00392147
Na       5.61426604      14.03566509       8.42139905      -0.00245411      -0.00652453       0.00037609
Cl       8.42139905      14.03566509       8.42139905       0.00057475       0.00988672      -0.00382071
Na       8.42139905      16.84279811       8.42139905      -0.00000403      -0.00404331      -0.01492486
Cl      11.22853207      16.84279811       8.42139905      -0.00575838       0.00356520      -0.00381241
Na       2.80713302       8.42139905      11.22853207       0.00067569      -0.00408319      -0.00319960
Cl       5.61426604       8.42139905      11.22853207      -0.00055418       0.00465960       0.00028567
Na       5.61426604      11.22853207      11.22853207      -0.00006645      -0.00477420      -0.00318654
Cl       8.42139905      11.22853207      11.22853207       0.00001524       0.00525085      -0.00102283
Na       8.42139905      14.03566509      11.22853207      -0.00001314      -0.00503238       0.00185849
Cl      11.22853207      14.03566509      11.22853207      -0.00053348       0.00465132      -0.00152586
Na      11.22853207      16.84279811      11.22853207       0.00091424      -0.00410653       0.00185004
Cl      14.03566509      16.84279811      11.22853207      -0.00113192       0.00410203      -0.00100566
Na       5.61426604       8.42139905      14.03566509       0.00242106      -0.00650934       0.00036951
Cl       8.42139905       8.42139905      14.03566509      -0.00051883       0.01000647      -0.00387024
Na       8.42139905      11.22853207      14.03566509       0.00139280      -0.00552828       0.00082111
Cl      11.22853207      11.22853207      14.03566509      -0.00011963       0.00464201      -0.00134740
Na      11.22853207      14.03566509      14.03566509       0.00044615      -0.00456504       0.00158287
Cl      14.03566509      14.03566509      14.03566509      -0.00051227       0.00425028      -0.00134565
Na      14.03566509      16.84279811      14.03566509       0.00143107      -0.00552559       0.00080391
Cl      16.84279811      16.84279811      14.03566509      -0.00588859       0.00461547      -0.00386885
Na       8.42139905       8.42139905      16.84279811       0.00067234      -0.00414653      -0.00321118
Cl      11.22853207       8.42139905      16.84279811      -0.00052314       0.00353041       0.00029510
Na      11.22853207      11.22853207      16.84279811       0.00086459      -0.00407956       0.00183915
Cl      14.03566509      11.22853207      16.84279811       0.00003729       0.00407900      -0.00225811
Na      14.03566509      14.03566509      16.84279811      -0.00004346      -0.00499379       0.00185300
Cl      16.84279811      14.03566509      16.84279811       0.00060852       0.00466019       0.00028982
Na      16.84279811      16.84279811      16.84279811      -0.00000166      -0.00479230      -0.00322861
Cl      19.64993112      16.84279811      16.84279811      -0.00002964       0.00407471       0.06835995
