3456
Lattice="-6.313536364997584e-17 33.68559621265568 33.68559621265568 33.68559621265568 1.7199146642279402e-17 33.68559621265568 33.68559621265568 33.68559621265568 -4.312159090729964e-17" Properties=species:S:1:pos:R:3:forces:R:3 energy=-11888.970703125 stress="-9.892040543491021e-05 8.36221670397208e-06 1.9971587335021468e-05 8.36221670397208e-06 7.260899292305112e-05 -8.56054830364883e-05 1.9971587335021468e-05 -8.56054830364883e-05 2.5223749616998248e-05" pbc="T T T"
Na       0.00000000       0.00000000       0.00000000      -0.00003135      -0.00408688       0.00089139
Cl       2.80713302       0.00000000       0.00000000       0.00002890       0.00408753      -0.00089089
Na       2.80713302       2.80713302      -0.00000000      -0.00002863      -0.00408707       0.00089145
Cl       5.61426604       2.80713302      -0.00000000       0.00002914       0.00408717      -0.00089078
Na       5.61426604       5.61426604      -0.00000000      -0.00002859      -0.00408676       0.00089152
Cl       8.42139905       5.61426604      -0.00000000       0.00002858       0.00408752      -0.00089078
Na       8.42139905       8.42139905      -0.00000000      -0.00002917      -0.00408738       0.00089139
Cl      11.22853207       8.42139905      -0.00000000       0.00003025       0.00408695      -0.00089068
Na      11.22853207      11.22853207      -0.00000000      -0.00002855      -0.00408614       0.00089127
Cl      14.03566509      11.22853207      -0.00000000       0.00002838       0.00408809      -0.00089110
Na      14.03566509      14.03566509      -0.00000000      -0.00003140      -0.00408751       0.00089106
Cl      16.84279811      14.03566509      -0.00000000       0.00002915       0.00408506      -0.00089155
Na      16.84279811      16.84279811      -0.00000000      -0.00003099      -0.00408696       0.00089071
Cl      19.64993112      16.84279811      -0.00000000       0.00002922       0.00408555      -0.00089176
Na      19.64993112      19.64993112      -0.00000000      -0.00003091      -0.00408739       0.00089101
Cl      22.45706414      19.64993112      -0.00000000       0.00002874       0.00408571      -0.00089168
Na      22.45706414      22.45706414      -0.00000000      -0.00002942      -0.00408757       0.00089103
Cl      25.26419716      22.45706414      -0.00000000       0.00003159       0.00408610      -0.00089079
Na      25.26419716      25.26419716      -0.00000000      -0.00002578      -0.00408596       0.00089202
Cl      28.07133018      25.26419716      -0.00000000       0.00002746       0.00409070      -0.00089021
Na      28.07133018      28.07133018      -0.00000000      -0.00002972      -0.00408797       0.00089191
Cl      30.87846319      28.07133018      -0.00000000       0.00002927       0.00408647      -0.00089056
Na      30.87846319      30.87846319      -0.00000000      -0.00003043      -0.00408691       0.00089141
Cl      33.68559621      30.87846319      -0.00000000       0.00002829       0.00408781      -0.00089161
Na       2.80713302       0.00000000       2.80713302      -0.00002875      -0.00408688       0.00089142
Cl       5.61426604       0.00000000       2.80713302       0.00002934       0.00408738      -0.00089093
Na       5.61426604       2.80713302       2.80713302      -0.00002871      -0.00408690       0.00089134
Cl       8.42139905       2.80713302       2.80713302       0.00002848       0.00408739      -0.00089083
Na       8.42139905       5.61426604       2.80713302      -0.00002967      -0.00408689       0.00089117
Cl      11.22853207       5.61426604       2.80713302       0.00003026       0.00408762      -0.00089080
Na      11.22853207       8.42139905       2.80713302      -0.00002851      -0.00408728       0.00089129
Cl      14.03566509       8.42139905       2.80713302       0.00002796       0.00408703      -0.00089100
Na      14.03566509      11.22853207       2.80713302      -0.00003022      -0.00408619       0.00089129
Cl      16.84279811      11.22853207       2.80713302       0.00002916       0.00408818      -0.00089114
Na      16.84279811      14.03566509       2.80713302      -0.00002922      -0.00408788       0.00089134
Cl      19.64993112      14.03566509       2.80713302       0.00002942       0.00408491      -0.00089120
Na      19.64993112      16.84279811       2.80713302      -0.00002891      -0.00408738       0.00089113
Cl      22.45706414      16.84279811       2.80713302       0.00002981       0.00408523      -0.00089150
Na      22.45706414      19.64993112       2.80713302      -0.00002876      -0.00408764       0.00089124
Cl      25.26419716      19.64993112       2.80713302       0.00003128       0.00408530      -0.00089130
Na      25.26419716      22.45706414       2.80713302      -0.00002692      -0.00408755       0.00089079
Cl      28.07133018      22.45706414       2.80713302       0.00002735       0.00408638      -0.00089128
Na      28.07133018      25.26419716       2.80713302      -0.00003123      -0.00408532       0.00089148
Cl      30.87846319      25.26419716       2.80713302       0.00002917       0.00409089      -0.00089071
Na      30.87846319      28.07133018       2.80713302      -0.00003000      -0.00408793       0.00089162
Cl      33.68559621      28.07133018       2.80713302       0.00002885       0.00408650      -0.00089066
Na      33.68559621      30.87846319       2.80713302      -0.00002945      -0.00408723       0.00089169
Cl      36.49272923      30.87846319       2.80713302       0.00002889       0.00408717      -0.00089107
Na       5.61426604       0.00000000       5.61426604      -0.00002874      -0.00408675       0.00089147
Cl       8.42139905       0.00000000       5.61426604       0.00002871       0.00408757      -0.00089083
Na       8.42139905       2.80713302       5.61426604      -0.00002979      -0.00408701       0.00089154
Cl      11.22853207       2.80713302       5.61426604       0.00003018       0.00408746      -0.00089070
Na      11.22853207       5.61426604       5.61426604      -0.00002853      -0.00408673       0.00089151
Cl      14.03566509       5.61426604       5.61426604       0.00002787       0.00408768      -0.00089071
Na      14.03566509       8.42139905       5.61426604      -0.00003007      -0.00408736       0.00089148
Cl      16.84279811       8.42139905       5.61426604       0.00002907       0.00408707      -0.00089064
Na      16.84279811      11.22853207       5.61426604      -0.00002928      -0.00408620       0.00089159
Cl      19.64993112      11.22853207       5.61426604       0.00002933       0.00408809      -0.00089091
Na      19.64993112      14.03566509       5.61426604      -0.00002917      -0.00408782       0.00089158
Cl      22.45706414      14.03566509       5.61426604       0.00002942       0.00408463      -0.00089104
Na      22.45706414      16.84279811       5.61426604      -0.00002896      -0.00408710       0.00089122
Cl      25.26419716      16.84279811       5.61426604       0.00003153       0.00408522      -0.00089111
Na      25.26419716      19.64993112       5.61426604      -0.00002707      -0.00408740       0.00089114
Cl      28.07133018      19.64993112       5.61426604       0.00002736       0.00408505      -0.00089110
Na      28.07133018      22.45706414       5.61426604      -0.00003050      -0.00408751       0.00089117
Cl      30.87846319      22.45706414       5.61426604       0.00002940       0.00408637      -0.00089102
Na      30.87846319      25.26419716       5.61426604      -0.00002970      -0.00408543       0.00089186
Cl      33.68559621      25.26419716       5.61426604       0.00002900       0.00409107      -0.00089052
Na      33.68559621      28.07133018       5.61426604      -0.00002962      -0.00408796       0.00089188
Cl      36.49272923      28.07133018       5.61426604       0.00002876       0.00408642      -0.00089031
Na      36.49272923      30.87846319       5.61426604      -0.00002929      -0.00408679       0.00089164
Cl      39.29986225      30.87846319       5.61426604       0.00002890       0.00408704      -0.00089058
Na       8.42139905       0.00000000       8.42139905      -0.00002933      -0.00408684       0.00089091
Cl      11.22853207       0.00000000       8.42139905       0.00003041       0.00408760      -0.00089121
Na      11.22853207       2.80713302       8.42139905      -0.00002838      -0.00408707       0.00089103
Cl      14.03566509       2.80713302       8.42139905       0.00002790       0.00408738      -0.00089123
Na      14.03566509       5.61426604       8.42139905      -0.00003007      -0.00408692       0.00089104
Cl      16.84279811       5.61426604       8.42139905       0.00002911       0.00408754      -0.00089101
Na      16.84279811       8.42139905       8.42139905      -0.00002930      -0.00408729       0.00089078
Cl      19.64993112       8.42139905       8.42139905       0.00002908       0.00408705      -0.00089116
Na      19.64993112      11.22853207       8.42139905      -0.00002933      -0.00408609       0.00089103
Cl      22.45706414      11.22853207       8.42139905       0.00002944       0.00408818      -0.00089149
Na      22.45706414      14.03566509       8.42139905      -0.00002939      -0.00408775       0.00089089
Cl      25.26419716      14.03566509       8.42139905       0.00003142       0.00408489      -0.00089153
Na      25.26419716      16.84279811       8.42139905      -0.00002731      -0.00408728       0.00089075
Cl      28.07133018      16.84279811       8.42139905       0.00002735       0.00408510      -0.00089167
Na      28.07133018      19.64993112       8.42139905      -0.00003062      -0.00408740       0.00089066
Cl      30.87846319      19.64993112       8.42139905       0.00002959       0.00408529      -0.00089167
Na      30.87846319      22.45706414       8.42139905      -0.00002886      -0.00408754       0.00089054
Cl      33.68559621      22.45706414       8.42139905       0.00002949       0.00408636      -0.00089138
Na      33.68559621      25.26419716       8.42139905      -0.00002972      -0.00408558       0.00089122
Cl      36.49272923      25.26419716       8.42139905       0.00002907       0.00409091      -0.00089101
Na      36.49272923      28.07133018       8.42139905      -0.00002966      -0.00408788       0.00089122
Cl      39.29986225      28.07133018       8.42139905       0.00002872       0.00408642      -0.00089075
Na      39.29986225      30.87846319       8.42139905      -0.00002921      -0.00408675       0.00089090
Cl      42.10699527      30.87846319       8.42139905       0.00002892       0.00408710      -0.00089127
Na      11.22853207       0.00000000      11.22853207      -0.00002876      -0.00408697       0.00089217
Cl      14.03566509       0.00000000      11.22853207       0.00002854       0.00408698      -0.00089017
Na      14.03566509       2.80713302      11.22853207      -0.00003011      -0.00408691       0.00089206
Cl      16.84279811       2.80713302      11.22853207       0.00002938       0.00408726      -0.00089011
Na      16.84279811       5.61426604      11.22853207      -0.00002946      -0.00408693       0.00089184
Cl      19.64993112       5.61426604      11.22853207       0.00002931       0.00408759      -0.00089007
Na      19.64993112       8.42139905      11.22853207      -0.00002932      -0.00408727       0.00089185
Cl      22.45706414       8.42139905      11.22853207       0.00002930       0.00408683      -0.00089016
Na      22.45706414      11.22853207      11.22853207      -0.00002943      -0.00408608       0.00089202
Cl      25.26419716      11.22853207      11.22853207       0.00003141       0.00408791      -0.00089055
Na      25.26419716      14.03566509      11.22853207      -0.00002761      -0.00408773       0.00089185
Cl      28.07133018      14.03566509      11.22853207       0.00002746       0.00408458      -0.00089037
Na      28.07133018      16.84279811      11.22853207      -0.00003062      -0.00408726       0.00089177
Cl      30.87846319      16.84279811      11.22853207       0.00002993       0.00408501      -0.00089088
Na      30.87846319      19.64993112      11.22853207      -0.00002879      -0.00408743       0.00089163
Cl      33.68559621      19.64993112      11.22853207       0.00002965       0.00408500      -0.00089087
Na      33.68559621      22.45706414      11.22853207      -0.00002890      -0.00408762       0.00089162
Cl      36.49272923      22.45706414      11.22853207       0.00002963       0.00408624      -0.00089063
Na      36.49272923      25.26419716      11.22853207      -0.00002966      -0.00408562       0.00089232
Cl      39.29986225      25.26419716      11.22853207       0.00002914       0.00409100      -0.00089000
Na      39.29986225      28.07133018      11.22853207      -0.00002962      -0.00408795       0.00089223
Cl      42.10699527      28.07133018      11.22853207       0.00002893       0.00408629      -0.00088979
Na      42.10699527      30.87846319      11.22853207      -0.00002908      -0.00408691       0.00089184
Cl      44.91412828      30.87846319      11.22853207       0.00003092       0.00408725      -0.00089072
Na      14.03566509       0.00000000      14.03566509      -0.00003162      -0.00408711       0.00089062
Cl      16.84279811       0.00000000      14.03566509       0.00002930       0.00408690      -0.00089317
Na      16.84279811       2.80713302      14.03566509      -0.00002935      -0.00408686       0.00089031
Cl      19.64993112       2.80713302      14.03566509       0.00002938       0.00408700      -0.00089330
Na      19.64993112       5.61426604      14.03566509      -0.00002927      -0.00408678       0.00089027
Cl      22.45706414       5.61426604      14.03566509       0.00002953       0.00408731      -0.00089339
Na      22.45706414       8.42139905      14.03566509      -0.00002928      -0.00408718       0.00089049
Cl      25.26419716       8.42139905      14.03566509       0.00003141       0.00408669      -0.00089336
Na      25.26419716      11.22853207      14.03566509      -0.00002752      -0.00408617       0.00089049
Cl      28.07133018      11.22853207      14.03566509       0.00002748       0.00408784      -0.00089360
Na      28.07133018      14.03566509      14.03566509      -0.00003073      -0.00408778       0.00089043
Cl      30.87846319      14.03566509      14.03566509       0.00002978       0.00408439      -0.00089383
Na      30.87846319      16.84279811      14.03566509      -0.00002878      -0.00408722       0.00089017
Cl      33.68559621      16.84279811      14.03566509       0.00002995       0.00408470      -0.00089398
Na      33.68559621      19.64993112      14.03566509      -0.00002873      -0.00408744       0.00089030
Cl      36.49272923      19.64993112      14.03566509       0.00002978       0.00408484      -0.00089391
Na      36.49272923      22.45706414      14.03566509      -0.00002874      -0.00408768       0.00089012
Cl      39.29986225      22.45706414      14.03566509       0.00002992       0.00408614      -0.00089387
Na      39.29986225      25.26419716      14.03566509      -0.00002957      -0.00408578       0.00089080
Cl      42.10699527      25.26419716      14.03566509       0.00002931       0.00409072      -0.00089326
Na      42.10699527      28.07133018      14.03566509      -0.00002951      -0.00408814       0.00089076
Cl      44.91412828      28.07133018      14.03566509       0.00002911       0.00408606      -0.00089304
Na      44.91412828      30.87846319      14.03566509      -0.00002877      -0.00408656       0.00089019
Cl      47.72126130      30.87846319      14.03566509       0.00003153       0.00408707      -0.00089379
Na      16.84279811       0.00000000      16.84279811      -0.00003127      -0.00408727       0.00089133
Cl      19.64993112       0.00000000      16.84279811       0.00002937       0.00408664      -0.00089289
Na      19.64993112       2.80713302      16.84279811      -0.00002901      -0.00408709       0.00089087
Cl      22.45706414       2.80713302      16.84279811       0.00002955       0.00408679      -0.00089294
Na      22.45706414       5.61426604      16.84279811      -0.00002909      -0.00408685       0.00089092
Cl      25.26419716       5.61426604      16.84279811       0.00003156       0.00408713      -0.00089306
Na      25.26419716       8.42139905      16.84279811      -0.00002726      -0.00408745       0.00089103
Cl      28.07133018       8.42139905      16.84279811       0.00002736       0.00408657      -0.00089309
Na      28.07133018      11.22853207      16.84279811      -0.00003055      -0.00408650       0.00089111
Cl      30.87846319      11.22853207      16.84279811       0.00002969       0.00408768      -0.00089339
Na      30.87846319      14.03566509      16.84279811      -0.00002881      -0.00408796       0.00089108
Cl      33.68559621      14.03566509      16.84279811       0.00002986       0.00408426      -0.00089348
Na      33.68559621      16.84279811      16.84279811      -0.00002857      -0.00408741       0.00089076
Cl      36.49272923      16.84279811      16.84279811       0.00003009       0.00408450      -0.00089375
Na      36.49272923      19.64993112      16.84279811      -0.00002854      -0.00408753       0.00089075
Cl      39.29986225      19.64993112      16.84279811       0.00003012       0.00408471      -0.00089353
Na      39.29986225      22.45706414      16.84279811      -0.00002859      -0.00408792       0.00089068
Cl      42.10699527      22.45706414      16.84279811       0.00002996       0.00408592      -0.00089357
Na      42.10699527      25.26419716      16.84279811      -0.00002938      -0.00408580       0.00089130
Cl      44.91412828      25.26419716      16.84279811       0.00002945       0.00409070      -0.00089303
Na      44.91412828      28.07133018      16.84279811      -0.00002931      -0.00408831       0.00089140
Cl      47.72126130      28.07133018      16.84279811       0.00002933       0.00408578      -0.00089270
Na      47.72126130      30.87846319      16.84279811      -0.00002871      -0.00408662       0.00089074
Cl      50.52839432      30.87846319      16.84279811       0.00003187       0.00408674      -0.00089351
Na      19.64993112       0.00000000      19.64993112      -0.00003100      -0.00408715       0.00089090
Cl      22.45706414       0.00000000      19.64993112       0.00002845       0.00408682      -0.00089264
Na      22.45706414       2.80713302      19.64993112      -0.00002869      -0.00408710       0.00089067
Cl      25.26419716       2.80713302      19.64993112       0.00003126       0.00408710      -0.00089291
Na      25.26419716       5.61426604      19.64993112      -0.00002708      -0.00408714       0.00089082
Cl      28.07133018       5.61426604      19.64993112       0.00002724       0.00408724      -0.00089301
Na      28.07133018       8.42139905      19.64993112      -0.00003059      -0.00408753       0.00089093
Cl      30.87846319       8.42139905      19.64993112       0.00002940       0.00408659      -0.00089284
Na      30.87846319      11.22853207      19.64993112      -0.00002901      -0.00408651       0.00089110
Cl      33.68559621      11.22853207      19.64993112       0.00002979       0.00408783      -0.00089308
Na      33.68559621      14.03566509      19.64993112      -0.00002879      -0.00408809       0.00089069
Cl      36.49272923      14.03566509      19.64993112       0.00002978       0.00408436      -0.00089327
Na      36.49272923      16.84279811      19.64993112      -0.00002854      -0.00408751       0.00089061
Cl      39.29986225      16.84279811      19.64993112       0.00003009       0.00408466      -0.00089353
Na      39.29986225      19.64993112      19.64993112      -0.00002858      -0.00408775       0.00089053
Cl      42.10699527      19.64993112      19.64993112       0.00002994       0.00408475      -0.00089338
Na      42.10699527      22.45706414      19.64993112      -0.00002860      -0.00408792       0.00089048
Cl      44.91412828      22.45706414      19.64993112       0.00002988       0.00408607      -0.00089322
Na      44.91412828      25.26419716      19.64993112      -0.00002928      -0.00408589       0.00089118
Cl      47.72126130      25.26419716      19.64993112       0.00002941       0.00409085      -0.00089283
Na      47.72126130      28.07133018      19.64993112      -0.00002927      -0.00408836       0.00089114
Cl      50.52839432      28.07133018      19.64993112       0.00002926       0.00408618      -0.00089263
Na      50.52839432      30.87846319      19.64993112      -0.00002911      -0.00408689       0.00089054
Cl      53.33552734      30.87846319      19.64993112       0.00003274       0.00408640      -0.00089269
Na      22.45706414       0.00000000      22.45706414      -0.00002940      -0.00408745       0.00089085
Cl      25.26419716       0.00000000      22.45706414       0.00003139       0.00408767      -0.00089221
Na      25.26419716       2.80713302      22.45706414      -0.00002696      -0.00408761       0.00089085
Cl      28.07133018       2.80713302      22.45706414       0.00002733       0.00408711      -0.00089216
Na      28.07133018       5.61426604      22.45706414      -0.00003061      -0.00408717       0.00089093
Cl      30.87846319       5.61426604      22.45706414       0.00002949       0.00408736      -0.00089190
Na      30.87846319       8.42139905      22.45706414      -0.00002900      -0.00408756       0.00089073
Cl      33.68559621       8.42139905      22.45706414       0.00002944       0.00408651      -0.00089179
Na      33.68559621      11.22853207      22.45706414      -0.00002897      -0.00408650       0.00089061
Cl      36.49272923      11.22853207      22.45706414       0.00002972       0.00408766      -0.00089204
Na      36.49272923      14.03566509      22.45706414      -0.00002885      -0.00408816       0.00089029
Cl      39.29986225      14.03566509      22.45706414       0.00002985       0.00408440      -0.00089198
Na      39.29986225      16.84279811      22.45706414      -0.00002862      -0.00408742       0.00089033
Cl      42.10699527      16.84279811      22.45706414       0.00003010       0.00408468      -0.00089211
Na      42.10699527      19.64993112      22.45706414      -0.00002874      -0.00408765       0.00089028
Cl      44.91412828      19.64993112      22.45706414       0.00003000       0.00408492      -0.00089207
Na      44.91412828      22.45706414      22.45706414      -0.00002878      -0.00408784       0.00089033
Cl      47.72126130      22.45706414      22.45706414       0.00002982       0.00408616      -0.00089211
Na      47.72126130      25.26419716      22.45706414      -0.00002943      -0.00408587       0.00089090
Cl      50.52839432      25.26419716      22.45706414       0.00002924       0.00409080      -0.00089176
Na      50.52839432      28.07133018      22.45706414      -0.00002947      -0.00408839       0.00089102
Cl      53.33552734      28.07133018      22.45706414       0.00003321       0.00408618      -0.00089161
Na      53.33552734      30.87846319      22.45706414      -0.00002612      -0.00408747       0.00089101
Cl      56.14266035      30.87846319      22.45706414       0.00002343       0.00408656      -0.00089173
Na      25.26419716       0.00000000      25.26419716      -0.00002563      -0.00408638       0.00089261
Cl      28.07133018       0.00000000      25.26419716       0.00002763       0.00408787      -0.00088766
Na      28.07133018       2.80713302      25.26419716      -0.00003117      -0.00408692       0.00089309
Cl      30.87846319       2.80713302      25.26419716       0.00002924       0.00408748      -0.00088740
Na      30.87846319       5.61426604      25.26419716      -0.00002966      -0.00408647       0.00089269
Cl      33.68559621       5.61426604      25.26419716       0.00002901       0.00408787      -0.00088730
Na      33.68559621       8.42139905      25.26419716      -0.00002974      -0.00408697       0.00089265
Cl      36.49272923       8.42139905      25.26419716       0.00002909       0.00408720      -0.00088717
Na      36.49272923      11.22853207      25.26419716      -0.00002967      -0.00408581       0.00089263
Cl      39.29986225      11.22853207      25.26419716       0.00002919       0.00408821      -0.00088740
Na      39.29986225      14.03566509      25.26419716      -0.00002943      -0.00408736       0.00089262
Cl      42.10699527      14.03566509      25.26419716       0.00002929       0.00408498      -0.00088760
Na      42.10699527      16.84279811      25.26419716      -0.00002936      -0.00408680       0.00089234
Cl      44.91412828      16.84279811      25.26419716       0.00002941       0.00408529      -0.00088781
Na      44.91412828      19.64993112      25.26419716      -0.00002926      -0.00408693       0.00089233
Cl      47.72126130      19.64993112      25.26419716       0.00002943       0.00408553      -0.00088755
Na      47.72126130      22.45706414      25.26419716      -0.00002939      -0.00408720       0.00089236
Cl      50.52839432      22.45706414      25.26419716       0.00002932       0.00408673      -0.00088773
Na      50.52839432      25.26419716      25.26419716      -0.00002996      -0.00408531       0.00089307
Cl      53.33552734      25.26419716      25.26419716       0.00003266       0.00409133      -0.00088709
Na      53.33552734      28.07133018      25.26419716      -0.00002680      -0.00408805       0.00089294
Cl      56.14266035      28.07133018      25.26419716       0.00002464       0.00408686      -0.00088692
Na      56.14266035      30.87846319      25.26419716      -0.00003274      -0.00408711       0.00089295
Cl      58.94979337      30.87846319      25.26419716       0.00002806       0.00408719      -0.00088738
Na      28.07133018       0.00000000      28.07133018      -0.00002984      -0.00408654       0.00089020
Cl      30.87846319       0.00000000      28.07133018       0.00002948       0.00408768      -0.00089176
Na      30.87846319       2.80713302      28.07133018      -0.00002997      -0.00408682       0.00089025
Cl      33.68559621       2.80713302      28.07133018       0.00002888       0.00408773      -0.00089167
Na      33.68559621       5.61426604      28.07133018      -0.00002956      -0.00408653       0.00089031
Cl      36.49272923       5.61426604      28.07133018       0.00002854       0.00408792      -0.00089177
Na      36.49272923       8.42139905      28.07133018      -0.00002950      -0.00408711       0.00089030
Cl      39.29986225       8.42139905      28.07133018       0.00002868       0.00408726      -0.00089174
Na      39.29986225      11.22853207      28.07133018      -0.00002952      -0.00408581       0.00089031
Cl      42.10699527      11.22853207      28.07133018       0.00002890       0.00408837      -0.00089187
Na      42.10699527      14.03566509      28.07133018      -0.00002944      -0.00408763       0.00089016
Cl      44.91412828      14.03566509      28.07133018       0.00002915       0.00408513      -0.00089213
Na      44.91412828      16.84279811      28.07133018      -0.00002922      -0.00408707       0.00089000
Cl      47.72126130      16.84279811      28.07133018       0.00002940       0.00408552      -0.00089228
Na      47.72126130      19.64993112      28.07133018      -0.00002943      -0.00408722       0.00089004
Cl      50.52839432      19.64993112      28.07133018       0.00002943       0.00408543      -0.00089219
Na      50.52839432      22.45706414      28.07133018      -0.00002935      -0.00408728       0.00088995
Cl      53.33552734      22.45706414      28.07133018       0.00003314       0.00408662      -0.00089192
Na      53.33552734      25.26419716      28.07133018      -0.00002668      -0.00408529       0.00089045
Cl      56.14266035      25.26419716      28.07133018       0.00002446       0.00409121      -0.00089141
Na      56.14266035      28.07133018      28.07133018      -0.00003263      -0.00408788       0.00089025
Cl      58.94979337      28.07133018      28.07133018       0.00002801       0.00408682      -0.00089137
Na      58.94979337      30.87846319      28.07133018      -0.00002897      -0.00408655       0.00089031
Cl      61.75692639      30.87846319      28.07133018       0.00002798       0.00408783      -0.00089241
Na      30.87846319       0.00000000      30.87846319      -0.00003050      -0.00408672       0.00089116
Cl      33.68559621       0.00000000      30.87846319       0.00002840       0.00408675      -0.00089046
Na      33.68559621       2.80713302      30.87846319      -0.00002937      -0.00408668       0.00089101
Cl      36.49272923       2.80713302      30.87846319       0.00002875       0.00408723      -0.00089118
Na      36.49272923       5.61426604      30.87846319      -0.00002910      -0.00408671       0.00089123
Cl      39.29986225       5.61426604      30.87846319       0.00002879       0.00408757      -0.00089122
Na      39.29986225       8.42139905      30.87846319      -0.00002914      -0.00408725       0.00089146
Cl      42.10699527       8.42139905      30.87846319       0.00002885       0.00408706      -0.00089116
Na      42.10699527      11.22853207      30.87846319      -0.00002907      -0.00408634       0.00089148
Cl      44.91412828      11.22853207      30.87846319       0.00003078       0.00408794      -0.00089096
Na      44.91412828      14.03566509      30.87846319      -0.00002873      -0.00408812       0.00089168
Cl      47.72126130      14.03566509      30.87846319       0.00003139       0.00408456      -0.00089129
Na      47.72126130      16.84279811      30.87846319      -0.00002868      -0.00408753       0.00089128
Cl      50.52839432      16.84279811      30.87846319       0.00003177       0.00408492      -0.00089146
Na      50.52839432      19.64993112      30.87846319      -0.00002903      -0.00408771       0.00089137
Cl      53.33552734      19.64993112      30.87846319       0.00003282       0.00408563      -0.00089178
Na      53.33552734      22.45706414      30.87846319      -0.00002630      -0.00408723       0.00089066
Cl      56.14266035      22.45706414      30.87846319       0.00002345       0.00408648      -0.00089163
Na      56.14266035      25.26419716      30.87846319      -0.00003283      -0.00408525       0.00089138
Cl      58.94979337      25.26419716      30.87846319       0.00002801       0.00409093      -0.00089093
Na      58.94979337      28.07133018      30.87846319      -0.00002901      -0.00408783       0.00089169
Cl      61.75692639      28.07133018      30.87846319       0.00002792       0.00408586      -0.00089028
Na      61.75692639      30.87846319      30.87846319      -0.00003149      -0.00408680       0.00089149
Cl      64.56405941      30.87846319      30.87846319       0.00003843       0.00408676      -0.00089091
Na      -0.00000000       2.80713302       2.80713302      -0.00003130      -0.00408683       0.00089142
Cl       2.80713302       2.80713302       2.80713302       0.00002891       0.00408707      -0.00089131
Na       2.80713302       5.61426604       2.80713302      -0.00002872      -0.00408682       0.00089145
Cl       5.61426604       5.61426604       2.80713302       0.00002936       0.00408719      -0.00089116
Na       5.61426604       8.42139905       2.80713302      -0.00002873      -0.00408744       0.00089138
Cl       8.42139905       8.42139905       2.80713302       0.00002894       0.00408628      -0.00089100
Na       8.42139905      11.22853207       2.80713302      -0.00002929      -0.00408611       0.00089142
Cl      11.22853207      11.22853207       2.80713302       0.00003049       0.00408798      -0.00089112
Na      11.22853207      14.03566509       2.80713302      -0.00002861      -0.00408764       0.00089125
Cl      14.03566509      14.03566509       2.80713302       0.00002835       0.00408594      -0.00089141
Na      14.03566509      16.84279811       2.80713302      -0.00003138      -0.00408688       0.00089102
Cl      16.84279811      16.84279811       2.80713302       0.00002884       0.00408718      -0.00089139
Na      16.84279811      19.64993112       2.80713302      -0.00003127      -0.00408671       0.00089086
Cl      19.64993112      19.64993112       2.80713302       0.00002876       0.00408745      -0.00089147
Na      19.64993112      22.45706414       2.80713302      -0.00003120      -0.00408714       0.00089117
Cl      22.45706414      22.45706414       2.80713302       0.00002826       0.00408758      -0.00089145
Na      22.45706414      25.26419716       2.80713302      -0.00002977      -0.00408575       0.00089140
Cl      25.26419716      25.26419716       2.80713302       0.00003120       0.00408885      -0.00089089
Na      25.26419716      28.07133018       2.80713302      -0.00002528      -0.00408878       0.00089177
Cl      28.07133018      28.07133018       2.80713302       0.00002796       0.00408436      -0.00089095
Na      28.07133018      30.87846319       2.80713302      -0.00002948      -0.00408693       0.00089144
Cl      30.87846319      30.87846319       2.80713302       0.00002991       0.00408686      -0.00089111
Na      30.87846319      33.68559621       2.80713302      -0.00003050      -0.00408696       0.00089148
Cl      33.68559621      33.68559621       2.80713302       0.00002851       0.00408776      -0.00089194
Na       2.80713302       2.80713302       5.61426604      -0.00002875      -0.00408693       0.00089172
Cl       5.61426604       2.80713302       5.61426604       0.00002942       0.00408711      -0.00089120
Na       5.61426604       5.61426604       5.61426604      -0.00002898      -0.00408690       0.00089148
Cl       8.42139905       5.61426604       5.61426604       0.00002891       0.00408726      -0.00089111
Na       8.42139905       8.42139905       5.61426604      -0.00002969      -0.00408722       0.00089138
Cl      11.22853207       8.42139905       5.61426604       0.00003035       0.00408635      -0.00089099
Na      11.22853207      11.22853207       5.61426604      -0.00002851      -0.00408607       0.00089150
Cl      14.03566509      11.22853207       5.61426604       0.00002822       0.00408805      -0.00089098
Na      14.03566509      14.03566509       5.61426604      -0.00003018      -0.00408786       0.00089146
Cl      16.84279811      14.03566509       5.61426604       0.00002929       0.00408596      -0.00089113
Na      16.84279811      16.84279811       5.61426604      -0.00002929      -0.00408716       0.00089168
Cl      19.64993112      16.84279811       5.61426604       0.00002916       0.00408712      -0.00089112
Na      19.64993112      19.64993112       5.61426604      -0.00002909      -0.00408729       0.00089162
Cl      22.45706414      19.64993112       5.61426604       0.00002900       0.00408713      -0.00089107
Na      22.45706414      22.45706414       5.61426604      -0.00002910      -0.00408732       0.00089165
Cl      25.26419716      22.45706414       5.61426604       0.00003100       0.00408730      -0.00089079
Na      25.26419716      25.26419716       5.61426604      -0.00002736      -0.00408554       0.00089133
Cl      28.07133018      25.26419716       5.61426604       0.00002714       0.00408904      -0.00089103
Na      28.07133018      28.07133018       5.61426604      -0.00003098      -0.00408832       0.00089137
Cl      30.87846319      28.07133018       5.61426604       0.00002975       0.00408474      -0.00089119
Na      30.87846319      30.87846319       5.61426604      -0.00002970      -0.00408683       0.00089151
Cl      33.68559621      30.87846319       5.61426604       0.00002946       0.00408682      -0.00089135
Na      33.68559621      33.68559621       5.61426604      -0.00002950      -0.00408727       0.00089189
Cl      36.49272923      33.68559621       5.61426604       0.00002906       0.00408708      -0.00089119
Na       5.61426604       2.80713302       8.42139905      -0.00002874      -0.00408688       0.00089091
Cl       8.42139905       2.80713302       8.42139905       0.00002887       0.00408738      -0.00089199
Na       8.42139905       5.61426604       8.42139905      -0.00002976      -0.00408702       0.00089091
Cl      11.22853207       5.61426604       8.42139905       0.00003033       0.00408745      -0.00089195
Na      11.22853207       8.42139905       8.42139905      -0.00002854      -0.00408735       0.00089095
Cl      14.03566509       8.42139905       8.42139905       0.00002821       0.00408644      -0.00089173
Na      14.03566509      11.22853207       8.42139905      -0.00003007      -0.00408615       0.00089096
Cl      16.84279811      11.22853207       8.42139905       0.00002918       0.00408820      -0.00089179
Na      16.84279811      14.03566509       8.42139905      -0.00002920      -0.00408784       0.00089089
Cl      19.64993112      14.03566509       8.42139905       0.00002937       0.00408584      -0.00089174
Na      19.64993112      16.84279811       8.42139905      -0.00002919      -0.00408696       0.00089094
Cl      22.45706414      16.84279811       8.42139905       0.00002922       0.00408699      -0.00089178
Na      22.45706414      19.64993112       8.42139905      -0.00002915      -0.00408704       0.00089092
Cl      25.26419716      19.64993112       8.42139905       0.00003120       0.00408717      -0.00089173
Na      25.26419716      22.45706414       8.42139905      -0.00002749      -0.00408714       0.00089077
Cl      28.07133018      22.45706414       8.42139905       0.00002689       0.00408725      -0.00089168
Na      28.07133018      25.26419716       8.42139905      -0.00003083      -0.00408551       0.00089085
Cl      30.87846319      25.26419716       8.42139905       0.00002933       0.00408911      -0.00089177
Na      30.87846319      28.07133018       8.42139905      -0.00002943      -0.00408832       0.00089087
Cl      33.68559621      28.07133018       8.42139905       0.00002942       0.00408483      -0.00089197
Na      33.68559621      30.87846319       8.42139905      -0.00002930      -0.00408684       0.00089094
Cl      36.49272923      30.87846319       8.42139905       0.00002930       0.00408693      -0.00089189
Na      36.49272923      33.68559621       8.42139905      -0.00002925      -0.00408701       0.00089102
Cl      39.29986225      33.68559621       8.42139905       0.00002909       0.00408702      -0.00089177
Na       8.42139905       2.80713302      11.22853207      -0.00002933      -0.00408693       0.00089203
Cl      11.22853207       2.80713302      11.22853207       0.00003041       0.00408724      -0.00089034
Na      11.22853207       5.61426604      11.22853207      -0.00002840      -0.00408691       0.00089211
Cl      14.03566509       5.61426604      11.22853207       0.00002837       0.00408736      -0.00089034
Na      14.03566509       8.42139905      11.22853207      -0.00003009      -0.00408751       0.00089205
Cl      16.84279811       8.42139905      11.22853207       0.00002928       0.00408643      -0.00089017
Na      16.84279811      11.22853207      11.22853207      -0.00002940      -0.00408606       0.00089194
Cl      19.64993112      11.22853207      11.22853207       0.00002930       0.00408787      -0.00089032
Na      19.64993112      14.03566509      11.22853207      -0.00002926      -0.00408776       0.00089181
Cl      22.45706414      14.03566509      11.22853207       0.00002935       0.00408581      -0.00089025
Na      22.45706414      16.84279811      11.22853207      -0.00002927      -0.00408699       0.00089191
Cl      25.26419716      16.84279811      11.22853207       0.00003133       0.00408707      -0.00089042
Na      25.26419716      19.64993112      11.22853207      -0.00002748      -0.00408710       0.00089195
Cl      28.07133018      19.64993112      11.22853207       0.00002692       0.00408709      -0.00089019
Na      28.07133018      22.45706414      11.22853207      -0.00003073      -0.00408714       0.00089192
Cl      30.87846319      22.45706414      11.22853207       0.00002912       0.00408721      -0.00089009
Na      30.87846319      25.26419716      11.22853207      -0.00002930      -0.00408557       0.00089191
Cl      33.68559621      25.26419716      11.22853207       0.00002928       0.00408925      -0.00089039
Na      33.68559621      28.07133018      11.22853207      -0.00002941      -0.00408852       0.00089214
Cl      36.49272923      28.07133018      11.22853207       0.00002946       0.00408496      -0.00089041
Na      36.49272923      30.87846319      11.22853207      -0.00002931      -0.00408703       0.00089191
Cl      39.29986225      30.87846319      11.22853207       0.00002930       0.00408691      -0.00089030
Na      39.29986225      33.68559621      11.22853207      -0.00002919      -0.00408702       0.00089199
Cl      42.10699527      33.68559621      11.22853207       0.00002917       0.00408704      -0.00089035
Na      11.22853207       2.80713302      14.03566509      -0.00002860      -0.00408711       0.00089081
Cl      14.03566509       2.80713302      14.03566509       0.00002838       0.00408696      -0.00089229
Na      14.03566509       5.61426604      14.03566509      -0.00003028      -0.00408688       0.00089051
Cl      16.84279811       5.61426604      14.03566509       0.00002932       0.00408732      -0.00089224
Na      16.84279811       8.42139905      14.03566509      -0.00002925      -0.00408734       0.00089058
Cl      19.64993112       8.42139905      14.03566509       0.00002926       0.00408634      -0.00089213
Na      19.64993112      11.22853207      14.03566509      -0.00002933      -0.00408611       0.00089053
Cl      22.45706414      11.22853207      14.03566509       0.00002934       0.00408792      -0.00089218
Na      22.45706414      14.03566509      14.03566509      -0.00002936      -0.00408778       0.00089050
Cl      25.26419716      14.03566509      14.03566509       0.00003135       0.00408602      -0.00089223
Na      25.26419716      16.84279811      14.03566509      -0.00002760      -0.00408708       0.00089046
Cl      28.07133018      16.84279811      14.03566509       0.00002699       0.00408685      -0.00089230
Na      28.07133018      19.64993112      14.03566509      -0.00003074      -0.00408711       0.00089054
Cl      30.87846319      19.64993112      14.03566509       0.00002899       0.00408725      -0.00089216
Na      30.87846319      22.45706414      14.03566509      -0.00002913      -0.00408710       0.00089034
Cl      33.68559621      22.45706414      14.03566509       0.00002903       0.00408734      -0.00089209
Na      33.68559621      25.26419716      14.03566509      -0.00002926      -0.00408560       0.00089055
Cl      36.49272923      25.26419716      14.03566509       0.00002938       0.00408919      -0.00089229
Na      36.49272923      28.07133018      14.03566509      -0.00002932      -0.00408852       0.00089049
Cl      39.29986225      28.07133018      14.03566509       0.00002938       0.00408499      -0.00089238
Na      39.29986225      30.87846319      14.03566509      -0.00002918      -0.00408697       0.00089055
Cl      42.10699527      30.87846319      14.03566509       0.00002919       0.00408695      -0.00089212
Na      42.10699527      33.68559621      14.03566509      -0.00002907      -0.00408705       0.00089060
Cl      44.91412828      33.68559621      14.03566509       0.00003090       0.00408755      -0.00089266
Na      14.03566509       2.80713302      16.84279811      -0.00003148      -0.00408718       0.00089143
Cl      16.84279811       2.80713302      16.84279811       0.00002897       0.00408673      -0.00089103
Na      16.84279811       5.61426604      16.84279811      -0.00002938      -0.00408666       0.00089112
Cl      19.64993112       5.61426604      16.84279811       0.00002920       0.00408733      -0.00089111
Na      19.64993112       8.42139905      16.84279811      -0.00002928      -0.00408722       0.00089123
Cl      22.45706414       8.42139905      16.84279811       0.00002921       0.00408626      -0.00089122
Na      22.45706414      11.22853207      16.84279811      -0.00002935      -0.00408614       0.00089137
Cl      25.26419716      11.22853207      16.84279811       0.00003122       0.00408805      -0.00089133
Na      25.26419716      14.03566509      16.84279811      -0.00002756      -0.00408771       0.00089139
Cl      28.07133018      14.03566509      16.84279811       0.00002701       0.00408590      -0.00089137
Na      28.07133018      16.84279811      16.84279811      -0.00003076      -0.00408702       0.00089145
Cl      30.87846319      16.84279811      16.84279811       0.00002905       0.00408692      -0.00089122
Na      30.87846319      19.64993112      16.84279811      -0.00002903      -0.00408705       0.00089127
Cl      33.68559621      19.64993112      16.84279811       0.00002897       0.00408714      -0.00089112
Na      33.68559621      22.45706414      16.84279811      -0.00002911      -0.00408726       0.00089110
Cl      36.49272923      22.45706414      16.84279811       0.00002905       0.00408735      -0.00089109
Na      36.49272923      25.26419716      16.84279811      -0.00002932      -0.00408575       0.00089129
Cl      39.29986225      25.26419716      16.84279811       0.00002919       0.00408937      -0.00089126
Na      39.29986225      28.07133018      16.84279811      -0.00002924      -0.00408847       0.00089134
Cl      42.10699527      28.07133018      16.84279811       0.00002929       0.00408496      -0.00089141
Na      42.10699527      30.87846319      16.84279811      -0.00002919      -0.00408688       0.00089129
Cl      44.91412828      30.87846319      16.84279811       0.00002910       0.00408681      -0.00089114
Na      44.91412828      33.68559621      16.84279811      -0.00002885      -0.00408663       0.00089100
Cl      47.72126130      33.68559621      16.84279811       0.00003149       0.00408727      -0.00089142
Na      16.84279811       2.80713302      19.64993112      -0.00003144      -0.00408734       0.00089151
Cl      19.64993112       2.80713302      19.64993112       0.00002876       0.00408689      -0.00089083
Na      19.64993112       5.61426604      19.64993112      -0.00002927      -0.00408665       0.00089096
Cl      22.45706414       5.61426604      19.64993112       0.00002895       0.00408723      -0.00089101
Na      22.45706414       8.42139905      19.64993112      -0.00002917      -0.00408728       0.00089107
Cl      25.26419716       8.42139905      19.64993112       0.00003121       0.00408651      -0.00089107
Na      25.26419716      11.22853207      19.64993112      -0.00002746      -0.00408619       0.00089109
Cl      28.07133018      11.22853207      19.64993112       0.00002695       0.00408803      -0.00089118
Na      28.07133018      14.03566509      19.64993112      -0.00003083      -0.00408780       0.00089132
Cl      30.87846319      14.03566509      19.64993112       0.00002916       0.00408617      -0.00089122
Na      30.87846319      16.84279811      19.64993112      -0.00002915      -0.00408712       0.00089119
Cl      33.68559621      16.84279811      19.64993112       0.00002899       0.00408694      -0.00089110
Na      33.68559621      19.64993112      19.64993112      -0.00002904      -0.00408704       0.00089107
Cl      36.49272923      19.64993112      19.64993112       0.00002895       0.00408722      -0.00089102
Na      36.49272923      22.45706414      19.64993112      -0.00002906      -0.00408734       0.00089105
Cl      39.29986225      22.45706414      19.64993112       0.00002909       0.00408750      -0.00089095
Na      39.29986225      25.26419716      19.64993112      -0.00002927      -0.00408570       0.00089106
Cl      42.10699527      25.26419716      19.64993112       0.00002912       0.00408937      -0.00089120
Na      42.10699527      28.07133018      19.64993112      -0.00002918      -0.00408856       0.00089124
Cl      44.91412828      28.07133018      19.64993112       0.00002916       0.00408507      -0.00089135
Na      44.91412828      30.87846319      19.64993112      -0.00002914      -0.00408696       0.00089118
Cl      47.72126130      30.87846319      19.64993112       0.00002924       0.00408685      -0.00089109
Na      47.72126130      33.68559621      19.64993112      -0.00002913      -0.00408664       0.00089090
Cl      50.52839432      33.68559621      19.64993112       0.00003163       0.00408744      -0.00089141
Na      19.64993112       2.80713302      22.45706414      -0.00003115      -0.00408702       0.00089120
Cl      22.45706414       2.80713302      22.45706414       0.00002817       0.00408685      -0.00089077
Na      22.45706414       5.61426604      22.45706414      -0.00002909      -0.00408668       0.00089094
Cl      25.26419716       5.61426604      22.45706414       0.00003113       0.00408739      -0.00089113
Na      25.26419716       8.42139905      22.45706414      -0.00002743      -0.00408737       0.00089103
Cl      28.07133018       8.42139905      22.45706414       0.00002701       0.00408643      -0.00089119
Na      28.07133018      11.22853207      22.45706414      -0.00003075      -0.00408622       0.00089115
Cl      30.87846319      11.22853207      22.45706414       0.00002914       0.00408814      -0.00089111
Na      30.87846319      14.03566509      22.45706414      -0.00002913      -0.00408784       0.00089111
Cl      33.68559621      14.03566509      22.45706414       0.00002913       0.00408594      -0.00089087
Na      33.68559621      16.84279811      22.45706414      -0.00002906      -0.00408702       0.00089107
Cl      36.49272923      16.84279811      22.45706414       0.00002901       0.00408713      -0.00089090
Na      36.49272923      19.64993112      22.45706414      -0.00002900      -0.00408719       0.00089094
Cl      39.29986225      19.64993112      22.45706414       0.00002896       0.00408724      -0.00089079
Na      39.29986225      22.45706414      22.45706414      -0.00002905      -0.00408729       0.00089102
Cl      42.10699527      22.45706414      22.45706414       0.00002913       0.00408729      -0.00089080
Na      42.10699527      25.26419716      22.45706414      -0.00002931      -0.00408566       0.00089111
Cl      44.91412828      25.26419716      22.45706414       0.00002926       0.00408930      -0.00089102
Na      44.91412828      28.07133018      22.45706414      -0.00002920      -0.00408851       0.00089113
Cl      47.72126130      28.07133018      22.45706414       0.00002940       0.00408505      -0.00089102
Na      47.72126130      30.87846319      22.45706414      -0.00002929      -0.00408694       0.00089123
Cl      50.52839432      30.87846319      22.45706414       0.00002945       0.00408694      -0.00089097
Na      50.52839432      33.68559621      22.45706414      -0.00002948      -0.00408674       0.00089087
Cl      53.33552734      33.68559621      22.45706414       0.00003247       0.00408683      -0.00089065
Na      22.45706414       2.80713302      25.26419716      -0.00002978      -0.00408709       0.00089295
Cl      25.26419716       2.80713302      25.26419716       0.00003109       0.00408758      -0.00088963
Na      25.26419716       5.61426604      25.26419716      -0.00002718      -0.00408713       0.00089283
Cl      28.07133018       5.61426604      25.26419716       0.00002714       0.00408735      -0.00088943
Na      28.07133018       8.42139905      25.26419716      -0.00003069      -0.00408736       0.00089278
Cl      30.87846319       8.42139905      25.26419716       0.00002945       0.00408651      -0.00088921
Na      30.87846319      11.22853207      25.26419716      -0.00002936      -0.00408630       0.00089263
Cl      33.68559621      11.22853207      25.26419716       0.00002942       0.00408801      -0.00088916
Na      33.68559621      14.03566509      25.26419716      -0.00002930      -0.00408778       0.00089260
Cl      36.49272923      14.03566509      25.26419716       0.00002927       0.00408569      -0.00088915
Na      36.49272923      16.84279811      25.26419716      -0.00002922      -0.00408686       0.00089265
Cl      39.29986225      16.84279811      25.26419716       0.00002924       0.00408680      -0.00088913
Na      39.29986225      19.64993112      25.26419716      -0.00002925      -0.00408700       0.00089257
Cl      42.10699527      19.64993112      25.26419716       0.00002928       0.00408703      -0.00088902
Na      42.10699527      22.45706414      25.26419716      -0.00002926      -0.00408707       0.00089255
Cl      44.91412828      22.45706414      25.26419716       0.00002928       0.00408714      -0.00088907
Na      44.91412828      25.26419716      25.26419716      -0.00002928      -0.00408569       0.00089263
Cl      47.72126130      25.26419716      25.26419716       0.00002943       0.00408913      -0.00088921
Na      47.72126130      28.07133018      25.26419716      -0.00002937      -0.00408848       0.00089271
Cl      50.52839432      28.07133018      25.26419716       0.00002937       0.00408487      -0.00088925
Na      50.52839432      30.87846319      25.26419716      -0.00002950      -0.00408694       0.00089272
Cl      53.33552734      30.87846319      25.26419716       0.00003349       0.00408724      -0.00088941
Na      53.33552734      33.68559621      25.26419716      -0.00002670      -0.00408757       0.00089295
Cl      56.14266035      33.68559621      25.26419716       0.00002312       0.00408699      -0.00088905
Na      25.26419716       2.80713302      28.07133018      -0.00002527      -0.00408695       0.00088968
Cl      28.07133018       2.80713302      28.07133018       0.00002787       0.00408760      -0.00089379
Na      28.07133018       5.61426604      28.07133018      -0.00003092      -0.00408712       0.00089008
Cl      30.87846319       5.61426604      28.07133018       0.00002963       0.00408746      -0.00089317
Na      30.87846319       8.42139905      28.07133018      -0.00002941      -0.00408739       0.00088984
Cl      33.68559621       8.42139905      28.07133018       0.00002938       0.00408630      -0.00089325
Na      33.68559621      11.22853207      28.07133018      -0.00002930      -0.00408609       0.00088994
Cl      36.49272923      11.22853207      28.07133018       0.00002939       0.00408796      -0.00089325
Na      36.49272923      14.03566509      28.07133018      -0.00002921      -0.00408777       0.00088984
Cl      39.29986225      14.03566509      28.07133018       0.00002923       0.00408579      -0.00089325
Na      39.29986225      16.84279811      28.07133018      -0.00002932      -0.00408692       0.00088974
Cl      42.10699527      16.84279811      28.07133018       0.00002921       0.00408700      -0.00089320
Na      42.10699527      19.64993112      28.07133018      -0.00002927      -0.00408703       0.00088972
Cl      44.91412828      19.64993112      28.07133018       0.00002918       0.00408718      -0.00089309
Na      44.91412828      22.45706414      28.07133018      -0.00002919      -0.00408719       0.00088966
Cl      47.72126130      22.45706414      28.07133018       0.00002925       0.00408721      -0.00089312
Na      47.72126130      25.26419716      28.07133018      -0.00002937      -0.00408555       0.00088969
Cl      50.52839432      25.26419716      28.07133018       0.00002932       0.00408894      -0.00089323
Na      50.52839432      28.07133018      28.07133018      -0.00002940      -0.00408839       0.00088971
Cl      53.33552734      28.07133018      28.07133018       0.00003335       0.00408497      -0.00089320
Na      53.33552734      30.87846319      28.07133018      -0.00002625      -0.00408698       0.00088993
Cl      56.14266035      30.87846319      28.07133018       0.00002524       0.00408692      -0.00089327
Na      56.14266035      33.68559621      28.07133018      -0.00003236      -0.00408747       0.00089026
Cl      58.94979337      33.68559621      28.07133018       0.00002833       0.00408710      -0.00089338
Na      28.07133018       2.80713302      30.87846319      -0.00002953      -0.00408691       0.00089140
Cl      30.87846319       2.80713302      30.87846319       0.00002992       0.00408702      -0.00089135
Na      30.87846319       5.61426604      30.87846319      -0.00002956      -0.00408672       0.00089143
Cl      33.68559621       5.61426604      30.87846319       0.00002934       0.00408698      -0.00089124
Na      33.68559621       8.42139905      30.87846319      -0.00002930      -0.00408719       0.00089137
Cl      36.49272923       8.42139905      30.87846319       0.00002915       0.00408635      -0.00089131
Na      36.49272923      11.22853207      30.87846319      -0.00002925      -0.00408620       0.00089145
Cl      39.29986225      11.22853207      30.87846319       0.00002911       0.00408799      -0.00089146
Na      39.29986225      14.03566509      30.87846319      -0.00002917      -0.00408779       0.00089131
Cl      42.10699527      14.03566509      30.87846319       0.00002914       0.00408597      -0.00089136
Na      42.10699527      16.84279811      30.87846319      -0.00002918      -0.00408708       0.00089134
Cl      44.91412828      16.84279811      30.87846319       0.00002909       0.00408702      -0.00089128
Na      44.91412828      19.64993112      30.87846319      -0.00002913      -0.00408716       0.00089131
Cl      47.72126130      19.64993112      30.87846319       0.00002909       0.00408724      -0.00089130
Na      47.72126130      22.45706414      30.87846319      -0.00002936      -0.00408722       0.00089126
Cl      50.52839432      22.45706414      30.87846319       0.00002941       0.00408722      -0.00089115
Na      50.52839432      25.26419716      30.87846319      -0.00002939      -0.00408566       0.00089120
Cl      53.33552734      25.26419716      30.87846319       0.00003330       0.00408909      -0.00089129
Na      53.33552734      28.07133018      30.87846319      -0.00002619      -0.00408842       0.00089133
Cl      56.14266035      28.07133018      30.87846319       0.00002520       0.00408489      -0.00089121
Na      56.14266035      30.87846319      30.87846319      -0.00003209      -0.00408697       0.00089145
Cl      58.94979337      30.87846319      30.87846319       0.00002870       0.00408672      -0.00089141
Na      58.94979337      33.68559621      30.87846319      -0.00002865      -0.00408698       0.00089140
Cl      61.75692639      33.68559621      30.87846319       0.00002849       0.00408767      -0.00089196
Na      30.87846319       2.80713302      33.68559621      -0.00003060      -0.00408673       0.00089095
Cl      33.68559621       2.80713302      33.68559621       0.00002851       0.00408637      -0.00089050
Na      33.68559621       5.61426604      33.68559621      -0.00002943      -0.00408641       0.00089096
Cl      36.49272923       5.61426604      33.68559621       0.00002906       0.00408708      -0.00089121
Na      36.49272923       8.42139905      33.68559621      -0.00002925      -0.00408717       0.00089117
Cl      39.29986225       8.42139905      33.68559621       0.00002902       0.00408624      -0.00089120
Na      39.29986225      11.22853207      33.68559621      -0.00002929      -0.00408610       0.00089121
Cl      42.10699527      11.22853207      33.68559621       0.00002917       0.00408805      -0.00089126
Na      42.10699527      14.03566509      33.68559621      -0.00002903      -0.00408786       0.00089125
Cl      44.91412828      14.03566509      33.68559621       0.00003076       0.00408553      -0.00089094
Na      44.91412828      16.84279811      33.68559621      -0.00002882      -0.00408721       0.00089141
Cl      47.72126130      16.84279811      33.68559621       0.00003122       0.00408657      -0.00089073
Na      47.72126130      19.64993112      33.68559621      -0.00002892      -0.00408726       0.00089139
Cl      50.52839432      19.64993112      33.68559621       0.00003134       0.00408670      -0.00089073
Na      50.52839432      22.45706414      33.68559621      -0.00002934      -0.00408724       0.00089133
Cl      53.33552734      22.45706414      33.68559621       0.00003232       0.00408756      -0.00089129
Na      53.33552734      25.26419716      33.68559621      -0.00002671      -0.00408529       0.00089072
Cl      56.14266035      25.26419716      33.68559621       0.00002332       0.00408942      -0.00089153
Na      56.14266035      28.07133018      33.68559621      -0.00003245      -0.00408805       0.00089074
Cl      58.94979337      28.07133018      33.68559621       0.00002840       0.00408486      -0.00089138
Na      58.94979337      30.87846319      33.68559621      -0.00002881      -0.00408669       0.00089117
Cl      61.75692639      30.87846319      33.68559621       0.00002855       0.00408598      -0.00089078
Na      61.75692639      33.68559621      33.68559621      -0.00003152      -0.00408698       0.00089125
Cl      64.56405941      33.68559621      33.68559621       0.00003862       0.00408698      -0.00089103
Na      -0.00000000       5.61426604       5.61426604      -0.00003124      -0.00408693       0.00089163
Cl       2.80713302       5.61426604       5.61426604       0.00002908       0.00408728      -0.00089120
Na       2.80713302       8.42139905       5.61426604      -0.00002873      -0.00408723       0.00089177
Cl       5.61426604       8.42139905       5.61426604       0.00002955       0.00408648      -0.00089091
Na       5.61426604      11.22853207       5.61426604      -0.00002876      -0.00408622       0.00089164
Cl       8.42139905      11.22853207       5.61426604       0.00002903       0.00408776      -0.00089097
Na       8.42139905      14.03566509       5.61426604      -0.00002936      -0.00408779       0.00089155
Cl      11.22853207      14.03566509       5.61426604       0.00003045       0.00408570      -0.00089095
Na      11.22853207      16.84279811       5.61426604      -0.00002851      -0.00408676       0.00089145
Cl      14.03566509      16.84279811       5.61426604       0.00002826       0.00408710      -0.00089099
Na      14.03566509      19.64993112       5.61426604      -0.00003143      -0.00408693       0.00089128
Cl      16.84279811      19.64993112       5.61426604       0.00002902       0.00408742      -0.00089116
Na      16.84279811      22.45706414       5.61426604      -0.00003135      -0.00408679       0.00089132
Cl      19.64993112      22.45706414       5.61426604       0.00002896       0.00408747      -0.00089137
Na      19.64993112      25.26419716       5.61426604      -0.00003141      -0.00408562       0.00089150
Cl      22.45706414      25.26419716       5.61426604       0.00002851       0.00408934      -0.00089133
Na      22.45706414      28.07133018       5.61426604      -0.00002976      -0.00408841       0.00089150
Cl      25.26419716      28.07133018       5.61426604       0.00003121       0.00408479      -0.00089070
Na      25.26419716      30.87846319       5.61426604      -0.00002530      -0.00408724       0.00089182
Cl      28.07133018      30.87846319       5.61426604       0.00002776       0.00408637      -0.00089052
Na      28.07133018      33.68559621       5.61426604      -0.00002933      -0.00408696       0.00089160
Cl      30.87846319      33.68559621       5.61426604       0.00002991       0.00408695      -0.00089106
Na      30.87846319      36.49272923       5.61426604      -0.00003048      -0.00408715       0.00089182
Cl      33.68559621      36.49272923       5.61426604       0.00002861       0.00408796      -0.00089178
Na       2.80713302       5.61426604       8.42139905      -0.00002872      -0.00408677       0.00089103
Cl       5.61426604       5.61426604       8.42139905       0.00002946       0.00408739      -0.00089198
Na       5.61426604       8.42139905       8.42139905      -0.00002905      -0.00408736       0.00089094
Cl       8.42139905       8.42139905       8.42139905       0.00002885       0.00408653      -0.00089166
Na       8.42139905      11.22853207       8.42139905      -0.00002961      -0.00408623       0.00089085
Cl      11.22853207      11.22853207       8.42139905       0.00003040       0.00408806      -0.00089175
Na      11.22853207      14.03566509       8.42139905      -0.00002854      -0.00408786       0.00089094
Cl      14.03566509      14.03566509       8.42139905       0.00002836       0.00408584      -0.00089172
Na      14.03566509      16.84279811       8.42139905      -0.00002999      -0.00408705       0.00089093
Cl      16.84279811      16.84279811       8.42139905       0.00002918       0.00408695      -0.00089191
Na      16.84279811      19.64993112       8.42139905      -0.00002933      -0.00408705       0.00089104
Cl      19.64993112      19.64993112       8.42139905       0.00002924       0.00408718      -0.00089192
Na      19.64993112      22.45706414       8.42139905      -0.00002917      -0.00408725       0.00089108
Cl      22.45706414      22.45706414       8.42139905       0.00002918       0.00408725      -0.00089187
Na      22.45706414      25.26419716       8.42139905      -0.00002910      -0.00408578       0.00089097
Cl      25.26419716      25.26419716       8.42139905       0.00003102       0.00408899      -0.00089189
Na      25.26419716      28.07133018       8.42139905      -0.00002727      -0.00408839       0.00089070
Cl      28.07133018      28.07133018       8.42139905       0.00002725       0.00408489      -0.00089161
Na      28.07133018      30.87846319       8.42139905      -0.00003079      -0.00408691       0.00089051
Cl      30.87846319      30.87846319       8.42139905       0.00002929       0.00408686      -0.00089171
Na      30.87846319      33.68559621       8.42139905      -0.00002950      -0.00408690       0.00089094
Cl      33.68559621      33.68559621       8.42139905       0.00002939       0.00408708      -0.00089194
Na      33.68559621      36.49272923       8.42139905      -0.00002948      -0.00408750       0.00089124
Cl      36.49272923      36.49272923       8.42139905       0.00002914       0.00408714      -0.00089202
Na       5.61426604       5.61426604      11.22853207      -0.00002873      -0.00408678       0.00089206
Cl       8.42139905       5.61426604      11.22853207       0.00002888       0.00408751      -0.00089046
Na       8.42139905       8.42139905      11.22853207      -0.00002973      -0.00408744       0.00089205
Cl      11.22853207       8.42139905      11.22853207       0.00003036       0.00408642      -0.00089035
Na      11.22853207      11.22853207      11.22853207      -0.00002839      -0.00408619       0.00089200
Cl      14.03566509      11.22853207      11.22853207       0.00002826       0.00408798      -0.00089048
Na      14.03566509      14.03566509      11.22853207      -0.00003012      -0.00408781       0.00089200
Cl      16.84279811      14.03566509      11.22853207       0.00002922       0.00408575      -0.00089028
Na      16.84279811      16.84279811      11.22853207      -0.00002928      -0.00408699       0.00089192
Cl      19.64993112      16.84279811      11.22853207       0.00002926       0.00408694      -0.00089029
Na      19.64993112      19.64993112      11.22853207      -0.00002920      -0.00408713       0.00089191
Cl      22.45706414      19.64993112      11.22853207       0.00002929       0.00408702      -0.00089028
Na      22.45706414      22.45706414      11.22853207      -0.00002933      -0.00408710       0.00089202
Cl      25.26419716      22.45706414      11.22853207       0.00003127       0.00408718      -0.00089027
Na      25.26419716      25.26419716      11.22853207      -0.00002746      -0.00408555       0.00089197
Cl      28.07133018      25.26419716      11.22853207       0.00002721       0.00408894      -0.00089029
Na      28.07133018      28.07133018      11.22853207      -0.00003075      -0.00408853       0.00089191
Cl      30.87846319      28.07133018      11.22853207       0.00002933       0.00408500      -0.00089025
Na      30.87846319      30.87846319      11.22853207      -0.00002919      -0.00408701       0.00089179
Cl      33.68559621      30.87846319      11.22853207       0.00002925       0.00408698      -0.00089028
Na      33.68559621      33.68559621      11.22853207      -0.00002932      -0.00408711       0.00089190
Cl      36.49272923      33.68559621      11.22853207       0.00002939       0.00408697      -0.00089036
Na      36.49272923      36.49272923      11.22853207      -0.00002928      -0.00408707       0.00089206
Cl      39.29986225      36.49272923      11.22853207       0.00002918       0.00408716      -0.00089035
Na       8.42139905       5.61426604      14.03566509      -0.00002924      -0.00408663       0.00089061
Cl      11.22853207       5.61426604      14.03566509       0.00003053       0.00408751      -0.00089229
Na      11.22853207       8.42139905      14.03566509      -0.00002857      -0.00408748       0.00089054
Cl      14.03566509       8.42139905      14.03566509       0.00002835       0.00408642      -0.00089229
Na      14.03566509      11.22853207      14.03566509      -0.00003006      -0.00408609       0.00089058
Cl      16.84279811      11.22853207      14.03566509       0.00002932       0.00408796      -0.00089217
Na      16.84279811      14.03566509      14.03566509      -0.00002932      -0.00408777       0.00089047
Cl      19.64993112      14.03566509      14.03566509       0.00002930       0.00408605      -0.00089227
Na      19.64993112      16.84279811      14.03566509      -0.00002917      -0.00408700       0.00089057
Cl      22.45706414      16.84279811      14.03566509       0.00002929       0.00408703      -0.00089221
Na      22.45706414      19.64993112      14.03566509      -0.00002929      -0.00408703       0.00089053
Cl      25.26419716      19.64993112      14.03566509       0.00003130       0.00408723      -0.00089224
Na      25.26419716      22.45706414      14.03566509      -0.00002758      -0.00408716       0.00089057
Cl      28.07133018      22.45706414      14.03566509       0.00002716       0.00408710      -0.00089224
Na      28.07133018      25.26419716      14.03566509      -0.00003083      -0.00408553       0.00089056
Cl      30.87846319      25.26419716      14.03566509       0.00002915       0.00408902      -0.00089217
Na      30.87846319      28.07133018      14.03566509      -0.00002917      -0.00408849       0.00089038
Cl      33.68559621      28.07133018      14.03566509       0.00002924       0.00408507      -0.00089225
Na      33.68559621      30.87846319      14.03566509      -0.00002915      -0.00408706       0.00089054
Cl      36.49272923      30.87846319      14.03566509       0.00002922       0.00408705      -0.00089217
Na      36.49272923      33.68559621      14.03566509      -0.00002919      -0.00408706       0.00089055
Cl      39.29986225      33.68559621      14.03566509       0.00002918       0.00408714      -0.00089234
Na      39.29986225      36.49272923      14.03566509      -0.00002918      -0.00408709       0.00089050
Cl      42.10699527      36.49272923      14.03566509       0.00002918       0.00408717      -0.00089239
Na      11.22853207       5.61426604      16.84279811      -0.00002870      -0.00408690       0.00089160
Cl      14.03566509       5.61426604      16.84279811       0.00002848       0.00408742      -0.00089124
Na      14.03566509       8.42139905      16.84279811      -0.00003010      -0.00408747       0.00089130
Cl      16.84279811       8.42139905      16.84279811       0.00002927       0.00408627      -0.00089112
Na      16.84279811      11.22853207      16.84279811      -0.00002921      -0.00408603       0.00089136
Cl      19.64993112      11.22853207      16.84279811       0.00002930       0.00408794      -0.00089131
Na      19.64993112      14.03566509      16.84279811      -0.00002925      -0.00408783       0.00089136
Cl      22.45706414      14.03566509      16.84279811       0.00002924       0.00408593      -0.00089128
Na      22.45706414      16.84279811      16.84279811      -0.00002924      -0.00408700       0.00089129
Cl      25.26419716      16.84279811      16.84279811       0.00003128       0.00408707      -0.00089116
Na      25.26419716      19.64993112      16.84279811      -0.00002752      -0.00408701       0.00089123
Cl      28.07133018      19.64993112      16.84279811       0.00002699       0.00408712      -0.00089139
Na      28.07133018      22.45706414      16.84279811      -0.00003074      -0.00408729       0.00089139
Cl      30.87846319      22.45706414      16.84279811       0.00002907       0.00408714      -0.00089108
Na      30.87846319      25.26419716      16.84279811      -0.00002939      -0.00408557       0.00089113
Cl      33.68559621      25.26419716      16.84279811       0.00002925       0.00408909      -0.00089126
Na      33.68559621      28.07133018      16.84279811      -0.00002928      -0.00408843       0.00089126
Cl      36.49272923      28.07133018      16.84279811       0.00002916       0.00408500      -0.00089116
Na      36.49272923      30.87846319      16.84279811      -0.00002927      -0.00408699       0.00089132
Cl      39.29986225      30.87846319      16.84279811       0.00002923       0.00408686      -0.00089118
Na      39.29986225      33.68559621      16.84279811      -0.00002922      -0.00408698       0.00089124
Cl      42.10699527      33.68559621      16.84279811       0.00002920       0.00408678      -0.00089126
Na      42.10699527      36.49272923      16.84279811      -0.00002896      -0.00408694       0.00089136
Cl      44.91412828      36.49272923      16.84279811       0.00003086       0.00408747      -0.00089178
Na      14.03566509       5.61426604      19.64993112      -0.00003151      -0.00408695       0.00089122
Cl      16.84279811       5.61426604      19.64993112       0.00002921       0.00408716      -0.00089091
Na      16.84279811       8.42139905      19.64993112      -0.00002930      -0.00408723       0.00089099
Cl      19.64993112       8.42139905      19.64993112       0.00002910       0.00408625      -0.00089093
Na      19.64993112      11.22853207      19.64993112      -0.00002922      -0.00408608       0.00089120
Cl      22.45706414      11.22853207      19.64993112       0.00002925       0.00408801      -0.00089127
Na      22.45706414      14.03566509      19.64993112      -0.00002920      -0.00408788       0.00089117
Cl      25.26419716      14.03566509      19.64993112       0.00003124       0.00408601      -0.00089113
Na      25.26419716      16.84279811      19.64993112      -0.00002752      -0.00408702       0.00089109
Cl      28.07133018      16.84279811      19.64993112       0.00002703       0.00408706      -0.00089123
Na      28.07133018      19.64993112      19.64993112      -0.00003062      -0.00408717       0.00089130
Cl      30.87846319      19.64993112      19.64993112       0.00002907       0.00408708      -0.00089123
Na      30.87846319      22.45706414      19.64993112      -0.00002922      -0.00408704       0.00089116
Cl      33.68559621      22.45706414      19.64993112       0.00002907       0.00408718      -0.00089119
Na      33.68559621      25.26419716      19.64993112      -0.00002933      -0.00408550       0.00089120
Cl      36.49272923      25.26419716      19.64993112       0.00002934       0.00408918      -0.00089123
Na      36.49272923      28.07133018      19.64993112      -0.00002916      -0.00408845       0.00089120
Cl      39.29986225      28.07133018      19.64993112       0.00002915       0.00408492      -0.00089115
Na      39.29986225      30.87846319      19.64993112      -0.00002917      -0.00408707       0.00089113
Cl      42.10699527      30.87846319      19.64993112       0.00002911       0.00408696      -0.00089123
Na      42.10699527      33.68559621      19.64993112      -0.00002914      -0.00408696       0.00089118
Cl      44.91412828      33.68559621      19.64993112       0.00002915       0.00408694      -0.00089108
Na      44.91412828      36.49272923      19.64993112      -0.00002889      -0.00408675       0.00089087
Cl      47.72126130      36.49272923      19.64993112       0.00003152       0.00408751      -0.00089139
Na      16.84279811       5.61426604      22.45706414      -0.00003147      -0.00408694       0.00089141
Cl      19.64993112       5.61426604      22.45706414       0.00002893       0.00408702      -0.00089072
Na      19.64993112       8.42139905      22.45706414      -0.00002918      -0.00408704       0.00089081
Cl      22.45706414       8.42139905      22.45706414       0.00002916       0.00408623      -0.00089091
Na      22.45706414      11.22853207      22.45706414      -0.00002927      -0.00408614       0.00089107
Cl      25.26419716      11.22853207      22.45706414       0.00003118       0.00408801      -0.00089102
Na      25.26419716      14.03566509      22.45706414      -0.00002752      -0.00408781       0.00089113
Cl      28.07133018      14.03566509      22.45706414       0.00002702       0.00408594      -0.00089125
Na      28.07133018      16.84279811      22.45706414      -0.00003075      -0.00408713       0.00089124
Cl      30.87846319      16.84279811      22.45706414       0.00002906       0.00408700      -0.00089108
Na      30.87846319      19.64993112      22.45706414      -0.00002920      -0.00408707       0.00089112
Cl      33.68559621      19.64993112      22.45706414       0.00002902       0.00408711      -0.00089103
Na      33.68559621      22.45706414      22.45706414      -0.00002917      -0.00408707       0.00089119
Cl      36.49272923      22.45706414      22.45706414       0.00002915       0.00408720      -0.00089109
Na      36.49272923      25.26419716      22.45706414      -0.00002933      -0.00408563       0.00089106
Cl      39.29986225      25.26419716      22.45706414       0.00002937       0.00408914      -0.00089112
Na      39.29986225      28.07133018      22.45706414      -0.00002918      -0.00408847       0.00089111
Cl      42.10699527      28.07133018      22.45706414       0.00002918       0.00408488      -0.00089114
Na      42.10699527      30.87846319      22.45706414      -0.00002923      -0.00408700       0.00089127
Cl      44.91412828      30.87846319      22.45706414       0.00002914       0.00408695      -0.00089117
Na      44.91412828      33.68559621      22.45706414      -0.00002918      -0.00408696       0.00089108
Cl      47.72126130      33.68559621      22.45706414       0.00002936       0.00408683      -0.00089104
Na      47.72126130      36.49272923      22.45706414      -0.00002911      -0.00408676       0.00089090
Cl      50.52839432      36.49272923      22.45706414       0.00003166       0.00408739      -0.00089137
Na      19.64993112       5.61426604      25.26419716      -0.00003131      -0.00408665       0.00089287
Cl      22.45706414       5.61426604      25.26419716       0.00002846       0.00408704      -0.00088896
Na      22.45706414       8.42139905      25.26419716      -0.00002909      -0.00408717       0.00089247
Cl      25.26419716       8.42139905      25.26419716       0.00003092       0.00408664      -0.00088922
Na      25.26419716      11.22853207      25.26419716      -0.00002742      -0.00408624       0.00089261
Cl      28.07133018      11.22853207      25.26419716       0.00002705       0.00408802      -0.00088932
Na      28.07133018      14.03566509      25.26419716      -0.00003077      -0.00408775       0.00089278
Cl      30.87846319      14.03566509      25.26419716       0.00002929       0.00408595      -0.00088930
Na      30.87846319      16.84279811      25.26419716      -0.00002926      -0.00408699       0.00089271
Cl      33.68559621      16.84279811      25.26419716       0.00002924       0.00408693      -0.00088935
Na      33.68559621      19.64993112      25.26419716      -0.00002922      -0.00408695       0.00089270
Cl      36.49272923      19.64993112      25.26419716       0.00002923       0.00408703      -0.00088924
Na      36.49272923      22.45706414      25.26419716      -0.00002937      -0.00408704       0.00089278
Cl      39.29986225      22.45706414      25.26419716       0.00002927       0.00408716      -0.00088918
Na      39.29986225      25.26419716      25.26419716      -0.00002929      -0.00408558       0.00089275
Cl      42.10699527      25.26419716      25.26419716       0.00002927       0.00408909      -0.00088921
Na      42.10699527      28.07133018      25.26419716      -0.00002925      -0.00408854       0.00089272
Cl      44.91412828      28.07133018      25.26419716       0.00002931       0.00408499      -0.00088917
Na      44.91412828      30.87846319      25.26419716      -0.00002919      -0.00408696       0.00089272
Cl      47.72126130      30.87846319      25.26419716       0.00002942       0.00408681      -0.00088950
Na      47.72126130      33.68559621      25.26419716      -0.00002943      -0.00408691       0.00089267
Cl      50.52839432      33.68559621      25.26419716       0.00002968       0.00408702      -0.00088934
Na      50.52839432      36.49272923      25.26419716      -0.00002953      -0.00408679       0.00089241
Cl      53.33552734      36.49272923      25.26419716       0.00003253       0.00408685      -0.00088903
Na      22.45706414       5.61426604      28.07133018      -0.00002989      -0.00408692       0.00088978
Cl      25.26419716       5.61426604      28.07133018       0.00003119       0.00408787      -0.00089345
Na      25.26419716       8.42139905      28.07133018      -0.00002720      -0.00408771       0.00088991
Cl      28.07133018       8.42139905      28.07133018       0.00002724       0.00408652      -0.00089325
Na      28.07133018      11.22853207      28.07133018      -0.00003087      -0.00408634       0.00088988
Cl      30.87846319      11.22853207      28.07133018       0.00002931       0.00408797      -0.00089316
Na      30.87846319      14.03566509      28.07133018      -0.00002932      -0.00408766       0.00088987
Cl      33.68559621      14.03566509      28.07133018       0.00002934       0.00408593      -0.00089329
Na      33.68559621      16.84279811      28.07133018      -0.00002912      -0.00408689       0.00088979
Cl      36.49272923      16.84279811      28.07133018       0.00002920       0.00408698      -0.00089324
Na      36.49272923      19.64993112      28.07133018      -0.00002921      -0.00408700       0.00088984
Cl      39.29986225      19.64993112      28.07133018       0.00002925       0.00408709      -0.00089318
Na      39.29986225      22.45706414      28.07133018      -0.00002922      -0.00408709       0.00088970
Cl      42.10699527      22.45706414      28.07133018       0.00002912       0.00408718      -0.00089323
Na      42.10699527      25.26419716      28.07133018      -0.00002921      -0.00408561       0.00088965
Cl      44.91412828      25.26419716      28.07133018       0.00002924       0.00408891      -0.00089307
Na      44.91412828      28.07133018      28.07133018      -0.00002912      -0.00408837       0.00088968
Cl      47.72126130      28.07133018      28.07133018       0.00002935       0.00408497      -0.00089328
Na      47.72126130      30.87846319      28.07133018      -0.00002930      -0.00408698       0.00088976
Cl      50.52839432      30.87846319      28.07133018       0.00002932       0.00408700      -0.00089317
Na      50.52839432      33.68559621      28.07133018      -0.00002948      -0.00408701       0.00088980
Cl      53.33552734      33.68559621      28.07133018       0.00003326       0.00408724      -0.00089313
Na      53.33552734      36.49272923      28.07133018      -0.00002662      -0.00408749       0.00089015
Cl      56.14266035      36.49272923      28.07133018       0.00002314       0.00408713      -0.00089316
Na      25.26419716       5.61426604      30.87846319      -0.00002520      -0.00408662       0.00089097
Cl      28.07133018       5.61426604      30.87846319       0.00002771       0.00408794      -0.00089190
Na      28.07133018       8.42139905      30.87846319      -0.00003092      -0.00408772       0.00089169
Cl      30.87846319       8.42139905      30.87846319       0.00002952       0.00408641      -0.00089131
Na      30.87846319      11.22853207      30.87846319      -0.00002937      -0.00408621       0.00089146
Cl      33.68559621      11.22853207      30.87846319       0.00002941       0.00408803      -0.00089149
Na      33.68559621      14.03566509      30.87846319      -0.00002932      -0.00408785       0.00089138
Cl      36.49272923      14.03566509      30.87846319       0.00002928       0.00408597      -0.00089130
Na      36.49272923      16.84279811      30.87846319      -0.00002925      -0.00408709       0.00089121
Cl      39.29986225      16.84279811      30.87846319       0.00002921       0.00408695      -0.00089121
Na      39.29986225      19.64993112      30.87846319      -0.00002931      -0.00408700       0.00089125
Cl      42.10699527      19.64993112      30.87846319       0.00002928       0.00408710      -0.00089131
Na      42.10699527      22.45706414      30.87846319      -0.00002912      -0.00408711       0.00089127
Cl      44.91412828      22.45706414      30.87846319       0.00002921       0.00408720      -0.00089125
Na      44.91412828      25.26419716      30.87846319      -0.00002936      -0.00408560       0.00089117
Cl      47.72126130      25.26419716      30.87846319       0.00002937       0.00408902      -0.00089110
Na      47.72126130      28.07133018      30.87846319      -0.00002925      -0.00408844       0.00089131
Cl      50.52839432      28.07133018      30.87846319       0.00002928       0.00408500      -0.00089118
Na      50.52839432      30.87846319      30.87846319      -0.00002928      -0.00408696       0.00089131
Cl      53.33552734      30.87846319      30.87846319       0.00003328       0.00408685      -0.00089132
Na      53.33552734      33.68559621      30.87846319      -0.00002614      -0.00408706       0.00089129
Cl      56.14266035      33.68559621      30.87846319       0.00002500       0.00408710      -0.00089153
Na      56.14266035      36.49272923      30.87846319      -0.00003240      -0.00408767       0.00089181
Cl      58.94979337      36.49272923      30.87846319       0.00002822       0.00408731      -0.00089143
Na      28.07133018       5.61426604      33.68559621      -0.00002939      -0.00408685       0.00089126
Cl      30.87846319       5.61426604      33.68559621       0.00002980       0.00408723      -0.00089118
Na      30.87846319       8.42139905      33.68559621      -0.00002960      -0.00408724       0.00089127
Cl      33.68559621       8.42139905      33.68559621       0.00002937       0.00408617      -0.00089108
Na      33.68559621      11.22853207      33.68559621      -0.00002937      -0.00408619       0.00089133
Cl      36.49272923      11.22853207      33.68559621       0.00002924       0.00408804      -0.00089124
Na      36.49272923      14.03566509      33.68559621      -0.00002923      -0.00408783       0.00089124
Cl      39.29986225      14.03566509      33.68559621       0.00002916       0.00408589      -0.00089133
Na      39.29986225      16.84279811      33.68559621      -0.00002913      -0.00408703       0.00089132
Cl      42.10699527      16.84279811      33.68559621       0.00002909       0.00408699      -0.00089128
Na      42.10699527      19.64993112      33.68559621      -0.00002911      -0.00408703       0.00089123
Cl      44.91412828      19.64993112      33.68559621       0.00002915       0.00408723      -0.00089139
Na      44.91412828      22.45706414      33.68559621      -0.00002924      -0.00408731       0.00089136
Cl      47.72126130      22.45706414      33.68559621       0.00002933       0.00408720      -0.00089136
Na      47.72126130      25.26419716      33.68559621      -0.00002948      -0.00408555       0.00089119
Cl      50.52839432      25.26419716      33.68559621       0.00002947       0.00408896      -0.00089108
Na      50.52839432      28.07133018      33.68559621      -0.00002937      -0.00408846       0.00089110
Cl      53.33552734      28.07133018      33.68559621       0.00003332       0.00408493      -0.00089117
Na      53.33552734      30.87846319      33.68559621      -0.00002604      -0.00408696       0.00089111
Cl      56.14266035      30.87846319      33.68559621       0.00002494       0.00408685      -0.00089131
Na      56.14266035      33.68559621      33.68559621      -0.00003196      -0.00408711       0.00089133
Cl      58.94979337      33.68559621      33.68559621       0.00002865       0.00408692      -0.00089121
Na      58.94979337      36.49272923      33.68559621      -0.00002864      -0.00408710       0.00089129
Cl      61.75692639      36.49272923      33.68559621       0.00002858       0.00408788      -0.00089191
Na      30.87846319       5.61426604      36.49272923      -0.00003056      -0.00408657       0.00089092
Cl      33.68559621       5.61426604      36.49272923       0.00002861       0.00408660      -0.00089051
Na      33.68559621       8.42139905      36.49272923      -0.00002940      -0.00408693       0.00089088
Cl      36.49272923       8.42139905      36.49272923       0.00002891       0.00408632      -0.00089118
Na      36.49272923      11.22853207      36.49272923      -0.00002921      -0.00408615       0.00089112
Cl      39.29986225      11.22853207      36.49272923       0.00002916       0.00408798      -0.00089115
Na      39.29986225      14.03566509      36.49272923      -0.00002923      -0.00408782       0.00089120
Cl      42.10699527      14.03566509      36.49272923       0.00002922       0.00408586      -0.00089118
Na      42.10699527      16.84279811      36.49272923      -0.00002900      -0.00408706       0.00089128
Cl      44.91412828      16.84279811      36.49272923       0.00003070       0.00408665      -0.00089078
Na      44.91412828      19.64993112      36.49272923      -0.00002883      -0.00408733       0.00089143
Cl      47.72126130      19.64993112      36.49272923       0.00003134       0.00408665      -0.00089071
Na      47.72126130      22.45706414      36.49272923      -0.00002897      -0.00408728       0.00089144
Cl      50.52839432      22.45706414      36.49272923       0.00003157       0.00408679      -0.00089078
Na      50.52839432      25.26419716      36.49272923      -0.00002933      -0.00408578       0.00089148
Cl      53.33552734      25.26419716      36.49272923       0.00003235       0.00408936      -0.00089137
Na      53.33552734      28.07133018      36.49272923      -0.00002665      -0.00408820       0.00089080
Cl      56.14266035      28.07133018      36.49272923       0.00002320       0.00408543      -0.00089128
Na      56.14266035      30.87846319      36.49272923      -0.00003237      -0.00408652       0.00089098
Cl      58.94979337      30.87846319      36.49272923       0.00002829       0.00408669      -0.00089107
Na      58.94979337      33.68559621      36.49272923      -0.00002867      -0.00408680       0.00089108
Cl      61.75692639      33.68559621      36.49272923       0.00002848       0.00408630      -0.00089063
Na      61.75692639      36.49272923      36.49272923      -0.00003154      -0.00408714       0.00089123
Cl      64.56405941      36.49272923      36.49272923       0.00003869       0.00408690      -0.00089108
Na      -0.00000000       8.42139905       8.42139905      -0.00003133      -0.00408712       0.00089111
Cl       2.80713302       8.42139905       8.42139905       0.00002925       0.00408663      -0.00089183
Na       2.80713302      11.22853207       8.42139905      -0.00002874      -0.00408612       0.00089114
Cl       5.61426604      11.22853207       8.42139905       0.00002957       0.00408791      -0.00089154
Na       5.61426604      14.03566509       8.42139905      -0.00002879      -0.00408770       0.00089106
Cl       8.42139905      14.03566509       8.42139905       0.00002891       0.00408563      -0.00089162
Na       8.42139905      16.84279811       8.42139905      -0.00002938      -0.00408693       0.00089112
Cl      11.22853207      16.84279811       8.42139905       0.00003042       0.00408695      -0.00089158
Na      11.22853207      19.64993112       8.42139905      -0.00002864      -0.00408684       0.00089085
Cl      14.03566509      19.64993112       8.42139905       0.00002843       0.00408706      -0.00089174
Na      14.03566509      22.45706414       8.42139905      -0.00003148      -0.00408668       0.00089088
Cl      16.84279811      22.45706414       8.42139905       0.00002900       0.00408722      -0.00089217
Na      16.84279811      25.26419716       8.42139905      -0.00003141      -0.00408525       0.00089067
Cl      19.64993112      25.26419716       8.42139905       0.00002914       0.00408939      -0.00089210
Na      19.64993112      28.07133018       8.42139905      -0.00003137      -0.00408864       0.00089091
Cl      22.45706414      28.07133018       8.42139905       0.00002843       0.00408538      -0.00089207
Na      22.45706414      30.87846319       8.42139905      -0.00002978      -0.00408689       0.00089112
Cl      25.26419716      30.87846319       8.42139905       0.00003130       0.00408672      -0.00089141
Na      25.26419716      33.68559621       8.42139905      -0.00002531      -0.00408720       0.00089129
Cl      28.07133018      33.68559621       8.42139905       0.00002762       0.00408641      -0.00089108
Na      28.07133018      36.49272923       8.42139905      -0.00002946      -0.00408694       0.00089107
Cl      30.87846319      36.49272923       8.42139905       0.00002986       0.00408697      -0.00089175
Na      30.87846319      39.29986225       8.42139905      -0.00003052      -0.00408705       0.00089108
Cl      33.68559621      39.29986225       8.42139905       0.00002862       0.00408783      -0.00089246
Na       2.80713302       8.42139905      11.22853207      -0.00002867      -0.00408721       0.00089209
Cl       5.61426604       8.42139905      11.22853207       0.00002957       0.00408669      -0.00089045
Na       5.61426604      11.22853207      11.22853207      -0.00002888      -0.00408631       0.00089203
Cl       8.42139905      11.22853207      11.22853207       0.00002864       0.00408811      -0.00089028
Na       8.42139905      14.03566509      11.22853207      -0.00002972      -0.00408777       0.00089197
Cl      11.22853207      14.03566509      11.22853207       0.00003027       0.00408594      -0.00089030
Na      11.22853207      16.84279811      11.22853207      -0.00002852      -0.00408702       0.00089203
Cl      14.03566509      16.84279811      11.22853207       0.00002834       0.00408693      -0.00089028
Na      14.03566509      19.64993112      11.22853207      -0.00003018      -0.00408704       0.00089191
Cl      16.84279811      19.64993112      11.22853207       0.00002924       0.00408712      -0.00089022
Na      16.84279811      22.45706414      11.22853207      -0.00002932      -0.00408715       0.00089221
Cl      19.64993112      22.45706414      11.22853207       0.00002931       0.00408728      -0.00089042
Na      19.64993112      25.26419716      11.22853207      -0.00002933      -0.00408581       0.00089222
Cl      22.45706414      25.26419716      11.22853207       0.00002907       0.00408913      -0.00089037
Na      22.45706414      28.07133018      11.22853207      -0.00002897      -0.00408884       0.00089218
Cl      25.26419716      28.07133018      11.22853207       0.00003099       0.00408513      -0.00089036
Na      25.26419716      30.87846319      11.22853207      -0.00002721      -0.00408696       0.00089180
Cl      28.07133018      30.87846319      11.22853207       0.00002700       0.00408688      -0.00089012
Na      28.07133018      33.68559621      11.22853207      -0.00003087      -0.00408674       0.00089175
Cl      30.87846319      33.68559621      11.22853207       0.00002941       0.00408697      -0.00089021
Na      30.87846319      36.49272923      11.22853207      -0.00002955      -0.00408704       0.00089188
Cl      33.68559621      36.49272923      11.22853207       0.00002940       0.00408715      -0.00089040
Na      33.68559621      39.29986225      11.22853207      -0.00002951      -0.00408748       0.00089225
Cl      36.49272923      39.29986225      11.22853207       0.00002905       0.00408720      -0.00089046
Na       5.61426604       8.42139905      14.03566509      -0.00002867      -0.00408708       0.00089059
Cl       8.42139905       8.42139905      14.03566509       0.00002882       0.00408677      -0.00089251
Na       8.42139905      11.22853207      14.03566509      -0.00002956      -0.00408648       0.00089060
Cl      11.22853207      11.22853207      14.03566509       0.00003029       0.00408816      -0.00089220
Na      11.22853207      14.03566509      14.03566509      -0.00002827      -0.00408775       0.00089045
Cl      14.03566509      14.03566509      14.03566509       0.00002819       0.00408592      -0.00089211
Na      14.03566509      16.84279811      14.03566509      -0.00003010      -0.00408699       0.00089058
Cl      16.84279811      16.84279811      14.03566509       0.00002920       0.00408708      -0.00089213
Na      16.84279811      19.64993112      14.03566509      -0.00002914      -0.00408706       0.00089052
Cl      19.64993112      19.64993112      14.03566509       0.00002918       0.00408710      -0.00089214
Na      19.64993112      22.45706414      14.03566509      -0.00002918      -0.00408714       0.00089052
Cl      22.45706414      22.45706414      14.03566509       0.00002924       0.00408725      -0.00089221
Na      22.45706414      25.26419716      14.03566509      -0.00002914      -0.00408571       0.00089045
Cl      25.26419716      25.26419716      14.03566509       0.00003117       0.00408899      -0.00089200
Na      25.26419716      28.07133018      14.03566509      -0.00002748      -0.00408855       0.00089046
Cl      28.07133018      28.07133018      14.03566509       0.00002712       0.00408499      -0.00089225
Na      28.07133018      30.87846319      14.03566509      -0.00003078      -0.00408704       0.00089059
Cl      30.87846319      30.87846319      14.03566509       0.00002911       0.00408712      -0.00089215
Na      30.87846319      33.68559621      14.03566509      -0.00002925      -0.00408701       0.00089038
Cl      33.68559621      33.68559621      14.03566509       0.00002925       0.00408708      -0.00089216
Na      33.68559621      36.49272923      14.03566509      -0.00002926      -0.00408710       0.00089052
Cl      36.49272923      36.49272923      14.03566509       0.00002933       0.00408720      -0.00089230
Na      36.49272923      39.29986225      14.03566509      -0.00002921      -0.00408714       0.00089059
Cl      39.29986225      39.29986225      14.03566509       0.00002918       0.00408706      -0.00089227
Na       8.42139905       8.42139905      16.84279811      -0.00002933      -0.00408707       0.00089136
Cl      11.22853207       8.42139905      16.84279811       0.00003053       0.00408674      -0.00089131
Na      11.22853207      11.22853207      16.84279811      -0.00002852      -0.00408632       0.00089129
Cl      14.03566509      11.22853207      16.84279811       0.00002828       0.00408801      -0.00089125
Na      14.03566509      14.03566509      16.84279811      -0.00003000      -0.00408769       0.00089120
Cl      16.84279811      14.03566509      16.84279811       0.00002921       0.00408593      -0.00089121
Na      16.84279811      16.84279811      16.84279811      -0.00002925      -0.00408703       0.00089122
Cl      19.64993112      16.84279811      16.84279811       0.00002923       0.00408698      -0.00089128
Na      19.64993112      19.64993112      16.84279811      -0.00002930      -0.00408707       0.00089128
Cl      22.45706414      19.64993112      16.84279811       0.00002932       0.00408703      -0.00089126
Na      22.45706414      22.45706414      16.84279811      -0.00002924      -0.00408709       0.00089125
Cl      25.26419716      22.45706414      16.84279811       0.00003122       0.00408726      -0.00089122
Na      25.26419716      25.26419716      16.84279811      -0.00002750      -0.00408557       0.00089108
Cl      28.07133018      25.26419716      16.84279811       0.00002717       0.00408905      -0.00089137
Na      28.07133018      28.07133018      16.84279811      -0.00003073      -0.00408848       0.00089124
Cl      30.87846319      28.07133018      16.84279811       0.00002924       0.00408495      -0.00089114
Na      30.87846319      30.87846319      16.84279811      -0.00002916      -0.00408706       0.00089126
Cl      33.68559621      30.87846319      16.84279811       0.00002926       0.00408699      -0.00089118
Na      33.68559621      33.68559621      16.84279811      -0.00002919      -0.00408705       0.00089135
Cl      36.49272923      33.68559621      16.84279811       0.00002923       0.00408697      -0.00089125
Na      36.49272923      36.49272923      16.84279811      -0.00002922      -0.00408701       0.00089128
Cl      39.29986225      36.49272923      16.84279811       0.00002912       0.00408700      -0.00089123
Na      39.29986225      39.29986225      16.84279811      -0.00002913      -0.00408692       0.00089127
Cl      42.10699527      39.29986225      16.84279811       0.00002913       0.00408714      -0.00089150
Na      11.22853207       8.42139905      19.64993112      -0.00002869      -0.00408738       0.00089140
Cl      14.03566509       8.42139905      19.64993112       0.00002847       0.00408643      -0.00089135
Na      14.03566509      11.22853207      19.64993112      -0.00003009      -0.00408634       0.00089129
Cl      16.84279811      11.22853207      19.64993112       0.00002927       0.00408805      -0.00089124
Na      16.84279811      14.03566509      19.64993112      -0.00002927      -0.00408783       0.00089116
Cl      19.64993112      14.03566509      19.64993112       0.00002925       0.00408594      -0.00089121
Na      19.64993112      16.84279811      19.64993112      -0.00002923      -0.00408706       0.00089123
Cl      22.45706414      16.84279811      19.64993112       0.00002928       0.00408700      -0.00089124
Na      22.45706414      19.64993112      19.64993112      -0.00002926      -0.00408708       0.00089121
Cl      25.26419716      19.64993112      19.64993112       0.00003113       0.00408711      -0.00089109
Na      25.26419716      22.45706414      19.64993112      -0.00002745      -0.00408714       0.00089109
Cl      28.07133018      22.45706414      19.64993112       0.00002705       0.00408714      -0.00089129
Na      28.07133018      25.26419716      19.64993112      -0.00003075      -0.00408565       0.00089135
Cl      30.87846319      25.26419716      19.64993112       0.00002933       0.00408903      -0.00089117
Na      30.87846319      28.07133018      19.64993112      -0.00002907      -0.00408840       0.00089115
Cl      33.68559621      28.07133018      19.64993112       0.00002921       0.00408491      -0.00089118
Na      33.68559621      30.87846319      19.64993112      -0.00002913      -0.00408701       0.00089114
Cl      36.49272923      30.87846319      19.64993112       0.00002917       0.00408704      -0.00089120
Na      36.49272923      33.68559621      19.64993112      -0.00002923      -0.00408705       0.00089118
Cl      39.29986225      33.68559621      19.64993112       0.00002923       0.00408702      -0.00089122
Na      39.29986225      36.49272923      19.64993112      -0.00002907      -0.00408704       0.00089117
Cl      42.10699527      36.49272923      19.64993112       0.00002909       0.00408697      -0.00089118
Na      42.10699527      39.29986225      19.64993112      -0.00002903      -0.00408705       0.00089117
Cl      44.91412828      39.29986225      19.64993112       0.00003083       0.00408754      -0.00089158
Na      14.03566509       8.42139905      22.45706414      -0.00003147      -0.00408717       0.00089139
Cl      16.84279811       8.42139905      22.45706414       0.00002916       0.00408616      -0.00089093
Na      16.84279811      11.22853207      22.45706414      -0.00002930      -0.00408600       0.00089100
Cl      19.64993112      11.22853207      22.45706414       0.00002919       0.00408787      -0.00089097
Na      19.64993112      14.03566509      22.45706414      -0.00002912      -0.00408778       0.00089102
Cl      22.45706414      14.03566509      22.45706414       0.00002918       0.00408600      -0.00089102
Na      22.45706414      16.84279811      22.45706414      -0.00002921      -0.00408717       0.00089120
Cl      25.26419716      16.84279811      22.45706414       0.00003121       0.00408718      -0.00089105
Na      25.26419716      19.64993112      22.45706414      -0.00002752      -0.00408706       0.00089101
Cl      28.07133018      19.64993112      22.45706414       0.00002701       0.00408711      -0.00089111
Na      28.07133018      22.45706414      22.45706414      -0.00003072      -0.00408719       0.00089125
Cl      30.87846319      22.45706414      22.45706414       0.00002910       0.00408705      -0.00089108
Na      30.87846319      25.26419716      22.45706414      -0.00002935      -0.00408548       0.00089112
Cl      33.68559621      25.26419716      22.45706414       0.00002927       0.00408903      -0.00089114
Na      33.68559621      28.07133018      22.45706414      -0.00002924      -0.00408843       0.00089116
Cl      36.49272923      28.07133018      22.45706414       0.00002917       0.00408496      -0.00089110
Na      36.49272923      30.87846319      22.45706414      -0.00002915      -0.00408703       0.00089129
Cl      39.29986225      30.87846319      22.45706414       0.00002914       0.00408693      -0.00089113
Na      39.29986225      33.68559621      22.45706414      -0.00002924      -0.00408707       0.00089117
Cl      42.10699527      33.68559621      22.45706414       0.00002913       0.00408699      -0.00089112
Na      42.10699527      36.49272923      22.45706414      -0.00002913      -0.00408692       0.00089112
Cl      44.91412828      36.49272923      22.45706414       0.00002922       0.00408693      -0.00089095
Na      44.91412828      39.29986225      22.45706414      -0.00002888      -0.00408670       0.00089074
Cl      47.72126130      39.29986225      22.45706414       0.00003147       0.00408737      -0.00089126
Na      16.84279811       8.42139905      25.26419716      -0.00003132      -0.00408744       0.00089321
Cl      19.64993112       8.42139905      25.26419716       0.00002903       0.00408614      -0.00088885
Na      19.64993112      11.22853207      25.26419716      -0.00002927      -0.00408607       0.00089237
Cl      22.45706414      11.22853207      25.26419716       0.00002914       0.00408798      -0.00088920
Na      22.45706414      14.03566509      25.26419716      -0.00002922      -0.00408776       0.00089251
Cl      25.26419716      14.03566509      25.26419716       0.00003119       0.00408588      -0.00088918
Na      25.26419716      16.84279811      25.26419716      -0.00002754      -0.00408706       0.00089259
Cl      28.07133018      16.84279811      25.26419716       0.00002708       0.00408711      -0.00088942
Na      28.07133018      19.64993112      25.26419716      -0.00003081      -0.00408719       0.00089278
Cl      30.87846319      19.64993112      25.26419716       0.00002919       0.00408699      -0.00088943
Na      30.87846319      22.45706414      25.26419716      -0.00002929      -0.00408700       0.00089269
Cl      33.68559621      22.45706414      25.26419716       0.00002939       0.00408707      -0.00088931
Na      33.68559621      25.26419716      25.26419716      -0.00002926      -0.00408555       0.00089276
Cl      36.49272923      25.26419716      25.26419716       0.00002930       0.00408910      -0.00088926
Na      36.49272923      28.07133018      25.26419716      -0.00002926      -0.00408857       0.00089265
Cl      39.29986225      28.07133018      25.26419716       0.00002930       0.00408498      -0.00088924
Na      39.29986225      30.87846319      25.26419716      -0.00002925      -0.00408699       0.00089267
Cl      42.10699527      30.87846319      25.26419716       0.00002929       0.00408696      -0.00088947
Na      42.10699527      33.68559621      25.26419716      -0.00002930      -0.00408695       0.00089280
Cl      44.91412828      33.68559621      25.26419716       0.00002926       0.00408693      -0.00088934
Na      44.91412828      36.49272923      25.26419716      -0.00002920      -0.00408704       0.00089264
Cl      47.72126130      36.49272923      25.26419716       0.00002953       0.00408706      -0.00088920
Na      47.72126130      39.29986225      25.26419716      -0.00002909      -0.00408678       0.00089239
Cl      50.52839432      39.29986225      25.26419716       0.00003173       0.00408736      -0.00088957
Na      19.64993112       8.42139905      28.07133018      -0.00003137      -0.00408719       0.00088962
Cl      22.45706414       8.42139905      28.07133018       0.00002835       0.00408619      -0.00089295
Na      22.45706414      11.22853207      28.07133018      -0.00002905      -0.00408603       0.00088956
Cl      25.26419716      11.22853207      28.07133018       0.00003095       0.00408809      -0.00089309
Na      25.26419716      14.03566509      28.07133018      -0.00002742      -0.00408778       0.00088970
Cl      28.07133018      14.03566509      28.07133018       0.00002709       0.00408592      -0.00089322
Na      28.07133018      16.84279811      28.07133018      -0.00003068      -0.00408705       0.00088978
Cl      30.87846319      16.84279811      28.07133018       0.00002921       0.00408703      -0.00089320
Na      30.87846319      19.64993112      28.07133018      -0.00002920      -0.00408703       0.00088985
Cl      33.68559621      19.64993112      28.07133018       0.00002916       0.00408704      -0.00089322
Na      33.68559621      22.45706414      28.07133018      -0.00002924      -0.00408708       0.00088976
Cl      36.49272923      22.45706414      28.07133018       0.00002917       0.00408714      -0.00089324
Na      36.49272923      25.26419716      28.07133018      -0.00002917      -0.00408557       0.00088967
Cl      39.29986225      25.26419716      28.07133018       0.00002922       0.00408888      -0.00089309
Na      39.29986225      28.07133018      28.07133018      -0.00002913      -0.00408839       0.00088967
Cl      42.10699527      28.07133018      28.07133018       0.00002915       0.00408495      -0.00089321
Na      42.10699527      30.87846319      28.07133018      -0.00002920      -0.00408697       0.00088977
Cl      44.91412828      30.87846319      28.07133018       0.00002920       0.00408698      -0.00089313
Na      44.91412828      33.68559621      28.07133018      -0.00002928      -0.00408696       0.00088981
Cl      47.72126130      33.68559621      28.07133018       0.00002933       0.00408707      -0.00089314
Na      47.72126130      36.49272923      28.07133018      -0.00002940      -0.00408700       0.00088974
Cl      50.52839432      36.49272923      28.07133018       0.00002955       0.00408712      -0.00089319
Na      50.52839432      39.29986225      28.07133018      -0.00002943      -0.00408670       0.00088961
Cl      53.33552734      39.29986225      28.07133018       0.00003259       0.00408668      -0.00089290
Na      22.45706414       8.42139905      30.87846319      -0.00002979      -0.00408731       0.00089144
Cl      25.26419716       8.42139905      30.87846319       0.00003121       0.00408707      -0.00089174
Na      25.26419716      11.22853207      30.87846319      -0.00002718      -0.00408650       0.00089137
Cl      28.07133018      11.22853207      30.87846319       0.00002711       0.00408816      -0.00089140
Na      28.07133018      14.03566509      30.87846319      -0.00003067      -0.00408786       0.00089141
Cl      30.87846319      14.03566509      30.87846319       0.00002913       0.00408603      -0.00089137
Na      30.87846319      16.84279811      30.87846319      -0.00002917      -0.00408707       0.00089130
Cl      33.68559621      16.84279811      30.87846319       0.00002921       0.00408691      -0.00089124
Na      33.68559621      19.64993112      30.87846319      -0.00002924      -0.00408699       0.00089126
Cl      36.49272923      19.64993112      30.87846319       0.00002933       0.00408706      -0.00089125
Na      36.49272923      22.45706414      30.87846319      -0.00002913      -0.00408713       0.00089126
Cl      39.29986225      22.45706414      30.87846319       0.00002918       0.00408714      -0.00089126
Na      39.29986225      25.26419716      30.87846319      -0.00002942      -0.00408558       0.00089118
Cl      42.10699527      25.26419716      30.87846319       0.00002932       0.00408900      -0.00089113
Na      42.10699527      28.07133018      30.87846319      -0.00002924      -0.00408839       0.00089122
Cl      44.91412828      28.07133018      30.87846319       0.00002913       0.00408503      -0.00089132
Na      44.91412828      30.87846319      30.87846319      -0.00002923      -0.00408704       0.00089128
Cl      47.72126130      30.87846319      30.87846319       0.00002922       0.00408704      -0.00089110
Na      47.72126130      33.68559621      30.87846319      -0.00002930      -0.00408704       0.00089126
Cl      50.52839432      33.68559621      30.87846319       0.00002948       0.00408706      -0.00089126
Na      50.52839432      36.49272923      30.87846319      -0.00002938      -0.00408710       0.00089138
Cl      53.33552734      36.49272923      30.87846319       0.00003344       0.00408743      -0.00089147
Na      53.33552734      39.29986225      30.87846319      -0.00002666      -0.00408758       0.00089152
Cl      56.14266035      39.29986225      30.87846319       0.00002308       0.00408706      -0.00089116
Na      25.26419716       8.42139905      33.68559621      -0.00002533      -0.00408710       0.00089107
Cl      28.07133018       8.42139905      33.68559621       0.00002787       0.00408713      -0.00089182
Na      28.07133018      11.22853207      33.68559621      -0.00003084      -0.00408660       0.00089147
Cl      30.87846319      11.22853207      33.68559621       0.00002946       0.00408814      -0.00089143
Na      30.87846319      14.03566509      33.68559621      -0.00002924      -0.00408796       0.00089130
Cl      33.68559621      14.03566509      33.68559621       0.00002924       0.00408607      -0.00089129
Na      33.68559621      16.84279811      33.68559621      -0.00002919      -0.00408708       0.00089124
Cl      36.49272923      16.84279811      33.68559621       0.00002917       0.00408696      -0.00089124
Na      36.49272923      19.64993112      33.68559621      -0.00002920      -0.00408697       0.00089128
Cl      39.29986225      19.64993112      33.68559621       0.00002920       0.00408702      -0.00089139
Na      39.29986225      22.45706414      33.68559621      -0.00002917      -0.00408711       0.00089130
Cl      42.10699527      22.45706414      33.68559621       0.00002913       0.00408718      -0.00089130
Na      42.10699527      25.26419716      33.68559621      -0.00002933      -0.00408559       0.00089125
Cl      44.91412828      25.26419716      33.68559621       0.00002937       0.00408911      -0.00089131
Na      44.91412828      28.07133018      33.68559621      -0.00002916      -0.00408841       0.00089127
Cl      47.72126130      28.07133018      33.68559621       0.00002923       0.00408490      -0.00089120
Na      47.72126130      30.87846319      33.68559621      -0.00002932      -0.00408706       0.00089122
Cl      50.52839432      30.87846319      33.68559621       0.00002945       0.00408692      -0.00089123
Na      50.52839432      33.68559621      33.68559621      -0.00002928      -0.00408691       0.00089122
Cl      53.33552734      33.68559621      33.68559621       0.00003313       0.00408708      -0.00089119
Na      53.33552734      36.49272923      33.68559621      -0.00002616      -0.00408719       0.00089126
Cl      56.14266035      36.49272923      33.68559621       0.00002500       0.00408721      -0.00089143
Na      56.14266035      39.29986225      33.68559621      -0.00003238      -0.00408760       0.00089175
Cl      58.94979337      39.29986225      33.68559621       0.00002820       0.00408728      -0.00089121
Na      28.07133018       8.42139905      36.49272923      -0.00002948      -0.00408706       0.00089122
Cl      30.87846319       8.42139905      36.49272923       0.00003006       0.00408638      -0.00089118
Na      30.87846319      11.22853207      36.49272923      -0.00002967      -0.00408613       0.00089132
Cl      33.68559621      11.22853207      36.49272923       0.00002934       0.00408788      -0.00089122
Na      33.68559621      14.03566509      36.49272923      -0.00002920      -0.00408783       0.00089114
Cl      36.49272923      14.03566509      36.49272923       0.00002921       0.00408591      -0.00089121
Na      36.49272923      16.84279811      36.49272923      -0.00002913      -0.00408704       0.00089131
Cl      39.29986225      16.84279811      36.49272923       0.00002908       0.00408699      -0.00089135
Na      39.29986225      19.64993112      36.49272923      -0.00002919      -0.00408704       0.00089132
Cl      42.10699527      19.64993112      36.49272923       0.00002912       0.00408716      -0.00089118
Na      42.10699527      22.45706414      36.49272923      -0.00002914      -0.00408720       0.00089139
Cl      44.91412828      22.45706414      36.49272923       0.00002916       0.00408726      -0.00089133
Na      44.91412828      25.26419716      36.49272923      -0.00002938      -0.00408568       0.00089122
Cl      47.72126130      25.26419716      36.49272923       0.00002936       0.00408924      -0.00089125
Na      47.72126130      28.07133018      36.49272923      -0.00002931      -0.00408856       0.00089125
Cl      50.52839432      28.07133018      36.49272923       0.00002943       0.00408499      -0.00089115
Na      50.52839432      30.87846319      36.49272923      -0.00002929      -0.00408700       0.00089114
Cl      53.33552734      30.87846319      36.49272923       0.00003329       0.00408683      -0.00089100
Na      53.33552734      33.68559621      36.49272923      -0.00002612      -0.00408693       0.00089101
Cl      56.14266035      33.68559621      36.49272923       0.00002492       0.00408684      -0.00089118
Na      56.14266035      36.49272923      36.49272923      -0.00003205      -0.00408710       0.00089128
Cl      58.94979337      36.49272923      36.49272923       0.00002872       0.00408699      -0.00089117
Na      58.94979337      39.29986225      36.49272923      -0.00002864      -0.00408705       0.00089132
Cl      61.75692639      39.29986225      36.49272923       0.00002856       0.00408775      -0.00089190
Na      30.87846319       8.42139905      39.29986225      -0.00003071      -0.00408688       0.00089097
Cl      33.68559621       8.42139905      39.29986225       0.00002868       0.00408584      -0.00089067
Na      33.68559621      11.22853207      39.29986225      -0.00002948      -0.00408586       0.00089089
Cl      36.49272923      11.22853207      39.29986225       0.00002904       0.00408790      -0.00089123
Na      36.49272923      14.03566509      39.29986225      -0.00002913      -0.00408771       0.00089124
Cl      39.29986225      14.03566509      39.29986225       0.00002918       0.00408573      -0.00089112
Na      39.29986225      16.84279811      39.29986225      -0.00002919      -0.00408690       0.00089131
Cl      42.10699527      16.84279811      39.29986225       0.00002924       0.00408684      -0.00089118
Na      42.10699527      19.64993112      39.29986225      -0.00002906      -0.00408698       0.00089119
Cl      44.91412828      19.64993112      39.29986225       0.00003080       0.00408660      -0.00089082
Na      44.91412828      22.45706414      39.29986225      -0.00002882      -0.00408728       0.00089150
Cl      47.72126130      22.45706414      39.29986225       0.00003135       0.00408667      -0.00089081
Na      47.72126130      25.26419716      39.29986225      -0.00002896      -0.00408569       0.00089161
Cl      50.52839432      25.26419716      39.29986225       0.00003158       0.00408872      -0.00089087
Na      50.52839432      28.07133018      39.29986225      -0.00002944      -0.00408881       0.00089159
Cl      53.33552734      28.07133018      39.29986225       0.00003266       0.00408550      -0.00089137
Na      53.33552734      30.87846319      39.29986225      -0.00002659      -0.00408673       0.00089078
Cl      56.14266035      30.87846319      39.29986225       0.00002311       0.00408709      -0.00089141
Na      56.14266035      33.68559621      39.29986225      -0.00003234      -0.00408647       0.00089092
Cl      58.94979337      33.68559621      39.29986225       0.00002830       0.00408680      -0.00089106
Na      58.94979337      36.49272923      39.29986225      -0.00002876      -0.00408687       0.00089110
Cl      61.75692639      36.49272923      39.29986225       0.00002848       0.00408636      -0.00089064
Na      61.75692639      39.29986225      39.29986225      -0.00003161      -0.00408704       0.00089132
Cl      64.56405941      39.29986225      39.29986225       0.00003868       0.00408692      -0.00089115
Na      -0.00000000      11.22853207      11.22853207      -0.00003182      -0.00408613       0.00089198
Cl       2.80713302      11.22853207      11.22853207       0.00002910       0.00408804      -0.00089033
Na       2.80713302      14.03566509      11.22853207      -0.00002884      -0.00408772       0.00089158
Cl       5.61426604      14.03566509      11.22853207       0.00002968       0.00408589      -0.00089009
Na       5.61426604      16.84279811      11.22853207      -0.00002899      -0.00408684       0.00089167
Cl       8.42139905      16.84279811      11.22853207       0.00002882       0.00408669      -0.00089009
Na       8.42139905      19.64993112      11.22853207      -0.00002948      -0.00408682       0.00089172
Cl      11.22853207      19.64993112      11.22853207       0.00003051       0.00408691      -0.00089008
Na      11.22853207      22.45706414      11.22853207      -0.00002877      -0.00408671       0.00089169
Cl      14.03566509      22.45706414      11.22853207       0.00002836       0.00408700      -0.00089036
Na      14.03566509      25.26419716      11.22853207      -0.00003164      -0.00408503       0.00089142
Cl      16.84279811      25.26419716      11.22853207       0.00002916       0.00408919      -0.00089053
Na      16.84279811      28.07133018      11.22853207      -0.00003171      -0.00408792       0.00089136
Cl      19.64993112      28.07133018      11.22853207       0.00002900       0.00408548      -0.00089063
Na      19.64993112      30.87846319      11.22853207      -0.00003148      -0.00408690       0.00089180
Cl      22.45706414      30.87846319      11.22853207       0.00002838       0.00408742      -0.00089067
Na      22.45706414      33.68559621      11.22853207      -0.00002995      -0.00408655       0.00089176
Cl      25.26419716      33.68559621      11.22853207       0.00003127       0.00408664      -0.00088995
Na      25.26419716      36.49272923      11.22853207      -0.00002548      -0.00408696       0.00089198
Cl      28.07133018      36.49272923      11.22853207       0.00002769       0.00408635      -0.00088968
Na      28.07133018      39.29986225      11.22853207      -0.00002977      -0.00408680       0.00089186
Cl      30.87846319      39.29986225      11.22853207       0.00003004       0.00408706      -0.00089011
Na      30.87846319      42.10699527      11.22853207      -0.00003075      -0.00408679       0.00089189
Cl      33.68559621      42.10699527      11.22853207       0.00002870       0.00408764      -0.00089094
Na       2.80713302      11.22853207      14.03566509      -0.00002895      -0.00408640       0.00089086
Cl       5.61426604      11.22853207      14.03566509       0.00002950       0.00408824      -0.00089237
Na       5.61426604      14.03566509      14.03566509      -0.00002885      -0.00408791       0.00089036
Cl       8.42139905      14.03566509      14.03566509       0.00002854       0.00408610      -0.00089221
Na       8.42139905      16.84279811      14.03566509      -0.00002932      -0.00408703       0.00089041
Cl      11.22853207      16.84279811      14.03566509       0.00003025       0.00408709      -0.00089210
Na      11.22853207      19.64993112      14.03566509      -0.00002834      -0.00408722       0.00089039
Cl      14.03566509      19.64993112      14.03566509       0.00002813       0.00408708      -0.00089218
Na      14.03566509      22.45706414      14.03566509      -0.00003004      -0.00408704       0.00089052
Cl      16.84279811      22.45706414      14.03566509       0.00002917       0.00408720      -0.00089224
Na      16.84279811      25.26419716      14.03566509      -0.00002925      -0.00408571       0.00089043
Cl      19.64993112      25.26419716      14.03566509       0.00002915       0.00408915      -0.00089218
Na      19.64993112      28.07133018      14.03566509      -0.00002908      -0.00408885       0.00089043
Cl      22.45706414      28.07133018      14.03566509       0.00002909       0.00408529      -0.00089217
Na      22.45706414      30.87846319      14.03566509      -0.00002902      -0.00408726       0.00089067
Cl      25.26419716      30.87846319      14.03566509       0.00003112       0.00408716      -0.00089215
Na      25.26419716      33.68559621      14.03566509      -0.00002727      -0.00408694       0.00089032
Cl      28.07133018      33.68559621      14.03566509       0.00002701       0.00408692      -0.00089222
Na      28.07133018      36.49272923      14.03566509      -0.00003075      -0.00408691       0.00089023
Cl      30.87846319      36.49272923      14.03566509       0.00002923       0.00408715      -0.00089205
Na      30.87846319      39.29986225      14.03566509      -0.00002951      -0.00408705       0.00089023
Cl      33.68559621      39.29986225      14.03566509       0.00002931       0.00408727      -0.00089240
Na      33.68559621      42.10699527      14.03566509      -0.00002932      -0.00408726       0.00089082
Cl      36.49272923      42.10699527      14.03566509       0.00002906       0.00408702      -0.00089236
Na       5.61426604      11.22853207      16.84279811      -0.00002890      -0.00408652       0.00089153
Cl       8.42139905      11.22853207      16.84279811       0.00002880       0.00408842      -0.00089145
Na       8.42139905      14.03566509      16.84279811      -0.00002954      -0.00408808       0.00089123
Cl      11.22853207      14.03566509      16.84279811       0.00003025       0.00408601      -0.00089131
Na      11.22853207      16.84279811      16.84279811      -0.00002825      -0.00408694       0.00089110
Cl      14.03566509      16.84279811      16.84279811       0.00002810       0.00408698      -0.00089120
Na      14.03566509      19.64993112      16.84279811      -0.00002999      -0.00408714       0.00089129
Cl      16.84279811      19.64993112      16.84279811       0.00002918       0.00408706      -0.00089133
Na      16.84279811      22.45706414      16.84279811      -0.00002930      -0.00408711       0.00089135
Cl      19.64993112      22.45706414      16.84279811       0.00002929       0.00408722      -0.00089123
Na      19.64993112      25.26419716      16.84279811      -0.00002934      -0.00408575       0.00089128
Cl      22.45706414      25.26419716      16.84279811       0.00002926       0.00408901      -0.00089130
Na      22.45706414      28.07133018      16.84279811      -0.00002914      -0.00408853       0.00089131
Cl      25.26419716      28.07133018      16.84279811       0.00003112       0.00408512      -0.00089127
Na      25.26419716      30.87846319      16.84279811      -0.00002744      -0.00408709       0.00089131
Cl      28.07133018      30.87846319      16.84279811       0.00002691       0.00408708      -0.00089137
Na      28.07133018      33.68559621      16.84279811      -0.00003060      -0.00408712       0.00089142
Cl      30.87846319      33.68559621      16.84279811       0.00002915       0.00408691      -0.00089115
Na      30.87846319      36.49272923      16.84279811      -0.00002921      -0.00408694       0.00089120
Cl      33.68559621      36.49272923      16.84279811       0.00002926       0.00408702      -0.00089124
Na      33.68559621      39.29986225      16.84279811      -0.00002922      -0.00408706       0.00089138
Cl      36.49272923      39.29986225      16.84279811       0.00002918       0.00408698      -0.00089126
Na      36.49272923      42.10699527      16.84279811      -0.00002910      -0.00408686       0.00089130
Cl      39.29986225      42.10699527      16.84279811       0.00002919       0.00408712      -0.00089138
Na       8.42139905      11.22853207      19.64993112      -0.00002969      -0.00408635       0.00089142
Cl      11.22853207      11.22853207      19.64993112       0.00003046       0.00408821      -0.00089143
Na      11.22853207      14.03566509      19.64993112      -0.00002853      -0.00408775       0.00089132
Cl      14.03566509      14.03566509      19.64993112       0.00002826       0.00408598      -0.00089118
Na      14.03566509      16.84279811      19.64993112      -0.00003003      -0.00408707       0.00089104
Cl      16.84279811      16.84279811      19.64993112       0.00002919       0.00408697      -0.00089118
Na      16.84279811      19.64993112      19.64993112      -0.00002926      -0.00408706       0.00089123
Cl      19.64993112      19.64993112      19.64993112       0.00002933       0.00408705      -0.00089123
Na      19.64993112      22.45706414      19.64993112      -0.00002934      -0.00408714       0.00089122
Cl      22.45706414      22.45706414      19.64993112       0.00002926       0.00408714      -0.00089128
Na      22.45706414      25.26419716      19.64993112      -0.00002932      -0.00408563       0.00089120
Cl      25.26419716      25.26419716      19.64993112       0.00003113       0.00408905      -0.00089124
Na      25.26419716      28.07133018      19.64993112      -0.00002756      -0.00408853       0.00089126
Cl      28.07133018      28.07133018      19.64993112       0.00002708       0.00408506      -0.00089120
Na      28.07133018      30.87846319      19.64993112      -0.00003076      -0.00408712       0.00089136
Cl      30.87846319      30.87846319      19.64993112       0.00002907       0.00408696      -0.00089121
Na      30.87846319      33.68559621      19.64993112      -0.00002922      -0.00408703       0.00089121
Cl      33.68559621      33.68559621      19.64993112       0.00002919       0.00408702      -0.00089129
Na      33.68559621      36.49272923      19.64993112      -0.00002921      -0.00408710       0.00089119
Cl      36.49272923      36.49272923      19.64993112       0.00002916       0.00408701      -0.00089122
Na      36.49272923      39.29986225      19.64993112      -0.00002919      -0.00408701       0.00089114
Cl      39.29986225      39.29986225      19.64993112       0.00002918       0.00408691      -0.00089118
Na      39.29986225      42.10699527      19.64993112      -0.00002917      -0.00408665       0.00089116
Cl      42.10699527      42.10699527      19.64993112       0.00002922       0.00408701      -0.00089128
Na      11.22853207      11.22853207      22.45706414      -0.00002872      -0.00408655       0.00089175
Cl      14.03566509      11.22853207      22.45706414       0.00002818       0.00408795      -0.00089119
Na      14.03566509      14.03566509      22.45706414      -0.00003011      -0.00408785       0.00089105
Cl      16.84279811      14.03566509      22.45706414       0.00002916       0.00408594      -0.00089095
Na      16.84279811      16.84279811      22.45706414      -0.00002925      -0.00408701       0.00089100
Cl      19.64993112      16.84279811      22.45706414       0.00002920       0.00408694      -0.00089109
Na      19.64993112      19.64993112      22.45706414      -0.00002924      -0.00408698       0.00089118
Cl      22.45706414      19.64993112      22.45706414       0.00002934       0.00408708      -0.00089118
Na      22.45706414      22.45706414      22.45706414      -0.00002928      -0.00408707       0.00089114
Cl      25.26419716      22.45706414      22.45706414       0.00003117       0.00408726      -0.00089100
Na      25.26419716      25.26419716      22.45706414      -0.00002759      -0.00408559       0.00089117
Cl      28.07133018      25.26419716      22.45706414       0.00002719       0.00408901      -0.00089121
Na      28.07133018      28.07133018      22.45706414      -0.00003074      -0.00408852       0.00089116
Cl      30.87846319      28.07133018      22.45706414       0.00002922       0.00408493      -0.00089100
Na      30.87846319      30.87846319      22.45706414      -0.00002922      -0.00408704       0.00089123
Cl      33.68559621      30.87846319      22.45706414       0.00002913       0.00408692      -0.00089116
Na      33.68559621      33.68559621      22.45706414      -0.00002924      -0.00408706       0.00089122
Cl      36.49272923      33.68559621      22.45706414       0.00002922       0.00408701      -0.00089107
Na      36.49272923      36.49272923      22.45706414      -0.00002923      -0.00408708       0.00089120
Cl      39.29986225      36.49272923      22.45706414       0.00002914       0.00408702      -0.00089107
Na      39.29986225      39.29986225      22.45706414      -0.00002909      -0.00408694       0.00089112
Cl      42.10699527      39.29986225      22.45706414       0.00002906       0.00408689      -0.00089106
Na      42.10699527      42.10699527      22.45706414      -0.00002903      -0.00408682       0.00089106
Cl      44.91412828      42.10699527      22.45706414       0.00003090       0.00408734      -0.00089145
Na      14.03566509      11.22853207      25.26419716      -0.00003168      -0.00408659       0.00089320
Cl      16.84279811      11.22853207      25.26419716       0.00002929       0.00408780      -0.00088904
Na      16.84279811      14.03566509      25.26419716      -0.00002934      -0.00408784       0.00089233
Cl      19.64993112      14.03566509      25.26419716       0.00002923       0.00408589      -0.00088919
Na      19.64993112      16.84279811      25.26419716      -0.00002929      -0.00408698       0.00089258
Cl      22.45706414      16.84279811      25.26419716       0.00002942       0.00408692      -0.00088922
Na      22.45706414      19.64993112      25.26419716      -0.00002937      -0.00408701       0.00089269
Cl      25.26419716      19.64993112      25.26419716       0.00003127       0.00408717      -0.00088920
Na      25.26419716      22.45706414      25.26419716      -0.00002750      -0.00408715       0.00089261
Cl      28.07133018      22.45706414      25.26419716       0.00002709       0.00408725      -0.00088937
Na      28.07133018      25.26419716      25.26419716      -0.00003084      -0.00408569       0.00089268
Cl      30.87846319      25.26419716      25.26419716       0.00002931       0.00408901      -0.00088930
Na      30.87846319      28.07133018      25.26419716      -0.00002927      -0.00408855       0.00089259
Cl      33.68559621      28.07133018      25.26419716       0.00002932       0.00408502      -0.00088925
Na      33.68559621      30.87846319      25.26419716      -0.00002923      -0.00408702       0.00089267
Cl      36.49272923      30.87846319      25.26419716       0.00002929       0.00408696      -0.00088945
Na      36.49272923      33.68559621      25.26419716      -0.00002930      -0.00408697       0.00089273
Cl      39.29986225      33.68559621      25.26419716       0.00002933       0.00408703      -0.00088936
Na      39.29986225      36.49272923      25.26419716      -0.00002932      -0.00408702       0.00089279
Cl      42.10699527      36.49272923      25.26419716       0.00002925       0.00408693      -0.00088937
Na      42.10699527      39.29986225      25.26419716      -0.00002924      -0.00408686       0.00089268
Cl      44.91412828      39.29986225      25.26419716       0.00002931       0.00408685      -0.00088914
Na      44.91412828      42.10699527      25.26419716      -0.00002884      -0.00408644       0.00089228
Cl      47.72126130      42.10699527      25.26419716       0.00003150       0.00408715      -0.00088960
Na      16.84279811      11.22853207      28.07133018      -0.00003176      -0.00408679       0.00089026
Cl      19.64993112      11.22853207      28.07133018       0.00002901       0.00408788      -0.00089275
Na      19.64993112      14.03566509      28.07133018      -0.00002919      -0.00408769       0.00088954
Cl      22.45706414      14.03566509      28.07133018       0.00002907       0.00408590      -0.00089295
Na      22.45706414      16.84279811      28.07133018      -0.00002920      -0.00408684       0.00088967
Cl      25.26419716      16.84279811      28.07133018       0.00003105       0.00408713      -0.00089313
Na      25.26419716      19.64993112      28.07133018      -0.00002758      -0.00408712       0.00088985
Cl      28.07133018      19.64993112      28.07133018       0.00002702       0.00408709      -0.00089323
Na      28.07133018      22.45706414      28.07133018      -0.00003069      -0.00408712       0.00088978
Cl      30.87846319      22.45706414      28.07133018       0.00002914       0.00408706      -0.00089317
Na      30.87846319      25.26419716      28.07133018      -0.00002931      -0.00408551       0.00088963
Cl      33.68559621      25.26419716      28.07133018       0.00002921       0.00408891      -0.00089308
Na      33.68559621      28.07133018      28.07133018      -0.00002906      -0.00408839       0.00088966
Cl      36.49272923      28.07133018      28.07133018       0.00002913       0.00408494      -0.00089318
Na      36.49272923      30.87846319      28.07133018      -0.00002922      -0.00408697       0.00088978
Cl      39.29986225      30.87846319      28.07133018       0.00002918       0.00408703      -0.00089315
Na      39.29986225      33.68559621      28.07133018      -0.00002922      -0.00408694       0.00088987
Cl      42.10699527      33.68559621      28.07133018       0.00002917       0.00408708      -0.00089324
Na      42.10699527      36.49272923      28.07133018      -0.00002920      -0.00408702       0.00088986
Cl      44.91412828      36.49272923      28.07133018       0.00002917       0.00408707      -0.00089319
Na      44.91412828      39.29986225      28.07133018      -0.00002920      -0.00408701       0.00088977
Cl      47.72126130      39.29986225      28.07133018       0.00002925       0.00408692      -0.00089312
Na      47.72126130      42.10699527      28.07133018      -0.00002898      -0.00408641       0.00088957
Cl      50.52839432      42.10699527      28.07133018       0.00003168       0.00408723      -0.00089372
Na      19.64993112      11.22853207      30.87846319      -0.00003167      -0.00408621       0.00089147
Cl      22.45706414      11.22853207      30.87846319       0.00002836       0.00408770      -0.00089096
Na      22.45706414      14.03566509      30.87846319      -0.00002895      -0.00408766       0.00089097
Cl      25.26419716      14.03566509      30.87846319       0.00003096       0.00408599      -0.00089134
Na      25.26419716      16.84279811      30.87846319      -0.00002743      -0.00408695       0.00089120
Cl      28.07133018      16.84279811      30.87846319       0.00002698       0.00408704      -0.00089119
Na      28.07133018      19.64993112      30.87846319      -0.00003067      -0.00408716       0.00089131
Cl      30.87846319      19.64993112      30.87846319       0.00002917       0.00408702      -0.00089114
Na      30.87846319      22.45706414      30.87846319      -0.00002917      -0.00408705       0.00089123
Cl      33.68559621      22.45706414      30.87846319       0.00002911       0.00408717      -0.00089126
Na      33.68559621      25.26419716      30.87846319      -0.00002926      -0.00408555       0.00089120
Cl      36.49272923      25.26419716      30.87846319       0.00002935       0.00408899      -0.00089115
Na      36.49272923      28.07133018      30.87846319      -0.00002919      -0.00408841       0.00089123
Cl      39.29986225      28.07133018      30.87846319       0.00002914       0.00408501      -0.00089130
Na      39.29986225      30.87846319      30.87846319      -0.00002922      -0.00408701       0.00089129
Cl      42.10699527      30.87846319      30.87846319       0.00002920       0.00408700      -0.00089109
Na      42.10699527      33.68559621      30.87846319      -0.00002930      -0.00408698       0.00089122
Cl      44.91412828      33.68559621      30.87846319       0.00002933       0.00408699      -0.00089122
Na      44.91412828      36.49272923      30.87846319      -0.00002927      -0.00408704       0.00089126
Cl      47.72126130      36.49272923      30.87846319       0.00002940       0.00408709      -0.00089128
Na      47.72126130      39.29986225      30.87846319      -0.00002932      -0.00408693       0.00089129
Cl      50.52839432      39.29986225      30.87846319       0.00002963       0.00408693      -0.00089125
Na      50.52839432      42.10699527      30.87846319      -0.00002955      -0.00408648       0.00089106
Cl      53.33552734      42.10699527      30.87846319       0.00003279       0.00408664      -0.00089083
Na      22.45706414      11.22853207      33.68559621      -0.00003009      -0.00408649       0.00089153
Cl      25.26419716      11.22853207      33.68559621       0.00003124       0.00408855      -0.00089161
Na      25.26419716      14.03566509      33.68559621      -0.00002712      -0.00408804       0.00089140
Cl      28.07133018      14.03566509      33.68559621       0.00002699       0.00408611      -0.00089144
Na      28.07133018      16.84279811      33.68559621      -0.00003063      -0.00408710       0.00089126
Cl      30.87846319      16.84279811      33.68559621       0.00002909       0.00408705      -0.00089128
Na      30.87846319      19.64993112      33.68559621      -0.00002920      -0.00408709       0.00089129
Cl      33.68559621      19.64993112      33.68559621       0.00002918       0.00408705      -0.00089133
Na      33.68559621      22.45706414      33.68559621      -0.00002918      -0.00408705       0.00089127
Cl      36.49272923      22.45706414      33.68559621       0.00002913       0.00408713      -0.00089127
Na      36.49272923      25.26419716      33.68559621      -0.00002938      -0.00408552       0.00089126
Cl      39.29986225      25.26419716      33.68559621       0.00002938       0.00408903      -0.00089129
Na      39.29986225      28.07133018      33.68559621      -0.00002918      -0.00408843       0.00089124
Cl      42.10699527      28.07133018      33.68559621       0.00002919       0.00408495      -0.00089113
Na      42.10699527      30.87846319      33.68559621      -0.00002920      -0.00408700       0.00089115
Cl      44.91412828      30.87846319      33.68559621       0.00002919       0.00408697      -0.00089124
Na      44.91412828      33.68559621      33.68559621      -0.00002923      -0.00408701       0.00089121
Cl      47.72126130      33.68559621      33.68559621       0.00002929       0.00408701      -0.00089137
Na      47.72126130      36.49272923      33.68559621      -0.00002926      -0.00408705       0.00089130
Cl      50.52839432      36.49272923      33.68559621       0.00002942       0.00408715      -0.00089136
Na      50.52839432      39.29986225      33.68559621      -0.00002938      -0.00408715       0.00089133
Cl      53.33552734      39.29986225      33.68559621       0.00003343       0.00408727      -0.00089156
Na      53.33552734      42.10699527      33.68559621      -0.00002669      -0.00408711       0.00089166
Cl      56.14266035      42.10699527      33.68559621       0.00002323       0.00408691      -0.00089129
Na      25.26419716      11.22853207      36.49272923      -0.00002521      -0.00408624       0.00089118
Cl      28.07133018      11.22853207      36.49272923       0.00002768       0.00408866      -0.00089173
Na      28.07133018      14.03566509      36.49272923      -0.00003075      -0.00408818       0.00089147
Cl      30.87846319      14.03566509      36.49272923       0.00002937       0.00408609      -0.00089129
Na      30.87846319      16.84279811      36.49272923      -0.00002923      -0.00408713       0.00089119
Cl      33.68559621      16.84279811      36.49272923       0.00002923       0.00408698      -0.00089122
Na      33.68559621      19.64993112      36.49272923      -0.00002925      -0.00408694       0.00089133
Cl      36.49272923      19.64993112      36.49272923       0.00002920       0.00408704      -0.00089137
Na      36.49272923      22.45706414      36.49272923      -0.00002914      -0.00408712       0.00089129
Cl      39.29986225      22.45706414      36.49272923       0.00002919       0.00408717      -0.00089128
Na      39.29986225      25.26419716      36.49272923      -0.00002936      -0.00408556       0.00089120
Cl      42.10699527      25.26419716      36.49272923       0.00002931       0.00408912      -0.00089131
Na      42.10699527      28.07133018      36.49272923      -0.00002914      -0.00408845       0.00089121
Cl      44.91412828      28.07133018      36.49272923       0.00002915       0.00408498      -0.00089121
Na      44.91412828      30.87846319      36.49272923      -0.00002920      -0.00408703       0.00089124
Cl      47.72126130      30.87846319      36.49272923       0.00002923       0.00408700      -0.00089128
Na      47.72126130      33.68559621      36.49272923      -0.00002924      -0.00408703       0.00089137
Cl      50.52839432      33.68559621      36.49272923       0.00002941       0.00408698      -0.00089124
Na      50.52839432      36.49272923      36.49272923      -0.00002928      -0.00408707       0.00089130
Cl      53.33552734      36.49272923      36.49272923       0.00003318       0.00408715      -0.00089116
Na      53.33552734      39.29986225      36.49272923      -0.00002614      -0.00408712       0.00089138
Cl      56.14266035      39.29986225      36.49272923       0.00002500       0.00408714      -0.00089141
Na      56.14266035      42.10699527      36.49272923      -0.00003237      -0.00408743       0.00089186
Cl      58.94979337      42.10699527      36.49272923       0.00002823       0.00408712      -0.00089134
Na      28.07133018      11.22853207      39.29986225      -0.00002971      -0.00408645       0.00089150
Cl      30.87846319      11.22853207      39.29986225       0.00002992       0.00408812      -0.00089126
Na      30.87846319      14.03566509      39.29986225      -0.00002950      -0.00408799       0.00089133
Cl      33.68559621      14.03566509      39.29986225       0.00002929       0.00408583      -0.00089111
Na      33.68559621      16.84279811      39.29986225      -0.00002915      -0.00408699       0.00089123
Cl      36.49272923      16.84279811      39.29986225       0.00002913       0.00408691      -0.00089128
Na      36.49272923      19.64993112      39.29986225      -0.00002918      -0.00408705       0.00089131
Cl      39.29986225      19.64993112      39.29986225       0.00002920       0.00408709      -0.00089121
Na      39.29986225      22.45706414      39.29986225      -0.00002909      -0.00408722       0.00089131
Cl      42.10699527      22.45706414      39.29986225       0.00002915       0.00408725      -0.00089133
Na      42.10699527      25.26419716      39.29986225      -0.00002935      -0.00408567       0.00089130
Cl      44.91412828      25.26419716      39.29986225       0.00002920       0.00408923      -0.00089140
Na      44.91412828      28.07133018      39.29986225      -0.00002915      -0.00408861       0.00089136
Cl      47.72126130      28.07133018      39.29986225       0.00002932       0.00408498      -0.00089137
Na      47.72126130      30.87846319      39.29986225      -0.00002933      -0.00408705       0.00089145
Cl      50.52839432      30.87846319      39.29986225       0.00002955       0.00408703      -0.00089127
Na      50.52839432      33.68559621      39.29986225      -0.00002940      -0.00408702       0.00089124
Cl      53.33552734      33.68559621      39.29986225       0.00003334       0.00408686      -0.00089106
Na      53.33552734      36.49272923      39.29986225      -0.00002619      -0.00408695       0.00089105
Cl      56.14266035      36.49272923      39.29986225       0.00002498       0.00408683      -0.00089124
Na      56.14266035      39.29986225      39.29986225      -0.00003199      -0.00408706       0.00089131
Cl      58.94979337      39.29986225      39.29986225       0.00002868       0.00408692      -0.00089120
Na      58.94979337      42.10699527      39.29986225      -0.00002858      -0.00408690       0.00089137
Cl      61.75692639      42.10699527      39.29986225       0.00002854       0.00408772      -0.00089195
Na      30.87846319      11.22853207      42.10699527      -0.00003086      -0.00408611       0.00089140
Cl      33.68559621      11.22853207      42.10699527       0.00002861       0.00408733      -0.00089059
Na      33.68559621      14.03566509      42.10699527      -0.00002940      -0.00408749       0.00089105
Cl      36.49272923      14.03566509      42.10699527       0.00002903       0.00408571      -0.00089115
Na      36.49272923      16.84279811      42.10699527      -0.00002910      -0.00408687       0.00089129
Cl      39.29986225      16.84279811      42.10699527       0.00002924       0.00408690      -0.00089118
Na      39.29986225      19.64993112      42.10699527      -0.00002913      -0.00408703       0.00089137
Cl      42.10699527      19.64993112      42.10699527       0.00002912       0.00408680      -0.00089113
Na      42.10699527      22.45706414      42.10699527      -0.00002909      -0.00408694       0.00089133
Cl      44.91412828      22.45706414      42.10699527       0.00003077       0.00408663      -0.00089097
Na      44.91412828      25.26419716      42.10699527      -0.00002875      -0.00408581       0.00089169
Cl      47.72126130      25.26419716      42.10699527       0.00003135       0.00408852      -0.00089091
Na      47.72126130      28.07133018      42.10699527      -0.00002888      -0.00408877       0.00089184
Cl      50.52839432      28.07133018      42.10699527       0.00003162       0.00408475      -0.00089087
Na      50.52839432      30.87846319      42.10699527      -0.00002951      -0.00408734       0.00089169
Cl      53.33552734      30.87846319      42.10699527       0.00003275       0.00408729      -0.00089159
Na      53.33552734      33.68559621      42.10699527      -0.00002670      -0.00408666       0.00089108
Cl      56.14266035      33.68559621      42.10699527       0.00002320       0.00408703      -0.00089152
Na      56.14266035      36.49272923      42.10699527      -0.00003237      -0.00408657       0.00089116
Cl      58.94979337      36.49272923      42.10699527       0.00002838       0.00408680      -0.00089119
Na      58.94979337      39.29986225      42.10699527      -0.00002867      -0.00408689       0.00089123
Cl      61.75692639      39.29986225      42.10699527       0.00002845       0.00408625      -0.00089061
Na      61.75692639      42.10699527      42.10699527      -0.00003151      -0.00408686       0.00089133
Cl      64.56405941      42.10699527      42.10699527       0.00003884       0.00408671      -0.00089125
Na      -0.00000000      14.03566509      14.03566509      -0.00003191      -0.00408888       0.00088914
Cl       2.80713302      14.03566509      14.03566509       0.00002884       0.00408633      -0.00089197
Na       2.80713302      16.84279811      14.03566509      -0.00002893      -0.00408671       0.00088878
Cl       5.61426604      16.84279811      14.03566509       0.00002912       0.00408706      -0.00089191
Na       5.61426604      19.64993112      14.03566509      -0.00002898      -0.00408660       0.00088892
Cl       8.42139905      19.64993112      14.03566509       0.00002851       0.00408701      -0.00089189
Na       8.42139905      22.45706414      14.03566509      -0.00002975      -0.00408668       0.00088904
Cl      11.22853207      22.45706414      14.03566509       0.00003026       0.00408721      -0.00089208
Na      11.22853207      25.26419716      14.03566509      -0.00002878      -0.00408510       0.00088882
Cl      14.03566509      25.26419716      14.03566509       0.00002814       0.00408916      -0.00089208
Na      14.03566509      28.07133018      14.03566509      -0.00003174      -0.00408804       0.00088855
Cl      16.84279811      28.07133018      14.03566509       0.00002897       0.00408540      -0.00089238
Na      16.84279811      30.87846319      14.03566509      -0.00003176      -0.00408649       0.00088865
Cl      19.64993112      30.87846319      14.03566509       0.00002903       0.00408762      -0.00089241
Na      19.64993112      33.68559621      14.03566509      -0.00003157      -0.00408662       0.00088902
Cl      22.45706414      33.68559621      14.03566509       0.00002837       0.00408742      -0.00089236
Na      22.45706414      36.49272923      14.03566509      -0.00003004      -0.00408660       0.00088884
Cl      25.26419716      36.49272923      14.03566509       0.00003110       0.00408686      -0.00089163
Na      25.26419716      39.29986225      14.03566509      -0.00002568      -0.00408688       0.00088898
Cl      28.07133018      39.29986225      14.03566509       0.00002746       0.00408681      -0.00089174
Na      28.07133018      42.10699527      14.03566509      -0.00002977      -0.00408663       0.00088896
Cl      30.87846319      42.10699527      14.03566509       0.00002958       0.00408712      -0.00089212
Na      30.87846319      44.91412828      14.03566509      -0.00003051      -0.00408647       0.00088879
Cl      33.68559621      44.91412828      14.03566509       0.00002890       0.00408930      -0.00089314
Na       2.80713302      14.03566509      16.84279811      -0.00002884      -0.00408955       0.00089161
Cl       5.61426604      14.03566509      16.84279811       0.00002933       0.00408629      -0.00089125
Na       5.61426604      16.84279811      16.84279811      -0.00002855      -0.00408734       0.00089103
Cl       8.42139905      16.84279811      16.84279811       0.00002845       0.00408699      -0.00089118
Na       8.42139905      19.64993112      16.84279811      -0.00002948      -0.00408707       0.00089103
Cl      11.22853207      19.64993112      16.84279811       0.00003017       0.00408717      -0.00089113
Na      11.22853207      22.45706414      16.84279811      -0.00002827      -0.00408722       0.00089123
Cl      14.03566509      22.45706414      16.84279811       0.00002808       0.00408713      -0.00089123
Na      14.03566509      25.26419716      16.84279811      -0.00003000      -0.00408580       0.00089126
Cl      16.84279811      25.26419716      16.84279811       0.00002928       0.00408912      -0.00089122
Na      16.84279811      28.07133018      16.84279811      -0.00002907      -0.00408867       0.00089129
Cl      19.64993112      28.07133018      16.84279811       0.00002914       0.00408527      -0.00089123
Na      19.64993112      30.87846319      16.84279811      -0.00002904      -0.00408737       0.00089149
Cl      22.45706414      30.87846319      16.84279811       0.00002905       0.00408718      -0.00089138
Na      22.45706414      33.68559621      16.84279811      -0.00002893      -0.00408734       0.00089150
Cl      25.26419716      33.68559621      16.84279811       0.00003091       0.00408711      -0.00089124
Na      25.26419716      36.49272923      16.84279811      -0.00002709      -0.00408707       0.00089099
Cl      28.07133018      36.49272923      16.84279811       0.00002692       0.00408697      -0.00089122
Na      28.07133018      39.29986225      16.84279811      -0.00003059      -0.00408719       0.00089103
Cl      30.87846319      39.29986225      16.84279811       0.00002923       0.00408699      -0.00089103
Na      30.87846319      42.10699527      16.84279811      -0.00002931      -0.00408701       0.00089120
Cl      33.68559621      42.10699527      16.84279811       0.00002916       0.00408702      -0.00089130
Na      33.68559621      44.91412828      16.84279811      -0.00002883      -0.00408716       0.00089127
Cl      36.49272923      44.91412828      16.84279811       0.00002942       0.00408875      -0.00089173
Na       5.61426604      14.03566509      19.64993112      -0.00002914      -0.00408931       0.00089161
Cl       8.42139905      14.03566509      19.64993112       0.00002876       0.00408626      -0.00089124
Na       8.42139905      16.84279811      19.64993112      -0.00002952      -0.00408718       0.00089110
Cl      11.22853207      16.84279811      19.64993112       0.00003027       0.00408700      -0.00089108
Na      11.22853207      19.64993112      19.64993112      -0.00002823      -0.00408698       0.00089112
Cl      14.03566509      19.64993112      19.64993112       0.00002800       0.00408702      -0.00089113
Na      14.03566509      22.45706414      19.64993112      -0.00002992      -0.00408717       0.00089111
Cl      16.84279811      22.45706414      19.64993112       0.00002929       0.00408729      -0.00089129
Na      16.84279811      25.26419716      19.64993112      -0.00002938      -0.00408579       0.00089119
Cl      19.64993112      25.26419716      19.64993112       0.00002942       0.00408914      -0.00089124
Na      19.64993112      28.07133018      19.64993112      -0.00002914      -0.00408860       0.00089137
Cl      22.45706414      28.07133018      19.64993112       0.00002914       0.00408511      -0.00089124
Na      22.45706414      30.87846319      19.64993112      -0.00002906      -0.00408718       0.00089135
Cl      25.26419716      30.87846319      19.64993112       0.00003124       0.00408720      -0.00089119
Na      25.26419716      33.68559621      19.64993112      -0.00002727      -0.00408719       0.00089117
Cl      28.07133018      33.68559621      19.64993112       0.00002693       0.00408708      -0.00089136
Na      28.07133018      36.49272923      19.64993112      -0.00003049      -0.00408717       0.00089130
Cl      30.87846319      36.49272923      19.64993112       0.00002908       0.00408707      -0.00089120
Na      30.87846319      39.29986225      19.64993112      -0.00002917      -0.00408713       0.00089120
Cl      33.68559621      39.29986225      19.64993112       0.00002924       0.00408703      -0.00089123
Na      33.68559621      42.10699527      19.64993112      -0.00002909      -0.00408702       0.00089119
Cl      36.49272923      42.10699527      19.64993112       0.00002913       0.00408685      -0.00089118
Na      36.49272923      44.91412828      19.64993112      -0.00002877      -0.00408671       0.00089097
Cl      39.29986225      44.91412828      19.64993112       0.00002958       0.00408854      -0.00089165
Na       8.42139905      14.03566509      22.45706414      -0.00002968      -0.00408912       0.00089161
Cl      11.22853207      14.03566509      22.45706414       0.00003044       0.00408623      -0.00089125
Na      11.22853207      16.84279811      22.45706414      -0.00002840      -0.00408706       0.00089111
Cl      14.03566509      16.84279811      22.45706414       0.00002809       0.00408695      -0.00089098
Na      14.03566509      19.64993112      22.45706414      -0.00002996      -0.00408700       0.00089092
Cl      16.84279811      19.64993112      22.45706414       0.00002913       0.00408704      -0.00089108
Na      16.84279811      22.45706414      22.45706414      -0.00002927      -0.00408711       0.00089117
Cl      19.64993112      22.45706414      22.45706414       0.00002934       0.00408711      -0.00089119
Na      19.64993112      25.26419716      22.45706414      -0.00002943      -0.00408561       0.00089110
Cl      22.45706414      25.26419716      22.45706414       0.00002934       0.00408897      -0.00089115
Na      22.45706414      28.07133018      22.45706414      -0.00002917      -0.00408847       0.00089124
Cl      25.26419716      28.07133018      22.45706414       0.00003112       0.00408511      -0.00089113
Na      25.26419716      30.87846319      22.45706414      -0.00002743      -0.00408700       0.00089094
Cl      28.07133018      30.87846319      22.45706414       0.00002697       0.00408706      -0.00089111
Na      28.07133018      33.68559621      22.45706414      -0.00003066      -0.00408723       0.00089113
Cl      30.87846319      33.68559621      22.45706414       0.00002916       0.00408701      -0.00089120
Na      30.87846319      36.49272923      22.45706414      -0.00002918      -0.00408699       0.00089113
Cl      33.68559621      36.49272923      22.45706414       0.00002916       0.00408706      -0.00089108
Na      33.68559621      39.29986225      22.45706414      -0.00002920      -0.00408701       0.00089120
Cl      36.49272923      39.29986225      22.45706414       0.00002918       0.00408701      -0.00089102
Na      36.49272923      42.10699527      22.45706414      -0.00002914      -0.00408691       0.00089114
Cl      39.29986225      42.10699527      22.45706414       0.00002909       0.00408677      -0.00089110
Na      39.29986225      44.91412828      22.45706414      -0.00002880      -0.00408655       0.00089077
Cl      42.10699527      44.91412828      22.45706414       0.00002952       0.00408844      -0.00089160
Na      11.22853207      14.03566509      25.26419716      -0.00002887      -0.00408944       0.00089330
Cl      14.03566509      14.03566509      25.26419716       0.00002826       0.00408617      -0.00088923
Na      14.03566509      16.84279811      25.26419716      -0.00003012      -0.00408715       0.00089243
Cl      16.84279811      16.84279811      25.26419716       0.00002935       0.00408691      -0.00088908
Na      16.84279811      19.64993112      25.26419716      -0.00002924      -0.00408682       0.00089254
Cl      19.64993112      19.64993112      25.26419716       0.00002933       0.00408697      -0.00088928
Na      19.64993112      22.45706414      25.26419716      -0.00002938      -0.00408700       0.00089272
Cl      22.45706414      22.45706414      25.26419716       0.00002945       0.00408708      -0.00088926
Na      22.45706414      25.26419716      25.26419716      -0.00002933      -0.00408554       0.00089277
Cl      25.26419716      25.26419716      25.26419716       0.00003117       0.00408898      -0.00088940
Na      25.26419716      28.07133018      25.26419716      -0.00002758      -0.00408854       0.00089267
Cl      28.07133018      28.07133018      25.26419716       0.00002727       0.00408510      -0.00088927
Na      28.07133018      30.87846319      25.26419716      -0.00003076      -0.00408716       0.00089277
Cl      30.87846319      30.87846319      25.26419716       0.00002924       0.00408696      -0.00088932
Na      30.87846319      33.68559621      25.26419716      -0.00002921      -0.00408702       0.00089281
Cl      33.68559621      33.68559621      25.26419716       0.00002927       0.00408700      -0.00088938
Na      33.68559621      36.49272923      25.26419716      -0.00002929      -0.00408701       0.00089276
Cl      36.49272923      36.49272923      25.26419716       0.00002933       0.00408702      -0.00088940
Na      36.49272923      39.29986225      25.26419716      -0.00002931      -0.00408701       0.00089279
Cl      39.29986225      39.29986225      25.26419716       0.00002924       0.00408690      -0.00088931
Na      39.29986225      42.10699527      25.26419716      -0.00002914      -0.00408694       0.00089269
Cl      42.10699527      42.10699527      25.26419716       0.00002909       0.00408667      -0.00088915
Na      42.10699527      44.91412828      25.26419716      -0.00002866      -0.00408656       0.00089232
Cl      44.91412828      44.91412828      25.26419716       0.00003113       0.00408872      -0.00089023
Na      14.03566509      14.03566509      28.07133018      -0.00003187      -0.00408973       0.00089038
Cl      16.84279811      14.03566509      28.07133018       0.00002911       0.00408595      -0.00089280
Na      16.84279811      16.84279811      28.07133018      -0.00002909      -0.00408692       0.00088954
Cl      19.64993112      16.84279811      28.07133018       0.00002915       0.00408690      -0.00089302
Na      19.64993112      19.64993112      28.07133018      -0.00002920      -0.00408685       0.00088973
Cl      22.45706414      19.64993112      28.07133018       0.00002932       0.00408699      -0.00089315
Na      22.45706414      22.45706414      28.07133018      -0.00002938      -0.00408711       0.00088975
Cl      25.26419716      22.45706414      28.07133018       0.00003117       0.00408716      -0.00089319
Na      25.26419716      25.26419716      28.07133018      -0.00002752      -0.00408547       0.00088982
Cl      28.07133018      25.26419716      28.07133018       0.00002715       0.00408895      -0.00089312
Na      28.07133018      28.07133018      28.07133018      -0.00003078      -0.00408860       0.00088967
Cl      30.87846319      28.07133018      28.07133018       0.00002913       0.00408490      -0.00089307
Na      30.87846319      30.87846319      28.07133018      -0.00002922      -0.00408688       0.00088968
Cl      33.68559621      30.87846319      28.07133018       0.00002915       0.00408704      -0.00089310
Na      33.68559621      33.68559621      28.07133018      -0.00002913      -0.00408700       0.00088985
Cl      36.49272923      33.68559621      28.07133018       0.00002919       0.00408707      -0.00089321
Na      36.49272923      36.49272923      28.07133018      -0.00002923      -0.00408701       0.00088989
Cl      39.29986225      36.49272923      28.07133018       0.00002919       0.00408706      -0.00089324
Na      39.29986225      39.29986225      28.07133018      -0.00002922      -0.00408697       0.00088979
Cl      42.10699527      39.29986225      28.07133018       0.00002920       0.00408705      -0.00089322
Na      42.10699527      42.10699527      28.07133018      -0.00002914      -0.00408687       0.00088970
Cl      44.91412828      42.10699527      28.07133018       0.00002906       0.00408678      -0.00089303
Na      44.91412828      44.91412828      28.07133018      -0.00002835      -0.00408626       0.00088927
Cl      47.72126130      44.91412828      28.07133018       0.00003164       0.00408883      -0.00089400
Na      16.84279811      14.03566509      30.87846319      -0.00003178      -0.00408956       0.00089206
Cl      19.64993112      14.03566509      30.87846319       0.00002896       0.00408567      -0.00089097
Na      19.64993112      16.84279811      30.87846319      -0.00002911      -0.00408680       0.00089093
Cl      22.45706414      16.84279811      30.87846319       0.00002904       0.00408681      -0.00089122
Na      22.45706414      19.64993112      30.87846319      -0.00002913      -0.00408691       0.00089110
Cl      25.26419716      19.64993112      30.87846319       0.00003112       0.00408710      -0.00089122
Na      25.26419716      22.45706414      30.87846319      -0.00002754      -0.00408699       0.00089127
Cl      28.07133018      22.45706414      30.87846319       0.00002707       0.00408710      -0.00089141
Na      28.07133018      25.26419716      30.87846319      -0.00003085      -0.00408565       0.00089144
Cl      30.87846319      25.26419716      30.87846319       0.00002931       0.00408897      -0.00089122
Na      30.87846319      28.07133018      30.87846319      -0.00002919      -0.00408834       0.00089131
Cl      33.68559621      28.07133018      30.87846319       0.00002913       0.00408502      -0.00089129
Na      33.68559621      30.87846319      30.87846319      -0.00002911      -0.00408703       0.00089129
Cl      36.49272923      30.87846319      30.87846319       0.00002921       0.00408699      -0.00089108
Na      36.49272923      33.68559621      30.87846319      -0.00002933      -0.00408699       0.00089120
Cl      39.29986225      33.68559621      30.87846319       0.00002933       0.00408696      -0.00089122
Na      39.29986225      36.49272923      30.87846319      -0.00002929      -0.00408702       0.00089124
Cl      42.10699527      36.49272923      30.87846319       0.00002925       0.00408699      -0.00089124
Na      42.10699527      39.29986225      30.87846319      -0.00002926      -0.00408706       0.00089127
Cl      44.91412828      39.29986225      30.87846319       0.00002926       0.00408696      -0.00089124
Na      44.91412828      42.10699527      30.87846319      -0.00002905      -0.00408676       0.00089119
Cl      47.72126130      42.10699527      30.87846319       0.00002928       0.00408667      -0.00089114
Na      47.72126130      44.91412828      30.87846319      -0.00002887      -0.00408618       0.00089069
Cl      50.52839432      44.91412828      30.87846319       0.00003219       0.00408872      -0.00089195
Na      19.64993112      14.03566509      33.68559621      -0.00003167      -0.00408929       0.00089157
Cl      22.45706414      14.03566509      33.68559621       0.00002827       0.00408579      -0.00089080
Na      22.45706414      16.84279811      33.68559621      -0.00002881      -0.00408699       0.00089099
Cl      25.26419716      16.84279811      33.68559621       0.00003084       0.00408714      -0.00089111
Na      25.26419716      19.64993112      33.68559621      -0.00002725      -0.00408703       0.00089099
Cl      28.07133018      19.64993112      33.68559621       0.00002689       0.00408709      -0.00089127
Na      28.07133018      22.45706414      33.68559621      -0.00003072      -0.00408721       0.00089143
Cl      30.87846319      22.45706414      33.68559621       0.00002914       0.00408717      -0.00089128
Na      30.87846319      25.26419716      33.68559621      -0.00002937      -0.00408563       0.00089121
Cl      33.68559621      25.26419716      33.68559621       0.00002936       0.00408902      -0.00089135
Na      33.68559621      28.07133018      33.68559621      -0.00002917      -0.00408843       0.00089126
Cl      36.49272923      28.07133018      33.68559621       0.00002919       0.00408492      -0.00089113
Na      36.49272923      30.87846319      33.68559621      -0.00002921      -0.00408704       0.00089117
Cl      39.29986225      30.87846319      33.68559621       0.00002917       0.00408697      -0.00089121
Na      39.29986225      33.68559621      33.68559621      -0.00002924      -0.00408702       0.00089121
Cl      42.10699527      33.68559621      33.68559621       0.00002925       0.00408701      -0.00089129
Na      42.10699527      36.49272923      33.68559621      -0.00002923      -0.00408701       0.00089127
Cl      44.91412828      36.49272923      33.68559621       0.00002923       0.00408702      -0.00089134
Na      44.91412828      39.29986225      33.68559621      -0.00002924      -0.00408701       0.00089129
Cl      47.72126130      39.29986225      33.68559621       0.00002928       0.00408699      -0.00089134
Na      47.72126130      42.10699527      33.68559621      -0.00002929      -0.00408682       0.00089109
Cl      50.52839432      42.10699527      33.68559621       0.00002961       0.00408687      -0.00089129
Na      50.52839432      44.91412828      33.68559621      -0.00002915      -0.00408628       0.00089061
Cl      53.33552734      44.91412828      33.68559621       0.00003293       0.00408807      -0.00089127
Na      22.45706414      14.03566509      36.49272923      -0.00003002      -0.00408930       0.00089157
Cl      25.26419716      14.03566509      36.49272923       0.00003098       0.00408661      -0.00089146
Na      25.26419716      16.84279811      36.49272923      -0.00002700      -0.00408718       0.00089121
Cl      28.07133018      16.84279811      36.49272923       0.00002686       0.00408706      -0.00089122
Na      28.07133018      19.64993112      36.49272923      -0.00003053      -0.00408721       0.00089124
Cl      30.87846319      19.64993112      36.49272923       0.00002912       0.00408707      -0.00089125
Na      30.87846319      22.45706414      36.49272923      -0.00002922      -0.00408708       0.00089121
Cl      33.68559621      22.45706414      36.49272923       0.00002913       0.00408708      -0.00089128
Na      33.68559621      25.26419716      36.49272923      -0.00002934      -0.00408556       0.00089124
Cl      36.49272923      25.26419716      36.49272923       0.00002941       0.00408907      -0.00089128
Na      36.49272923      28.07133018      36.49272923      -0.00002919      -0.00408842       0.00089119
Cl      39.29986225      28.07133018      36.49272923       0.00002915       0.00408491      -0.00089118
Na      39.29986225      30.87846319      36.49272923      -0.00002918      -0.00408703       0.00089127
Cl      42.10699527      30.87846319      36.49272923       0.00002919       0.00408703      -0.00089123
Na      42.10699527      33.68559621      36.49272923      -0.00002919      -0.00408701       0.00089130
Cl      44.91412828      33.68559621      36.49272923       0.00002919       0.00408700      -0.00089133
Na      44.91412828      36.49272923      36.49272923      -0.00002920      -0.00408706       0.00089137
Cl      47.72126130      36.49272923      36.49272923       0.00002925       0.00408705      -0.00089132
Na      47.72126130      39.29986225      36.49272923      -0.00002925      -0.00408707       0.00089130
Cl      50.52839432      39.29986225      36.49272923       0.00002943       0.00408706      -0.00089133
Na      50.52839432      42.10699527      36.49272923      -0.00002932      -0.00408703       0.00089123
Cl      53.33552734      42.10699527      36.49272923       0.00003339       0.00408718      -0.00089143
Na      53.33552734      44.91412828      36.49272923      -0.00002648      -0.00408692       0.00089123
Cl      56.14266035      44.91412828      36.49272923       0.00002346       0.00408840      -0.00089152
Na      25.26419716      14.03566509      39.29986225      -0.00002566      -0.00408905       0.00089140
Cl      28.07133018      14.03566509      39.29986225       0.00002751       0.00408661      -0.00089163
Na      28.07133018      16.84279811      39.29986225      -0.00003057      -0.00408742       0.00089131
Cl      30.87846319      16.84279811      39.29986225       0.00002923       0.00408709      -0.00089126
Na      30.87846319      19.64993112      39.29986225      -0.00002918      -0.00408705       0.00089128
Cl      33.68559621      19.64993112      39.29986225       0.00002915       0.00408700      -0.00089133
Na      33.68559621      22.45706414      39.29986225      -0.00002918      -0.00408709       0.00089126
Cl      36.49272923      22.45706414      39.29986225       0.00002911       0.00408714      -0.00089125
Na      36.49272923      25.26419716      39.29986225      -0.00002933      -0.00408553       0.00089126
Cl      39.29986225      25.26419716      39.29986225       0.00002935       0.00408909      -0.00089127
Na      39.29986225      28.07133018      39.29986225      -0.00002912      -0.00408846       0.00089123
Cl      42.10699527      28.07133018      39.29986225       0.00002904       0.00408501      -0.00089121
Na      42.10699527      30.87846319      39.29986225      -0.00002919      -0.00408704       0.00089125
Cl      44.91412828      30.87846319      39.29986225       0.00002914       0.00408705      -0.00089132
Na      44.91412828      33.68559621      39.29986225      -0.00002918      -0.00408705       0.00089138
Cl      47.72126130      33.68559621      39.29986225       0.00002930       0.00408710      -0.00089139
Na      47.72126130      36.49272923      39.29986225      -0.00002926      -0.00408713       0.00089136
Cl      50.52839432      36.49272923      39.29986225       0.00002949       0.00408703      -0.00089127
Na      50.52839432      39.29986225      39.29986225      -0.00002931      -0.00408708       0.00089125
Cl      53.33552734      39.29986225      39.29986225       0.00003318       0.00408711      -0.00089120
Na      53.33552734      42.10699527      39.29986225      -0.00002609      -0.00408713       0.00089130
Cl      56.14266035      42.10699527      39.29986225       0.00002485       0.00408703      -0.00089137
Na      56.14266035      44.91412828      39.29986225      -0.00003197      -0.00408708       0.00089148
Cl      58.94979337      44.91412828      39.29986225       0.00002854       0.00408869      -0.00089170
Na      28.07133018      14.03566509      42.10699527      -0.00002977      -0.00408939       0.00089145
Cl      30.87846319      14.03566509      42.10699527       0.00002977       0.00408608      -0.00089124
Na      30.87846319      16.84279811      42.10699527      -0.00002935      -0.00408720       0.00089127
Cl      33.68559621      16.84279811      42.10699527       0.00002915       0.00408691      -0.00089119
Na      33.68559621      19.64993112      42.10699527      -0.00002907      -0.00408711       0.00089126
Cl      36.49272923      19.64993112      42.10699527       0.00002909       0.00408706      -0.00089119
Na      36.49272923      22.45706414      42.10699527      -0.00002904      -0.00408722       0.00089131
Cl      39.29986225      22.45706414      42.10699527       0.00002915       0.00408722      -0.00089126
Na      39.29986225      25.26419716      42.10699527      -0.00002921      -0.00408568       0.00089124
Cl      42.10699527      25.26419716      42.10699527       0.00002907       0.00408921      -0.00089137
Na      42.10699527      28.07133018      42.10699527      -0.00002911      -0.00408864       0.00089130
Cl      44.91412828      28.07133018      42.10699527       0.00002906       0.00408505      -0.00089143
Na      44.91412828      30.87846319      42.10699527      -0.00002905      -0.00408720       0.00089142
Cl      47.72126130      30.87846319      42.10699527       0.00002919       0.00408710      -0.00089153
Na      47.72126130      33.68559621      42.10699527      -0.00002938      -0.00408717       0.00089143
Cl      50.52839432      33.68559621      42.10699527       0.00002959       0.00408702      -0.00089142
Na      50.52839432      36.49272923      42.10699527      -0.00002934      -0.00408706       0.00089130
Cl      53.33552734      36.49272923      42.10699527       0.00003326       0.00408698      -0.00089125
Na      53.33552734      39.29986225      42.10699527      -0.00002611      -0.00408709       0.00089119
Cl      56.14266035      39.29986225      42.10699527       0.00002486       0.00408704      -0.00089126
Na      56.14266035      42.10699527      42.10699527      -0.00003188      -0.00408711       0.00089133
Cl      58.94979337      42.10699527      42.10699527       0.00002852       0.00408687      -0.00089128
Na      58.94979337      44.91412828      42.10699527      -0.00002828      -0.00408670       0.00089101
Cl      61.75692639      44.91412828      42.10699527       0.00002884       0.00408933      -0.00089242
Na      30.87846319      14.03566509      44.91412828      -0.00003048      -0.00408950       0.00089176
Cl      33.68559621      14.03566509      44.91412828       0.00002889       0.00408506      -0.00088897
Na      33.68559621      16.84279811      44.91412828      -0.00002897      -0.00408704       0.00089109
Cl      36.49272923      16.84279811      44.91412828       0.00002944       0.00408656      -0.00088956
Na      36.49272923      19.64993112      44.91412828      -0.00002882      -0.00408716       0.00089131
Cl      39.29986225      19.64993112      44.91412828       0.00002961       0.00408654      -0.00088973
Na      39.29986225      22.45706414      44.91412828      -0.00002893      -0.00408729       0.00089152
Cl      42.10699527      22.45706414      44.91412828       0.00002964       0.00408666      -0.00088972
Na      42.10699527      25.26419716      44.91412828      -0.00002874      -0.00408574       0.00089166
Cl      44.91412828      25.26419716      44.91412828       0.00003099       0.00408831      -0.00088942
Na      44.91412828      28.07133018      44.91412828      -0.00002825      -0.00408901       0.00089189
Cl      47.72126130      28.07133018      44.91412828       0.00003151       0.00408430      -0.00088944
Na      47.72126130      30.87846319      44.91412828      -0.00002872      -0.00408754       0.00089189
Cl      50.52839432      30.87846319      44.91412828       0.00003188       0.00408633      -0.00088948
Na      50.52839432      33.68559621      44.91412828      -0.00002916      -0.00408752       0.00089200
Cl      53.33552734      33.68559621      44.91412828       0.00003292       0.00408689      -0.00089022
Na      53.33552734      36.49272923      44.91412828      -0.00002636      -0.00408692       0.00089134
Cl      56.14266035      36.49272923      44.91412828       0.00002351       0.00408677      -0.00088987
Na      56.14266035      39.29986225      44.91412828      -0.00003197      -0.00408701       0.00089135
Cl      58.94979337      39.29986225      44.91412828       0.00002872       0.00408648      -0.00088954
Na      58.94979337      42.10699527      44.91412828      -0.00002835      -0.00408705       0.00089146
Cl      61.75692639      42.10699527      44.91412828       0.00002868       0.00408582      -0.00088903
Na      61.75692639      44.91412828      44.91412828      -0.00003089      -0.00408692       0.00089139
Cl      64.56405941      44.91412828      44.91412828       0.00003925       0.00408809      -0.00089003
Na      -0.00000000      16.84279811      16.84279811      -0.00003235      -0.00408875       0.00088947
Cl       2.80713302      16.84279811      16.84279811       0.00002846       0.00408713      -0.00089114
Na       2.80713302      19.64993112      16.84279811      -0.00002885      -0.00408643       0.00088887
Cl       5.61426604      19.64993112      16.84279811       0.00002895       0.00408728      -0.00089123
Na       5.61426604      22.45706414      16.84279811      -0.00002910      -0.00408643       0.00088905
Cl       8.42139905      22.45706414      16.84279811       0.00002840       0.00408707      -0.00089129
Na       8.42139905      25.26419716      16.84279811      -0.00002976      -0.00408517       0.00088901
Cl      11.22853207      25.26419716      16.84279811       0.00003007       0.00408922      -0.00089131
Na      11.22853207      28.07133018      16.84279811      -0.00002894      -0.00408786       0.00088895
Cl      14.03566509      28.07133018      16.84279811       0.00002800       0.00408541      -0.00089148
Na      14.03566509      30.87846319      16.84279811      -0.00003179      -0.00408643       0.00088873
Cl      16.84279811      30.87846319      16.84279811       0.00002875       0.00408757      -0.00089169
Na      16.84279811      33.68559621      16.84279811      -0.00003172      -0.00408632       0.00088857
Cl      19.64993112      33.68559621      16.84279811       0.00002872       0.00408758      -0.00089179
Na      19.64993112      36.49272923      16.84279811      -0.00003168      -0.00408664       0.00088897
Cl      22.45706414      36.49272923      16.84279811       0.00002818       0.00408766      -0.00089176
Na      22.45706414      39.29986225      16.84279811      -0.00003027      -0.00408643       0.00088895
Cl      25.26419716      39.29986225      16.84279811       0.00003092       0.00408711      -0.00089100
Na      25.26419716      42.10699527      16.84279811      -0.00002588      -0.00408677       0.00088929
Cl      28.07133018      42.10699527      16.84279811       0.00002723       0.00408701      -0.00089102
Na      28.07133018      44.91412828      16.84279811      -0.00002980      -0.00408658       0.00088897
Cl      30.87846319      44.91412828      16.84279811       0.00002924       0.00408733      -0.00089140
Na      30.87846319      47.72126130      16.84279811      -0.00003065      -0.00408659       0.00088895
Cl      33.68559621      47.72126130      16.84279811       0.00002876       0.00409025      -0.00089245
Na       2.80713302      16.84279811      19.64993112      -0.00002887      -0.00408942       0.00089176
Cl       5.61426604      16.84279811      19.64993112       0.00002909       0.00408697      -0.00089097
Na       5.61426604      19.64993112      19.64993112      -0.00002842      -0.00408727       0.00089106
Cl       8.42139905      19.64993112      19.64993112       0.00002834       0.00408711      -0.00089108
Na       8.42139905      22.45706414      19.64993112      -0.00002942      -0.00408725       0.00089117
Cl      11.22853207      22.45706414      19.64993112       0.00003015       0.00408711      -0.00089124
Na      11.22853207      25.26419716      19.64993112      -0.00002825      -0.00408575       0.00089145
Cl      14.03566509      25.26419716      19.64993112       0.00002812       0.00408915      -0.00089132
Na      14.03566509      28.07133018      19.64993112      -0.00002982      -0.00408875       0.00089144
Cl      16.84279811      28.07133018      19.64993112       0.00002914       0.00408525      -0.00089123
Na      16.84279811      30.87846319      19.64993112      -0.00002923      -0.00408733       0.00089155
Cl      19.64993112      30.87846319      19.64993112       0.00002907       0.00408722      -0.00089150
Na      19.64993112      33.68559621      19.64993112      -0.00002903      -0.00408743       0.00089151
Cl      22.45706414      33.68559621      19.64993112       0.00002904       0.00408731      -0.00089144
Na      22.45706414      36.49272923      19.64993112      -0.00002884      -0.00408746       0.00089159
Cl      25.26419716      36.49272923      19.64993112       0.00003080       0.00408722      -0.00089115
Na      25.26419716      39.29986225      19.64993112      -0.00002703      -0.00408714       0.00089104
Cl      28.07133018      39.29986225      19.64993112       0.00002690       0.00408715      -0.00089122
Na      28.07133018      42.10699527      19.64993112      -0.00003051      -0.00408725       0.00089121
Cl      30.87846319      42.10699527      19.64993112       0.00002910       0.00408702      -0.00089108
Na      30.87846319      44.91412828      19.64993112      -0.00002922      -0.00408706       0.00089123
Cl      33.68559621      44.91412828      19.64993112       0.00002907       0.00408712      -0.00089121
Na      33.68559621      47.72126130      19.64993112      -0.00002884      -0.00408742       0.00089137
Cl      36.49272923      47.72126130      19.64993112       0.00002943       0.00408946      -0.00089183
Na       5.61426604      16.84279811      22.45706414      -0.00002906      -0.00408923       0.00089169
Cl       8.42139905      16.84279811      22.45706414       0.00002846       0.00408698      -0.00089109
Na       8.42139905      19.64993112      22.45706414      -0.00002945      -0.00408715       0.00089112
Cl      11.22853207      19.64993112      22.45706414       0.00003019       0.00408704      -0.00089113
Na      11.22853207      22.45706414      22.45706414      -0.00002834      -0.00408698       0.00089121
Cl      14.03566509      22.45706414      22.45706414       0.00002806       0.00408703      -0.00089106
Na      14.03566509      25.26419716      22.45706414      -0.00003006      -0.00408564       0.00089124
Cl      16.84279811      25.26419716      22.45706414       0.00002938       0.00408909      -0.00089113
Na      16.84279811      28.07133018      22.45706414      -0.00002914      -0.00408859       0.00089129
Cl      19.64993112      28.07133018      22.45706414       0.00002925       0.00408501      -0.00089120
Na      19.64993112      30.87846319      22.45706414      -0.00002920      -0.00408719       0.00089145
Cl      22.45706414      30.87846319      22.45706414       0.00002925       0.00408703      -0.00089128
Na      22.45706414      33.68559621      22.45706414      -0.00002904      -0.00408723       0.00089127
Cl      25.26419716      33.68559621      22.45706414       0.00003109       0.00408712      -0.00089101
Na      25.26419716      36.49272923      22.45706414      -0.00002740      -0.00408708       0.00089110
Cl      28.07133018      36.49272923      22.45706414       0.00002693       0.00408712      -0.00089111
Na      28.07133018      39.29986225      22.45706414      -0.00003060      -0.00408727       0.00089116
Cl      30.87846319      39.29986225      22.45706414       0.00002912       0.00408701      -0.00089118
Na      30.87846319      42.10699527      22.45706414      -0.00002914      -0.00408709       0.00089119
Cl      33.68559621      42.10699527      22.45706414       0.00002908       0.00408699      -0.00089110
Na      33.68559621      44.91412828      22.45706414      -0.00002903      -0.00408705       0.00089117
Cl      36.49272923      44.91412828      22.45706414       0.00002902       0.00408698      -0.00089108
Na      36.49272923      47.72126130      22.45706414      -0.00002880      -0.00408705       0.00089099
Cl      39.29986225      47.72126130      22.45706414       0.00002956       0.00408933      -0.00089164
Na       8.42139905      16.84279811      25.26419716      -0.00002971      -0.00408919       0.00089323
Cl      11.22853207      16.84279811      25.26419716       0.00003015       0.00408706      -0.00088905
Na      11.22853207      19.64993112      25.26419716      -0.00002837      -0.00408709       0.00089257
Cl      14.03566509      19.64993112      25.26419716       0.00002819       0.00408702      -0.00088905
Na      14.03566509      22.45706414      25.26419716      -0.00003007      -0.00408697       0.00089258
Cl      16.84279811      22.45706414      25.26419716       0.00002929       0.00408698      -0.00088922
Na      16.84279811      25.26419716      25.26419716      -0.00002930      -0.00408563       0.00089272
Cl      19.64993112      25.26419716      25.26419716       0.00002938       0.00408907      -0.00088928
Na      19.64993112      28.07133018      25.26419716      -0.00002920      -0.00408855       0.00089276
Cl      22.45706414      28.07133018      25.26419716       0.00002923       0.00408496      -0.00088931
Na      22.45706414      30.87846319      25.26419716      -0.00002937      -0.00408701       0.00089279
Cl      25.26419716      30.87846319      25.26419716       0.00003122       0.00408708      -0.00088924
Na      25.26419716      33.68559621      25.26419716      -0.00002757      -0.00408707       0.00089265
Cl      28.07133018      33.68559621      25.26419716       0.00002710       0.00408713      -0.00088932
Na      28.07133018      36.49272923      25.26419716      -0.00003079      -0.00408713       0.00089278
Cl      30.87846319      36.49272923      25.26419716       0.00002920       0.00408698      -0.00088946
Na      30.87846319      39.29986225      25.26419716      -0.00002926      -0.00408703       0.00089284
Cl      33.68559621      39.29986225      25.26419716       0.00002935       0.00408693      -0.00088937
Na      33.68559621      42.10699527      25.26419716      -0.00002928      -0.00408697       0.00089279
Cl      36.49272923      42.10699527      25.26419716       0.00002928       0.00408691      -0.00088932
Na      36.49272923      44.91412828      25.26419716      -0.00002918      -0.00408696       0.00089267
Cl      39.29986225      44.91412828      25.26419716       0.00002905       0.00408686      -0.00088912
Na      39.29986225      47.72126130      25.26419716      -0.00002885      -0.00408685       0.00089237
Cl      42.10699527      47.72126130      25.26419716       0.00002963       0.00408916      -0.00088981
Na      11.22853207      16.84279811      28.07133018      -0.00002909      -0.00408933       0.00089030
Cl      14.03566509      16.84279811      28.07133018       0.00002808       0.00408694      -0.00089282
Na      14.03566509      19.64993112      28.07133018      -0.00002974      -0.00408694       0.00088955
Cl      16.84279811      19.64993112      28.07133018       0.00002903       0.00408697      -0.00089306
Na      16.84279811      22.45706414      28.07133018      -0.00002910      -0.00408694       0.00088957
Cl      19.64993112      22.45706414      28.07133018       0.00002911       0.00408704      -0.00089309
Na      19.64993112      25.26419716      28.07133018      -0.00002914      -0.00408550       0.00088966
Cl      22.45706414      25.26419716      28.07133018       0.00002923       0.00408893      -0.00089309
Na      22.45706414      28.07133018      28.07133018      -0.00002932      -0.00408845       0.00088975
Cl      25.26419716      28.07133018      28.07133018       0.00003129       0.00408511      -0.00089307
Na      25.26419716      30.87846319      28.07133018      -0.00002760      -0.00408712       0.00088976
Cl      28.07133018      30.87846319      28.07133018       0.00002710       0.00408705      -0.00089317
Na      28.07133018      33.68559621      28.07133018      -0.00003068      -0.00408709       0.00088980
Cl      30.87846319      33.68559621      28.07133018       0.00002912       0.00408704      -0.00089324
Na      30.87846319      36.49272923      28.07133018      -0.00002915      -0.00408702       0.00088985
Cl      33.68559621      36.49272923      28.07133018       0.00002918       0.00408702      -0.00089327
Na      33.68559621      39.29986225      28.07133018      -0.00002909      -0.00408698       0.00088985
Cl      36.49272923      39.29986225      28.07133018       0.00002914       0.00408704      -0.00089327
Na      36.49272923      42.10699527      28.07133018      -0.00002923      -0.00408698       0.00088987
Cl      39.29986225      42.10699527      28.07133018       0.00002913       0.00408702      -0.00089317
Na      39.29986225      44.91412828      28.07133018      -0.00002914      -0.00408700       0.00088971
Cl      42.10699527      44.91412828      28.07133018       0.00002891       0.00408688      -0.00089298
Na      42.10699527      47.72126130      28.07133018      -0.00002870      -0.00408676       0.00088960
Cl      44.91412828      47.72126130      28.07133018       0.00003102       0.00408932      -0.00089390
Na      14.03566509      16.84279811      30.87846319      -0.00003203      -0.00408948       0.00089199
Cl      16.84279811      16.84279811      30.87846319       0.00002885       0.00408645      -0.00089082
Na      16.84279811      19.64993112      30.87846319      -0.00002907      -0.00408680       0.00089098
Cl      19.64993112      19.64993112      30.87846319       0.00002910       0.00408683      -0.00089101
Na      19.64993112      22.45706414      30.87846319      -0.00002921      -0.00408693       0.00089114
Cl      22.45706414      22.45706414      30.87846319       0.00002926       0.00408704      -0.00089124
Na      22.45706414      25.26419716      30.87846319      -0.00002936      -0.00408556       0.00089112
Cl      25.26419716      25.26419716      30.87846319       0.00003121       0.00408898      -0.00089131
Na      25.26419716      28.07133018      30.87846319      -0.00002764      -0.00408855       0.00089120
Cl      28.07133018      28.07133018      30.87846319       0.00002714       0.00408500      -0.00089129
Na      28.07133018      30.87846319      30.87846319      -0.00003075      -0.00408703       0.00089128
Cl      30.87846319      30.87846319      30.87846319       0.00002904       0.00408688      -0.00089126
Na      30.87846319      33.68559621      30.87846319      -0.00002925      -0.00408701       0.00089132
Cl      33.68559621      33.68559621      30.87846319       0.00002927       0.00408694      -0.00089125
Na      33.68559621      36.49272923      30.87846319      -0.00002922      -0.00408702       0.00089124
Cl      36.49272923      36.49272923      30.87846319       0.00002925       0.00408700      -0.00089125
Na      36.49272923      39.29986225      30.87846319      -0.00002931      -0.00408703       0.00089123
Cl      39.29986225      39.29986225      30.87846319       0.00002926       0.00408702      -0.00089125
Na      39.29986225      42.10699527      30.87846319      -0.00002923      -0.00408704       0.00089123
Cl      42.10699527      42.10699527      30.87846319       0.00002926       0.00408698      -0.00089118
Na      42.10699527      44.91412828      30.87846319      -0.00002905      -0.00408696       0.00089113
Cl      44.91412828      44.91412828      30.87846319       0.00002907       0.00408672      -0.00089103
Na      44.91412828      47.72126130      30.87846319      -0.00002842      -0.00408647       0.00089049
Cl      47.72126130      47.72126130      30.87846319       0.00003168       0.00408948      -0.00089198
Na      16.84279811      16.84279811      33.68559621      -0.00003183      -0.00408954       0.00089207
Cl      19.64993112      16.84279811      33.68559621       0.00002872       0.00408641      -0.00089057
Na      19.64993112      19.64993112      33.68559621      -0.00002898      -0.00408673       0.00089072
Cl      22.45706414      19.64993112      33.68559621       0.00002894       0.00408686      -0.00089095
Na      22.45706414      22.45706414      33.68559621      -0.00002908      -0.00408691       0.00089112
Cl      25.26419716      22.45706414      33.68559621       0.00003111       0.00408716      -0.00089119
Na      25.26419716      25.26419716      33.68559621      -0.00002756      -0.00408560       0.00089124
Cl      28.07133018      25.26419716      33.68559621       0.00002716       0.00408903      -0.00089144
Na      28.07133018      28.07133018      33.68559621      -0.00003074      -0.00408847       0.00089124
Cl      30.87846319      28.07133018      33.68559621       0.00002919       0.00408497      -0.00089132
Na      30.87846319      30.87846319      33.68559621      -0.00002919      -0.00408707       0.00089129
Cl      33.68559621      30.87846319      33.68559621       0.00002918       0.00408699      -0.00089125
Na      33.68559621      33.68559621      33.68559621      -0.00002925      -0.00408702       0.00089121
Cl      36.49272923      33.68559621      33.68559621       0.00002927       0.00408700      -0.00089130
Na      36.49272923      36.49272923      33.68559621      -0.00002922      -0.00408701       0.00089125
Cl      39.29986225      36.49272923      33.68559621       0.00002923       0.00408701      -0.00089135
Na      39.29986225      39.29986225      33.68559621      -0.00002923      -0.00408701       0.00089127
Cl      42.10699527      39.29986225      33.68559621       0.00002924       0.00408705      -0.00089137
Na      42.10699527      42.10699527      33.68559621      -0.00002923      -0.00408701       0.00089124
Cl      44.91412828      42.10699527      33.68559621       0.00002917       0.00408693      -0.00089128
Na      44.91412828      44.91412828      33.68559621      -0.00002902      -0.00408687       0.00089110
Cl      47.72126130      44.91412828      33.68559621       0.00002918       0.00408666      -0.00089093
Na      47.72126130      47.72126130      33.68559621      -0.00002861      -0.00408656       0.00089050
Cl      50.52839432      47.72126130      33.68559621       0.00003201       0.00408941      -0.00089184
Na      19.64993112      16.84279811      36.49272923      -0.00003170      -0.00408908       0.00089177
Cl      22.45706414      16.84279811      36.49272923       0.00002805       0.00408657      -0.00089050
Na      22.45706414      19.64993112      36.49272923      -0.00002859      -0.00408676       0.00089087
Cl      25.26419716      19.64993112      36.49272923       0.00003072       0.00408689      -0.00089098
Na      25.26419716      22.45706414      36.49272923      -0.00002726      -0.00408690       0.00089105
Cl      28.07133018      22.45706414      36.49272923       0.00002701       0.00408712      -0.00089134
Na      28.07133018      25.26419716      36.49272923      -0.00003078      -0.00408562       0.00089137
Cl      30.87846319      25.26419716      36.49272923       0.00002935       0.00408905      -0.00089119
Na      30.87846319      28.07133018      36.49272923      -0.00002909      -0.00408842       0.00089123
Cl      33.68559621      28.07133018      36.49272923       0.00002920       0.00408492      -0.00089114
Na      33.68559621      30.87846319      36.49272923      -0.00002918      -0.00408697       0.00089120
Cl      36.49272923      30.87846319      36.49272923       0.00002918       0.00408700      -0.00089122
Na      36.49272923      33.68559621      36.49272923      -0.00002922      -0.00408703       0.00089129
Cl      39.29986225      33.68559621      36.49272923       0.00002917       0.00408701      -0.00089130
Na      39.29986225      36.49272923      36.49272923      -0.00002922      -0.00408706       0.00089137
Cl      42.10699527      36.49272923      36.49272923       0.00002922       0.00408703      -0.00089137
Na      42.10699527      39.29986225      36.49272923      -0.00002922      -0.00408708       0.00089136
Cl      44.91412828      39.29986225      36.49272923       0.00002920       0.00408705      -0.00089139
Na      44.91412828      42.10699527      36.49272923      -0.00002922      -0.00408705       0.00089133
Cl      47.72126130      42.10699527      36.49272923       0.00002927       0.00408697      -0.00089127
Na      47.72126130      44.91412828      36.49272923      -0.00002925      -0.00408689       0.00089103
Cl      50.52839432      44.91412828      36.49272923       0.00002949       0.00408683      -0.00089098
Na      50.52839432      47.72126130      36.49272923      -0.00002918      -0.00408647       0.00089046
Cl      53.33552734      47.72126130      36.49272923       0.00003283       0.00408860      -0.00089116
Na      22.45706414      16.84279811      39.29986225      -0.00003015      -0.00408927       0.00089158
Cl      25.26419716      16.84279811      39.29986225       0.00003080       0.00408721      -0.00089130
Na      25.26419716      19.64993112      39.29986225      -0.00002698      -0.00408705       0.00089114
Cl      28.07133018      19.64993112      39.29986225       0.00002686       0.00408714      -0.00089127
Na      28.07133018      22.45706414      39.29986225      -0.00003067      -0.00408721       0.00089126
Cl      30.87846319      22.45706414      39.29986225       0.00002913       0.00408715      -0.00089122
Na      30.87846319      25.26419716      39.29986225      -0.00002940      -0.00408557       0.00089109
Cl      33.68559621      25.26419716      39.29986225       0.00002935       0.00408906      -0.00089129
Na      33.68559621      28.07133018      39.29986225      -0.00002916      -0.00408848       0.00089113
Cl      36.49272923      28.07133018      39.29986225       0.00002917       0.00408494      -0.00089118
Na      36.49272923      30.87846319      39.29986225      -0.00002920      -0.00408704       0.00089126
Cl      39.29986225      30.87846319      39.29986225       0.00002915       0.00408701      -0.00089128
Na      39.29986225      33.68559621      39.29986225      -0.00002920      -0.00408702       0.00089131
Cl      42.10699527      33.68559621      39.29986225       0.00002920       0.00408700      -0.00089134
Na      42.10699527      36.49272923      39.29986225      -0.00002923      -0.00408704       0.00089138
Cl      44.91412828      36.49272923      39.29986225       0.00002921       0.00408706      -0.00089133
Na      44.91412828      39.29986225      39.29986225      -0.00002919      -0.00408708       0.00089134
Cl      47.72126130      39.29986225      39.29986225       0.00002926       0.00408707      -0.00089131
Na      47.72126130      42.10699527      39.29986225      -0.00002924      -0.00408708       0.00089136
Cl      50.52839432      42.10699527      39.29986225       0.00002944       0.00408711      -0.00089131
Na      50.52839432      44.91412828      39.29986225      -0.00002930      -0.00408707       0.00089120
Cl      53.33552734      44.91412828      39.29986225       0.00003328       0.00408724      -0.00089120
Na      53.33552734      47.72126130      39.29986225      -0.00002645      -0.00408703       0.00089119
Cl      56.14266035      47.72126130      39.29986225       0.00002373       0.00408886      -0.00089140
Na      25.26419716      16.84279811      42.10699527      -0.00002575      -0.00408887       0.00089148
Cl      28.07133018      16.84279811      42.10699527       0.00002723       0.00408739      -0.00089148
Na      28.07133018      19.64993112      42.10699527      -0.00003062      -0.00408732       0.00089133
Cl      30.87846319      19.64993112      42.10699527       0.00002916       0.00408709      -0.00089129
Na      30.87846319      22.45706414      42.10699527      -0.00002916      -0.00408699       0.00089123
Cl      33.68559621      22.45706414      42.10699527       0.00002906       0.00408714      -0.00089121
Na      33.68559621      25.26419716      42.10699527      -0.00002932      -0.00408552       0.00089122
Cl      36.49272923      25.26419716      42.10699527       0.00002929       0.00408908      -0.00089132
Na      36.49272923      28.07133018      42.10699527      -0.00002914      -0.00408844       0.00089119
Cl      39.29986225      28.07133018      42.10699527       0.00002909       0.00408504      -0.00089125
Na      39.29986225      30.87846319      42.10699527      -0.00002915      -0.00408708       0.00089127
Cl      42.10699527      30.87846319      42.10699527       0.00002908       0.00408709      -0.00089126
Na      42.10699527      33.68559621      42.10699527      -0.00002918      -0.00408706       0.00089138
Cl      44.91412828      33.68559621      42.10699527       0.00002919       0.00408720      -0.00089144
Na      44.91412828      36.49272923      42.10699527      -0.00002921      -0.00408710       0.00089136
Cl      47.72126130      36.49272923      42.10699527       0.00002920       0.00408718      -0.00089140
Na      47.72126130      39.29986225      42.10699527      -0.00002924      -0.00408708       0.00089138
Cl      50.52839432      39.29986225      42.10699527       0.00002939       0.00408714      -0.00089129
Na      50.52839432      42.10699527      42.10699527      -0.00002922      -0.00408703       0.00089129
Cl      53.33552734      42.10699527      42.10699527       0.00003310       0.00408716      -0.00089122
Na      53.33552734      44.91412828      42.10699527      -0.00002614      -0.00408702       0.00089122
Cl      56.14266035      44.91412828      42.10699527       0.00002486       0.00408715      -0.00089132
Na      56.14266035      47.72126130      42.10699527      -0.00003203      -0.00408731       0.00089143
Cl      58.94979337      47.72126130      42.10699527       0.00002862       0.00408919      -0.00089177
Na      28.07133018      16.84279811      44.91412828      -0.00002984      -0.00408923       0.00089159
Cl      30.87846319      16.84279811      44.91412828       0.00002930       0.00408690      -0.00089099
Na      30.87846319      19.64993112      44.91412828      -0.00002934      -0.00408703       0.00089112
Cl      33.68559621      19.64993112      44.91412828       0.00002912       0.00408697      -0.00089108
Na      33.68559621      22.45706414      44.91412828      -0.00002907      -0.00408704       0.00089128
Cl      36.49272923      22.45706414      44.91412828       0.00002904       0.00408714      -0.00089116
Na      36.49272923      25.26419716      44.91412828      -0.00002926      -0.00408564       0.00089114
Cl      39.29986225      25.26419716      44.91412828       0.00002913       0.00408914      -0.00089128
Na      39.29986225      28.07133018      44.91412828      -0.00002909      -0.00408860       0.00089126
Cl      42.10699527      28.07133018      44.91412828       0.00002900       0.00408510      -0.00089130
Na      42.10699527      30.87846319      44.91412828      -0.00002899      -0.00408716       0.00089135
Cl      44.91412828      30.87846319      44.91412828       0.00002898       0.00408713      -0.00089144
Na      44.91412828      33.68559621      44.91412828      -0.00002914      -0.00408718       0.00089145
Cl      47.72126130      33.68559621      44.91412828       0.00002924       0.00408722      -0.00089152
Na      47.72126130      36.49272923      44.91412828      -0.00002930      -0.00408723       0.00089136
Cl      50.52839432      36.49272923      44.91412828       0.00002950       0.00408708      -0.00089130
Na      50.52839432      39.29986225      44.91412828      -0.00002929      -0.00408703       0.00089131
Cl      53.33552734      39.29986225      44.91412828       0.00003321       0.00408709      -0.00089123
Na      53.33552734      42.10699527      44.91412828      -0.00002606      -0.00408710       0.00089109
Cl      56.14266035      42.10699527      44.91412828       0.00002480       0.00408703      -0.00089121
Na      56.14266035      44.91412828      44.91412828      -0.00003183      -0.00408713       0.00089129
Cl      58.94979337      44.91412828      44.91412828       0.00002842       0.00408707      -0.00089108
Na      58.94979337      47.72126130      44.91412828      -0.00002837      -0.00408692       0.00089108
Cl      61.75692639      47.72126130      44.91412828       0.00002888       0.00408982      -0.00089224
Na      30.87846319      16.84279811      47.72126130      -0.00003063      -0.00408933       0.00089168
Cl      33.68559621      16.84279811      47.72126130       0.00002874       0.00408571      -0.00088808
Na      33.68559621      19.64993112      47.72126130      -0.00002895      -0.00408691       0.00089093
Cl      36.49272923      19.64993112      47.72126130       0.00002951       0.00408648      -0.00088887
Na      36.49272923      22.45706414      47.72126130      -0.00002887      -0.00408711       0.00089127
Cl      39.29986225      22.45706414      47.72126130       0.00002958       0.00408658      -0.00088920
Na      39.29986225      25.26419716      47.72126130      -0.00002887      -0.00408584       0.00089157
Cl      42.10699527      25.26419716      47.72126130       0.00002957       0.00408841      -0.00088926
Na      42.10699527      28.07133018      47.72126130      -0.00002860      -0.00408872       0.00089152
Cl      44.91412828      28.07133018      47.72126130       0.00003095       0.00408440      -0.00088896
Na      44.91412828      30.87846319      47.72126130      -0.00002838      -0.00408757       0.00089178
Cl      47.72126130      30.87846319      47.72126130       0.00003155       0.00408635      -0.00088873
Na      47.72126130      33.68559621      47.72126130      -0.00002870      -0.00408756       0.00089179
Cl      50.52839432      33.68559621      47.72126130       0.00003184       0.00408639      -0.00088889
Na      50.52839432      36.49272923      47.72126130      -0.00002905      -0.00408755       0.00089184
Cl      53.33552734      36.49272923      47.72126130       0.00003283       0.00408706      -0.00088952
Na      53.33552734      39.29986225      47.72126130      -0.00002639      -0.00408707       0.00089114
Cl      56.14266035      39.29986225      47.72126130       0.00002359       0.00408684      -0.00088935
Na      56.14266035      42.10699527      47.72126130      -0.00003199      -0.00408703       0.00089109
Cl      58.94979337      42.10699527      47.72126130       0.00002868       0.00408640      -0.00088895
Na      58.94979337      44.91412828      47.72126130      -0.00002831      -0.00408712       0.00089122
Cl      61.75692639      44.91412828      47.72126130       0.00002869       0.00408581      -0.00088844
Na      61.75692639      47.72126130      47.72126130      -0.00003091      -0.00408704       0.00089120
Cl      64.56405941      47.72126130      47.72126130       0.00003938       0.00408875      -0.00088951
Na      -0.00000000      19.64993112      19.64993112      -0.00003172      -0.00408892       0.00088928
Cl       2.80713302      19.64993112      19.64993112       0.00002833       0.00408716      -0.00089107
Na       2.80713302      22.45706414      19.64993112      -0.00002859      -0.00408654       0.00088886
Cl       5.61426604      22.45706414      19.64993112       0.00002888       0.00408744      -0.00089130
Na       5.61426604      25.26419716      19.64993112      -0.00002891      -0.00408549       0.00088904
Cl       8.42139905      25.26419716      19.64993112       0.00002849       0.00408906      -0.00089125
Na       8.42139905      28.07133018      19.64993112      -0.00002940      -0.00408826       0.00088921
Cl      11.22853207      28.07133018      19.64993112       0.00002983       0.00408553      -0.00089153
Na      11.22853207      30.87846319      19.64993112      -0.00002857      -0.00408672       0.00088890
Cl      14.03566509      30.87846319      19.64993112       0.00002793       0.00408738      -0.00089156
Na      14.03566509      33.68559621      19.64993112      -0.00003165      -0.00408678       0.00088881
Cl      16.84279811      33.68559621      19.64993112       0.00002867       0.00408771      -0.00089163
Na      16.84279811      36.49272923      19.64993112      -0.00003143      -0.00408666       0.00088856
Cl      19.64993112      36.49272923      19.64993112       0.00002866       0.00408793      -0.00089179
Na      19.64993112      39.29986225      19.64993112      -0.00003139      -0.00408706       0.00088897
Cl      22.45706414      39.29986225      19.64993112       0.00002805       0.00408780      -0.00089185
Na      22.45706414      42.10699527      19.64993112      -0.00002988      -0.00408680       0.00088900
Cl      25.26419716      42.10699527      19.64993112       0.00003086       0.00408720      -0.00089115
Na      25.26419716      44.91412828      19.64993112      -0.00002562      -0.00408711       0.00088936
Cl      28.07133018      44.91412828      19.64993112       0.00002717       0.00408699      -0.00089112
Na      28.07133018      47.72126130      19.64993112      -0.00002956      -0.00408700       0.00088913
Cl      30.87846319      47.72126130      19.64993112       0.00002917       0.00408753      -0.00089153
Na      30.87846319      50.52839432      19.64993112      -0.00003038      -0.00408723       0.00088901
Cl      33.68559621      50.52839432      19.64993112       0.00002856       0.00409048      -0.00089248
Na       2.80713302      19.64993112      22.45706414      -0.00002863      -0.00408937       0.00089156
Cl       5.61426604      19.64993112      22.45706414       0.00002892       0.00408696      -0.00089095
Na       5.61426604      22.45706414      22.45706414      -0.00002838      -0.00408706       0.00089122
Cl       8.42139905      22.45706414      22.45706414       0.00002837       0.00408719      -0.00089121
Na       8.42139905      25.26419716      22.45706414      -0.00002934      -0.00408567       0.00089137
Cl      11.22853207      25.26419716      22.45706414       0.00003004       0.00408904      -0.00089138
Na      11.22853207      28.07133018      22.45706414      -0.00002829      -0.00408876       0.00089138
Cl      14.03566509      28.07133018      22.45706414       0.00002806       0.00408517      -0.00089124
Na      14.03566509      30.87846319      22.45706414      -0.00002985      -0.00408734       0.00089139
Cl      16.84279811      30.87846319      22.45706414       0.00002913       0.00408715      -0.00089133
Na      16.84279811      33.68559621      22.45706414      -0.00002905      -0.00408742       0.00089154
Cl      19.64993112      33.68559621      22.45706414       0.00002904       0.00408729      -0.00089137
Na      19.64993112      36.49272923      22.45706414      -0.00002902      -0.00408744       0.00089165
Cl      22.45706414      36.49272923      22.45706414       0.00002914       0.00408731      -0.00089151
Na      22.45706414      39.29986225      22.45706414      -0.00002888      -0.00408744       0.00089165
Cl      25.26419716      39.29986225      22.45706414       0.00003087       0.00408716      -0.00089116
Na      25.26419716      42.10699527      22.45706414      -0.00002709      -0.00408711       0.00089112
Cl      28.07133018      42.10699527      22.45706414       0.00002687       0.00408707      -0.00089122
Na      28.07133018      44.91412828      22.45706414      -0.00003053      -0.00408718       0.00089123
Cl      30.87846319      44.91412828      22.45706414       0.00002908       0.00408702      -0.00089124
Na      30.87846319      47.72126130      22.45706414      -0.00002930      -0.00408722       0.00089129
Cl      33.68559621      47.72126130      22.45706414       0.00002906       0.00408736      -0.00089124
Na      33.68559621      50.52839432      22.45706414      -0.00002886      -0.00408778       0.00089142
Cl      36.49272923      50.52839432      22.45706414       0.00002923       0.00408958      -0.00089169
Na       5.61426604      19.64993112      25.26419716      -0.00002878      -0.00408908       0.00089300
Cl       8.42139905      19.64993112      25.26419716       0.00002840       0.00408692      -0.00088911
Na       8.42139905      22.45706414      25.26419716      -0.00002948      -0.00408688       0.00089274
Cl      11.22853207      22.45706414      25.26419716       0.00003015       0.00408696      -0.00088926
Na      11.22853207      25.26419716      25.26419716      -0.00002836      -0.00408547       0.00089271
Cl      14.03566509      25.26419716      25.26419716       0.00002820       0.00408897      -0.00088936
Na      14.03566509      28.07133018      25.26419716      -0.00002986      -0.00408866       0.00089278
Cl      16.84279811      28.07133018      25.26419716       0.00002926       0.00408509      -0.00088941
Na      16.84279811      30.87846319      25.26419716      -0.00002922      -0.00408702       0.00089283
Cl      19.64993112      30.87846319      25.26419716       0.00002935       0.00408699      -0.00088948
Na      19.64993112      33.68559621      25.26419716      -0.00002941      -0.00408705       0.00089289
Cl      22.45706414      33.68559621      25.26419716       0.00002941       0.00408692      -0.00088942
Na      22.45706414      36.49272923      25.26419716      -0.00002925      -0.00408711       0.00089285
Cl      25.26419716      36.49272923      25.26419716       0.00003123       0.00408718      -0.00088929
Na      25.26419716      39.29986225      25.26419716      -0.00002747      -0.00408712       0.00089276
Cl      28.07133018      39.29986225      25.26419716       0.00002706       0.00408710      -0.00088936
Na      28.07133018      42.10699527      25.26419716      -0.00003077      -0.00408710       0.00089281
Cl      30.87846319      42.10699527      25.26419716       0.00002916       0.00408700      -0.00088949
Na      30.87846319      44.91412828      25.26419716      -0.00002923      -0.00408701       0.00089280
Cl      33.68559621      44.91412828      25.26419716       0.00002923       0.00408693      -0.00088935
Na      33.68559621      47.72126130      25.26419716      -0.00002921      -0.00408712       0.00089270
Cl      36.49272923      47.72126130      25.26419716       0.00002909       0.00408710      -0.00088927
Na      36.49272923      50.52839432      25.26419716      -0.00002884      -0.00408727       0.00089248
Cl      39.29986225      50.52839432      25.26419716       0.00002943       0.00408948      -0.00088987
Na       8.42139905      19.64993112      28.07133018      -0.00002958      -0.00408910       0.00088972
Cl      11.22853207      19.64993112      28.07133018       0.00003001       0.00408690      -0.00089289
Na      11.22853207      22.45706414      28.07133018      -0.00002838      -0.00408679       0.00088950
Cl      14.03566509      22.45706414      28.07133018       0.00002816       0.00408688      -0.00089290
Na      14.03566509      25.26419716      28.07133018      -0.00003008      -0.00408540       0.00088972
Cl      16.84279811      25.26419716      28.07133018       0.00002926       0.00408879      -0.00089306
Na      16.84279811      28.07133018      28.07133018      -0.00002920      -0.00408830       0.00088971
Cl      19.64993112      28.07133018      28.07133018       0.00002927       0.00408491      -0.00089323
Na      19.64993112      30.87846319      28.07133018      -0.00002927      -0.00408704       0.00088974
Cl      22.45706414      30.87846319      28.07133018       0.00002936       0.00408708      -0.00089320
Na      22.45706414      33.68559621      28.07133018      -0.00002940      -0.00408700       0.00088988
Cl      25.26419716      33.68559621      28.07133018       0.00003113       0.00408722      -0.00089320
Na      25.26419716      36.49272923      28.07133018      -0.00002758      -0.00408708       0.00088986
Cl      28.07133018      36.49272923      28.07133018       0.00002699       0.00408704      -0.00089325
Na      28.07133018      39.29986225      28.07133018      -0.00003064      -0.00408708       0.00088980
Cl      30.87846319      39.29986225      28.07133018       0.00002907       0.00408707      -0.00089323
Na      30.87846319      42.10699527      28.07133018      -0.00002914      -0.00408705       0.00088988
Cl      33.68559621      42.10699527      28.07133018       0.00002919       0.00408707      -0.00089327
Na      33.68559621      44.91412828      28.07133018      -0.00002912      -0.00408700       0.00088989
Cl      36.49272923      44.91412828      28.07133018       0.00002916       0.00408701      -0.00089322
Na      36.49272923      47.72126130      28.07133018      -0.00002913      -0.00408718       0.00088986
Cl      39.29986225      47.72126130      28.07133018       0.00002900       0.00408719      -0.00089308
Na      39.29986225      50.52839432      28.07133018      -0.00002891      -0.00408730       0.00088959
Cl      42.10699527      50.52839432      28.07133018       0.00002957       0.00408940      -0.00089354
Na      11.22853207      19.64993112      30.87846319      -0.00002867      -0.00408932       0.00089156
Cl      14.03566509      19.64993112      30.87846319       0.00002798       0.00408669      -0.00089086
Na      14.03566509      22.45706414      30.87846319      -0.00002991      -0.00408675       0.00089099
Cl      16.84279811      22.45706414      30.87846319       0.00002919       0.00408687      -0.00089112
Na      16.84279811      25.26419716      30.87846319      -0.00002937      -0.00408534       0.00089106
Cl      19.64993112      25.26419716      30.87846319       0.00002924       0.00408883      -0.00089106
Na      19.64993112      28.07133018      30.87846319      -0.00002918      -0.00408837       0.00089124
Cl      22.45706414      28.07133018      30.87846319       0.00002923       0.00408502      -0.00089125
Na      22.45706414      30.87846319      30.87846319      -0.00002924      -0.00408696       0.00089135
Cl      25.26419716      30.87846319      30.87846319       0.00003130       0.00408713      -0.00089118
Na      25.26419716      33.68559621      30.87846319      -0.00002745      -0.00408700       0.00089133
Cl      28.07133018      33.68559621      30.87846319       0.00002696       0.00408706      -0.00089129
Na      28.07133018      36.49272923      30.87846319      -0.00003067      -0.00408717       0.00089131
Cl      30.87846319      36.49272923      30.87846319       0.00002914       0.00408706      -0.00089120
Na      30.87846319      39.29986225      30.87846319      -0.00002927      -0.00408709       0.00089130
Cl      33.68559621      39.29986225      30.87846319       0.00002929       0.00408699      -0.00089124
Na      33.68559621      42.10699527      30.87846319      -0.00002922      -0.00408705       0.00089124
Cl      36.49272923      42.10699527      30.87846319       0.00002923       0.00408702      -0.00089124
Na      36.49272923      44.91412828      30.87846319      -0.00002930      -0.00408707       0.00089122
Cl      39.29986225      44.91412828      30.87846319       0.00002929       0.00408696      -0.00089118
Na      39.29986225      47.72126130      30.87846319      -0.00002913      -0.00408704       0.00089122
Cl      42.10699527      47.72126130      30.87846319       0.00002906       0.00408704      -0.00089117
Na      42.10699527      50.52839432      30.87846319      -0.00002873      -0.00408714       0.00089098
Cl      44.91412828      50.52839432      30.87846319       0.00003116       0.00408970      -0.00089194
Na      14.03566509      19.64993112      33.68559621      -0.00003156      -0.00408941       0.00089148
Cl      16.84279811      19.64993112      33.68559621       0.00002863       0.00408637      -0.00089066
Na      16.84279811      22.45706414      33.68559621      -0.00002913      -0.00408665       0.00089096
Cl      19.64993112      22.45706414      33.68559621       0.00002907       0.00408692      -0.00089107
Na      19.64993112      25.26419716      33.68559621      -0.00002929      -0.00408538       0.00089096
Cl      22.45706414      25.26419716      33.68559621       0.00002921       0.00408894      -0.00089118
Na      22.45706414      28.07133018      33.68559621      -0.00002927      -0.00408851       0.00089119
Cl      25.26419716      28.07133018      33.68559621       0.00003120       0.00408512      -0.00089116
Na      25.26419716      30.87846319      33.68559621      -0.00002764      -0.00408704       0.00089116
Cl      28.07133018      30.87846319      33.68559621       0.00002700       0.00408698      -0.00089134
Na      28.07133018      33.68559621      33.68559621      -0.00003066      -0.00408712       0.00089135
Cl      30.87846319      33.68559621      33.68559621       0.00002908       0.00408700      -0.00089127
Na      30.87846319      36.49272923      33.68559621      -0.00002922      -0.00408712       0.00089128
Cl      33.68559621      36.49272923      33.68559621       0.00002923       0.00408704      -0.00089134
Na      33.68559621      39.29986225      33.68559621      -0.00002922      -0.00408706       0.00089126
Cl      36.49272923      39.29986225      33.68559621       0.00002923       0.00408704      -0.00089136
Na      36.49272923      42.10699527      33.68559621      -0.00002922      -0.00408703       0.00089126
Cl      39.29986225      42.10699527      33.68559621       0.00002921       0.00408702      -0.00089136
Na      39.29986225      44.91412828      33.68559621      -0.00002917      -0.00408702       0.00089125
Cl      42.10699527      44.91412828      33.68559621       0.00002912       0.00408696      -0.00089124
Na      42.10699527      47.72126130      33.68559621      -0.00002903      -0.00408710       0.00089113
Cl      44.91412828      47.72126130      33.68559621       0.00002895       0.00408691      -0.00089089
Na      44.91412828      50.52839432      33.68559621      -0.00002845      -0.00408693       0.00089073
Cl      47.72126130      50.52839432      33.68559621       0.00003149       0.00408977      -0.00089183
Na      16.84279811      19.64993112      36.49272923      -0.00003154      -0.00408951       0.00089176
Cl      19.64993112      19.64993112      36.49272923       0.00002851       0.00408635      -0.00089036
Na      19.64993112      22.45706414      36.49272923      -0.00002905      -0.00408665       0.00089091
Cl      22.45706414      22.45706414      36.49272923       0.00002894       0.00408674      -0.00089106
Na      22.45706414      25.26419716      36.49272923      -0.00002918      -0.00408542       0.00089112
Cl      25.26419716      25.26419716      36.49272923       0.00003108       0.00408893      -0.00089120
Na      25.26419716      28.07133018      36.49272923      -0.00002758      -0.00408849       0.00089119
Cl      28.07133018      28.07133018      36.49272923       0.00002704       0.00408505      -0.00089126
Na      28.07133018      30.87846319      36.49272923      -0.00003078      -0.00408715       0.00089135
Cl      30.87846319      30.87846319      36.49272923       0.00002913       0.00408697      -0.00089129
Na      30.87846319      33.68559621      36.49272923      -0.00002925      -0.00408703       0.00089123
Cl      33.68559621      33.68559621      36.49272923       0.00002922       0.00408699      -0.00089135
Na      33.68559621      36.49272923      36.49272923      -0.00002922      -0.00408704       0.00089137
Cl      36.49272923      36.49272923      36.49272923       0.00002920       0.00408704      -0.00089136
Na      36.49272923      39.29986225      36.49272923      -0.00002922      -0.00408706       0.00089139
Cl      39.29986225      39.29986225      36.49272923       0.00002922       0.00408706      -0.00089137
Na      39.29986225      42.10699527      36.49272923      -0.00002922      -0.00408706       0.00089138
Cl      42.10699527      42.10699527      36.49272923       0.00002923       0.00408703      -0.00089135
Na      42.10699527      44.91412828      36.49272923      -0.00002921      -0.00408702       0.00089131
Cl      44.91412828      44.91412828      36.49272923       0.00002917       0.00408694      -0.00089118
Na      44.91412828      47.72126130      36.49272923      -0.00002908      -0.00408701       0.00089108
Cl      47.72126130      47.72126130      36.49272923       0.00002928       0.00408701      -0.00089087
Na      47.72126130      50.52839432      36.49272923      -0.00002874      -0.00408695       0.00089047
Cl      50.52839432      50.52839432      36.49272923       0.00003178       0.00408974      -0.00089177
Na      19.64993112      19.64993112      39.29986225      -0.00003135      -0.00408898       0.00089138
Cl      22.45706414      19.64993112      39.29986225       0.00002796       0.00408644      -0.00089048
Na      22.45706414      22.45706414      39.29986225      -0.00002873      -0.00408662       0.00089087
Cl      25.26419716      22.45706414      39.29986225       0.00003083       0.00408707      -0.00089103
Na      25.26419716      25.26419716      39.29986225      -0.00002745      -0.00408552       0.00089124
Cl      28.07133018      25.26419716      39.29986225       0.00002711       0.00408900      -0.00089137
Na      28.07133018      28.07133018      39.29986225      -0.00003071      -0.00408852       0.00089122
Cl      30.87846319      28.07133018      39.29986225       0.00002917       0.00408497      -0.00089120
Na      30.87846319      30.87846319      39.29986225      -0.00002922      -0.00408708       0.00089129
Cl      33.68559621      30.87846319      39.29986225       0.00002921       0.00408704      -0.00089115
Na      33.68559621      33.68559621      39.29986225      -0.00002922      -0.00408705       0.00089132
Cl      36.49272923      33.68559621      39.29986225       0.00002918       0.00408701      -0.00089128
Na      36.49272923      36.49272923      39.29986225      -0.00002922      -0.00408705       0.00089140
Cl      39.29986225      36.49272923      39.29986225       0.00002922       0.00408701      -0.00089135
Na      39.29986225      39.29986225      39.29986225      -0.00002922      -0.00408707       0.00089139
Cl      42.10699527      39.29986225      39.29986225       0.00002919       0.00408704      -0.00089132
Na      42.10699527      42.10699527      39.29986225      -0.00002923      -0.00408708       0.00089140
Cl      44.91412828      42.10699527      39.29986225       0.00002922       0.00408706      -0.00089138
Na      44.91412828      44.91412828      39.29986225      -0.00002923      -0.00408706       0.00089128
Cl      47.72126130      44.91412828      39.29986225       0.00002927       0.00408700      -0.00089127
Na      47.72126130      47.72126130      39.29986225      -0.00002926      -0.00408712       0.00089112
Cl      50.52839432      47.72126130      39.29986225       0.00002945       0.00408707      -0.00089111
Na      50.52839432      50.52839432      39.29986225      -0.00002914      -0.00408700       0.00089055
Cl      53.33552734      50.52839432      39.29986225       0.00003278       0.00408886      -0.00089128
Na      22.45706414      19.64993112      42.10699527      -0.00002982      -0.00408909       0.00089142
Cl      25.26419716      19.64993112      42.10699527       0.00003075       0.00408710      -0.00089119
Na      25.26419716      22.45706414      42.10699527      -0.00002703      -0.00408699       0.00089112
Cl      28.07133018      22.45706414      42.10699527       0.00002693       0.00408708      -0.00089122
Na      28.07133018      25.26419716      42.10699527      -0.00003076      -0.00408554       0.00089140
Cl      30.87846319      25.26419716      42.10699527       0.00002931       0.00408899      -0.00089119
Na      30.87846319      28.07133018      42.10699527      -0.00002913      -0.00408840       0.00089125
Cl      33.68559621      28.07133018      42.10699527       0.00002916       0.00408493      -0.00089113
Na      33.68559621      30.87846319      42.10699527      -0.00002917      -0.00408698       0.00089119
Cl      36.49272923      30.87846319      42.10699527       0.00002915       0.00408701      -0.00089126
Na      36.49272923      33.68559621      42.10699527      -0.00002920      -0.00408702       0.00089131
Cl      39.29986225      33.68559621      42.10699527       0.00002917       0.00408704      -0.00089138
Na      39.29986225      36.49272923      42.10699527      -0.00002921      -0.00408706       0.00089131
Cl      42.10699527      36.49272923      42.10699527       0.00002919       0.00408705      -0.00089133
Na      42.10699527      39.29986225      42.10699527      -0.00002922      -0.00408707       0.00089134
Cl      44.91412828      39.29986225      42.10699527       0.00002921       0.00408706      -0.00089131
Na      44.91412828      42.10699527      42.10699527      -0.00002921      -0.00408708       0.00089139
Cl      47.72126130      42.10699527      42.10699527       0.00002922       0.00408705      -0.00089133
Na      47.72126130      44.91412828      42.10699527      -0.00002924      -0.00408705       0.00089131
Cl      50.52839432      44.91412828      42.10699527       0.00002942       0.00408708      -0.00089129
Na      50.52839432      47.72126130      42.10699527      -0.00002934      -0.00408720       0.00089123
Cl      53.33552734      47.72126130      42.10699527       0.00003345       0.00408740      -0.00089130
Na      53.33552734      50.52839432      42.10699527      -0.00002639      -0.00408771       0.00089125
Cl      56.14266035      50.52839432      42.10699527       0.00002364       0.00408904      -0.00089129
Na      25.26419716      19.64993112      44.91412828      -0.00002545      -0.00408890       0.00089112
Cl      28.07133018      19.64993112      44.91412828       0.00002717       0.00408726      -0.00089144
Na      28.07133018      22.45706414      44.91412828      -0.00003057      -0.00408714       0.00089141
Cl      30.87846319      22.45706414      44.91412828       0.00002916       0.00408706      -0.00089120
Na      30.87846319      25.26419716      44.91412828      -0.00002941      -0.00408554       0.00089122
Cl      33.68559621      25.26419716      44.91412828       0.00002931       0.00408899      -0.00089121
Na      33.68559621      28.07133018      44.91412828      -0.00002913      -0.00408847       0.00089112
Cl      36.49272923      28.07133018      44.91412828       0.00002909       0.00408498      -0.00089115
Na      36.49272923      30.87846319      44.91412828      -0.00002927      -0.00408703       0.00089127
Cl      39.29986225      30.87846319      44.91412828       0.00002912       0.00408708      -0.00089122
Na      39.29986225      33.68559621      44.91412828      -0.00002920      -0.00408706       0.00089137
Cl      42.10699527      33.68559621      44.91412828       0.00002915       0.00408709      -0.00089142
Na      42.10699527      36.49272923      44.91412828      -0.00002920      -0.00408707       0.00089128
Cl      44.91412828      36.49272923      44.91412828       0.00002922       0.00408718      -0.00089139
Na      44.91412828      39.29986225      44.91412828      -0.00002920      -0.00408710       0.00089137
Cl      47.72126130      39.29986225      44.91412828       0.00002923       0.00408718      -0.00089137
Na      47.72126130      42.10699527      44.91412828      -0.00002926      -0.00408710       0.00089130
Cl      50.52839432      42.10699527      44.91412828       0.00002939       0.00408711      -0.00089124
Na      50.52839432      44.91412828      44.91412828      -0.00002922      -0.00408710       0.00089126
Cl      53.33552734      44.91412828      44.91412828       0.00003310       0.00408715      -0.00089120
Na      53.33552734      47.72126130      44.91412828      -0.00002616      -0.00408726       0.00089122
Cl      56.14266035      47.72126130      44.91412828       0.00002486       0.00408730      -0.00089127
Na      56.14266035      50.52839432      44.91412828      -0.00003206      -0.00408760       0.00089131
Cl      58.94979337      50.52839432      44.91412828       0.00002861       0.00408936      -0.00089164
Na      28.07133018      19.64993112      47.72126130      -0.00002962      -0.00408912       0.00089127
Cl      30.87846319      19.64993112      47.72126130       0.00002928       0.00408678      -0.00089068
Na      30.87846319      22.45706414      47.72126130      -0.00002929      -0.00408695       0.00089088
Cl      33.68559621      22.45706414      47.72126130       0.00002909       0.00408688      -0.00089099
Na      33.68559621      25.26419716      47.72126130      -0.00002925      -0.00408539       0.00089088
Cl      36.49272923      25.26419716      47.72126130       0.00002909       0.00408907      -0.00089101
Na      36.49272923      28.07133018      47.72126130      -0.00002913      -0.00408853       0.00089101
Cl      39.29986225      28.07133018      47.72126130       0.00002898       0.00408518      -0.00089116
Na      39.29986225      30.87846319      47.72126130      -0.00002909      -0.00408719       0.00089113
Cl      42.10699527      30.87846319      47.72126130       0.00002884       0.00408715      -0.00089122
Na      42.10699527      33.68559621      47.72126130      -0.00002899      -0.00408717       0.00089119
Cl      44.91412828      33.68559621      47.72126130       0.00002899       0.00408723      -0.00089127
Na      44.91412828      36.49272923      47.72126130      -0.00002903      -0.00408720       0.00089120
Cl      47.72126130      36.49272923      47.72126130       0.00002909       0.00408725      -0.00089124
Na      47.72126130      39.29986225      47.72126130      -0.00002927      -0.00408720       0.00089122
Cl      50.52839432      39.29986225      47.72126130       0.00002941       0.00408718      -0.00089118
Na      50.52839432      42.10699527      47.72126130      -0.00002934      -0.00408715       0.00089119
Cl      53.33552734      42.10699527      47.72126130       0.00003314       0.00408716      -0.00089099
Na      53.33552734      44.91412828      47.72126130      -0.00002600      -0.00408702       0.00089103
Cl      56.14266035      44.91412828      47.72126130       0.00002484       0.00408708      -0.00089104
Na      56.14266035      47.72126130      47.72126130      -0.00003191      -0.00408731       0.00089120
Cl      58.94979337      47.72126130      47.72126130       0.00002836       0.00408711      -0.00089109
Na      58.94979337      50.52839432      47.72126130      -0.00002832      -0.00408718       0.00089102
Cl      61.75692639      50.52839432      47.72126130       0.00002878       0.00409000      -0.00089201
Na      30.87846319      19.64993112      50.52839432      -0.00003030      -0.00408947       0.00089108
Cl      33.68559621      19.64993112      50.52839432       0.00002851       0.00408576      -0.00088779
Na      33.68559621      22.45706414      50.52839432      -0.00002892      -0.00408682       0.00089054
Cl      36.49272923      22.45706414      50.52839432       0.00002935       0.00408642      -0.00088879
Na      36.49272923      25.26419716      50.52839432      -0.00002887      -0.00408571       0.00089104
Cl      39.29986225      25.26419716      50.52839432       0.00002953       0.00408863      -0.00088891
Na      39.29986225      28.07133018      50.52839432      -0.00002887      -0.00408879       0.00089107
Cl      42.10699527      28.07133018      50.52839432       0.00002946       0.00408478      -0.00088899
Na      42.10699527      30.87846319      50.52839432      -0.00002876      -0.00408740       0.00089109
Cl      44.91412828      30.87846319      50.52839432       0.00003097       0.00408628      -0.00088868
Na      44.91412828      33.68559621      50.52839432      -0.00002844      -0.00408761       0.00089136
Cl      47.72126130      33.68559621      50.52839432       0.00003152       0.00408638      -0.00088860
Na      47.72126130      36.49272923      50.52839432      -0.00002854      -0.00408760       0.00089132
Cl      50.52839432      36.49272923      50.52839432       0.00003177       0.00408650      -0.00088868
Na      50.52839432      39.29986225      50.52839432      -0.00002905      -0.00408768       0.00089128
Cl      53.33552734      39.29986225      50.52839432       0.00003279       0.00408724      -0.00088933
Na      53.33552734      42.10699527      50.52839432      -0.00002626      -0.00408720       0.00089072
Cl      56.14266035      42.10699527      50.52839432       0.00002358       0.00408681      -0.00088905
Na      56.14266035      44.91412828      50.52839432      -0.00003210      -0.00408695       0.00089087
Cl      58.94979337      44.91412828      50.52839432       0.00002863       0.00408658      -0.00088874
Na      58.94979337      47.72126130      50.52839432      -0.00002827      -0.00408735       0.00089103
Cl      61.75692639      47.72126130      50.52839432       0.00002861       0.00408605      -0.00088829
Na      61.75692639      50.52839432      50.52839432      -0.00003093      -0.00408738       0.00089089
Cl      64.56405941      50.52839432      50.52839432       0.00003941       0.00408901      -0.00088920
Na      -0.00000000      22.45706414      22.45706414      -0.00003172      -0.00408749       0.00089099
Cl       2.80713302      22.45706414      22.45706414       0.00002818       0.00408656      -0.00089164
Na       2.80713302      25.26419716      22.45706414      -0.00002895      -0.00408493       0.00089079
Cl       5.61426604      25.26419716      22.45706414       0.00002907       0.00408900      -0.00089200
Na       5.61426604      28.07133018      22.45706414      -0.00002885      -0.00408831       0.00089074
Cl       8.42139905      28.07133018      22.45706414       0.00002837       0.00408531      -0.00089209
Na       8.42139905      30.87846319      22.45706414      -0.00002940      -0.00408701       0.00089077
Cl      11.22853207      30.87846319      22.45706414       0.00002986       0.00408743      -0.00089193
Na      11.22853207      33.68559621      22.45706414      -0.00002860      -0.00408683       0.00089062
Cl      14.03566509      33.68559621      22.45706414       0.00002791       0.00408751      -0.00089202
Na      14.03566509      36.49272923      22.45706414      -0.00003155      -0.00408670       0.00089028
Cl      16.84279811      36.49272923      22.45706414       0.00002866       0.00408777      -0.00089216
Na      16.84279811      39.29986225      22.45706414      -0.00003147      -0.00408648       0.00089009
Cl      19.64993112      39.29986225      22.45706414       0.00002856       0.00408783      -0.00089226
Na      19.64993112      42.10699527      22.45706414      -0.00003139      -0.00408676       0.00089042
Cl      22.45706414      42.10699527      22.45706414       0.00002808       0.00408777      -0.00089222
Na      22.45706414      44.91412828      22.45706414      -0.00002996      -0.00408680       0.00089027
Cl      25.26419716      44.91412828      22.45706414       0.00003087       0.00408703      -0.00089173
Na      25.26419716      47.72126130      22.45706414      -0.00002549      -0.00408703       0.00089073
Cl      28.07133018      47.72126130      22.45706414       0.00002723       0.00408698      -0.00089148
Na      28.07133018      50.52839432      22.45706414      -0.00002966      -0.00408702       0.00089072
Cl      30.87846319      50.52839432      22.45706414       0.00002943       0.00408781      -0.00089208
Na      30.87846319      53.33552734      22.45706414      -0.00003105      -0.00408437       0.00089094
Cl      33.68559621      53.33552734      22.45706414       0.00002805       0.00409123      -0.00089244
Na       2.80713302      22.45706414      25.26419716      -0.00002903      -0.00408739       0.00089333
Cl       5.61426604      22.45706414      25.26419716       0.00002893       0.00408618      -0.00088914
Na       5.61426604      25.26419716      25.26419716      -0.00002927      -0.00408506       0.00089312
Cl       8.42139905      25.26419716      25.26419716       0.00002877       0.00408876      -0.00088953
Na       8.42139905      28.07133018      25.26419716      -0.00002983      -0.00408836       0.00089310
Cl      11.22853207      28.07133018      25.26419716       0.00003028       0.00408516      -0.00088953
Na      11.22853207      30.87846319      25.26419716      -0.00002862      -0.00408704       0.00089301
Cl      14.03566509      30.87846319      25.26419716       0.00002824       0.00408699      -0.00088950
Na      14.03566509      33.68559621      25.26419716      -0.00003046      -0.00408691       0.00089302
Cl      16.84279811      33.68559621      25.26419716       0.00002941       0.00408696      -0.00088950
Na      16.84279811      36.49272923      25.26419716      -0.00002951      -0.00408714       0.00089312
Cl      19.64993112      36.49272923      25.26419716       0.00002935       0.00408706      -0.00088971
Na      19.64993112      39.29986225      25.26419716      -0.00002941      -0.00408713       0.00089321
Cl      22.45706414      39.29986225      25.26419716       0.00002929       0.00408715      -0.00088959
Na      22.45706414      42.10699527      25.26419716      -0.00002935      -0.00408717       0.00089307
Cl      25.26419716      42.10699527      25.26419716       0.00003115       0.00408709      -0.00088946
Na      25.26419716      44.91412828      25.26419716      -0.00002742      -0.00408689       0.00089287
Cl      28.07133018      44.91412828      25.26419716       0.00002703       0.00408698      -0.00088941
Na      28.07133018      47.72126130      25.26419716      -0.00003095      -0.00408670       0.00089288
Cl      30.87846319      47.72126130      25.26419716       0.00002935       0.00408694      -0.00088955
Na      30.87846319      50.52839432      25.26419716      -0.00002983      -0.00408681       0.00089298
Cl      33.68559621      50.52839432      25.26419716       0.00002950       0.00408740      -0.00088953
Na      33.68559621      53.33552734      25.26419716      -0.00003014      -0.00408471       0.00089361
Cl      36.49272923      53.33552734      25.26419716       0.00002885       0.00409026      -0.00088925
Na       5.61426604      22.45706414      28.07133018      -0.00002907      -0.00408735       0.00088989
Cl       8.42139905      22.45706414      28.07133018       0.00002855       0.00408629      -0.00089286
Na       8.42139905      25.26419716      28.07133018      -0.00002974      -0.00408523       0.00088994
Cl      11.22853207      25.26419716      28.07133018       0.00003026       0.00408888      -0.00089307
Na      11.22853207      28.07133018      28.07133018      -0.00002849      -0.00408845       0.00088987
Cl      14.03566509      28.07133018      28.07133018       0.00002818       0.00408502      -0.00089328
Na      14.03566509      30.87846319      28.07133018      -0.00002998      -0.00408712       0.00088982
Cl      16.84279811      30.87846319      28.07133018       0.00002916       0.00408709      -0.00089321
Na      16.84279811      33.68559621      28.07133018      -0.00002920      -0.00408705       0.00088987
Cl      19.64993112      33.68559621      28.07133018       0.00002927       0.00408714      -0.00089328
Na      19.64993112      36.49272923      28.07133018      -0.00002930      -0.00408707       0.00088994
Cl      22.45706414      36.49272923      28.07133018       0.00002933       0.00408711      -0.00089331
Na      22.45706414      39.29986225      28.07133018      -0.00002938      -0.00408709       0.00088990
Cl      25.26419716      39.29986225      28.07133018       0.00003110       0.00408718      -0.00089329
Na      25.26419716      42.10699527      28.07133018      -0.00002751      -0.00408705       0.00088990
Cl      28.07133018      42.10699527      28.07133018       0.00002699       0.00408704      -0.00089328
Na      28.07133018      44.91412828      28.07133018      -0.00003068      -0.00408694       0.00088974
Cl      30.87846319      44.91412828      28.07133018       0.00002913       0.00408708      -0.00089319
Na      30.87846319      47.72126130      28.07133018      -0.00002921      -0.00408698       0.00088982
Cl      33.68559621      47.72126130      28.07133018       0.00002915       0.00408716      -0.00089321
Na      33.68559621      50.52839432      28.07133018      -0.00002933      -0.00408709       0.00088989
Cl      36.49272923      50.52839432      28.07133018       0.00002917       0.00408743      -0.00089328
Na      36.49272923      53.33552734      28.07133018      -0.00002960      -0.00408447       0.00089019
Cl      39.29986225      53.33552734      28.07133018       0.00002892       0.00409029      -0.00089304
Na       8.42139905      22.45706414      30.87846319      -0.00002954      -0.00408752       0.00089143
Cl      11.22853207      22.45706414      30.87846319       0.00002987       0.00408629      -0.00089087
Na      11.22853207      25.26419716      30.87846319      -0.00002861      -0.00408526       0.00089146
Cl      14.03566509      25.26419716      30.87846319       0.00002817       0.00408865      -0.00089129
Na      14.03566509      28.07133018      30.87846319      -0.00003001      -0.00408838       0.00089124
Cl      16.84279811      28.07133018      30.87846319       0.00002923       0.00408490      -0.00089119
Na      16.84279811      30.87846319      30.87846319      -0.00002928      -0.00408701       0.00089125
Cl      19.64993112      30.87846319      30.87846319       0.00002920       0.00408700      -0.00089110
Na      19.64993112      33.68559621      30.87846319      -0.00002927      -0.00408705       0.00089129
Cl      22.45706414      33.68559621      30.87846319       0.00002928       0.00408696      -0.00089134
Na      22.45706414      36.49272923      30.87846319      -0.00002929      -0.00408702       0.00089137
Cl      25.26419716      36.49272923      30.87846319       0.00003119       0.00408706      -0.00089124
Na      25.26419716      39.29986225      30.87846319      -0.00002744      -0.00408697       0.00089137
Cl      28.07133018      39.29986225      30.87846319       0.00002697       0.00408711      -0.00089130
Na      28.07133018      42.10699527      30.87846319      -0.00003067      -0.00408714       0.00089135
Cl      30.87846319      42.10699527      30.87846319       0.00002914       0.00408707      -0.00089120
Na      30.87846319      44.91412828      30.87846319      -0.00002923      -0.00408708       0.00089129
Cl      33.68559621      44.91412828      30.87846319       0.00002927       0.00408701      -0.00089126
Na      33.68559621      47.72126130      30.87846319      -0.00002923      -0.00408705       0.00089127
Cl      36.49272923      47.72126130      30.87846319       0.00002926       0.00408718      -0.00089127
Na      36.49272923      50.52839432      30.87846319      -0.00002920      -0.00408717       0.00089145
Cl      39.29986225      50.52839432      30.87846319       0.00002911       0.00408736      -0.00089124
Na      39.29986225      53.33552734      30.87846319      -0.00002961      -0.00408449       0.00089169
Cl      42.10699527      53.33552734      30.87846319       0.00002892       0.00409023      -0.00089088
Na      11.22853207      22.45706414      33.68559621      -0.00002877      -0.00408774       0.00089167
Cl      14.03566509      22.45706414      33.68559621       0.00002796       0.00408619      -0.00089080
Na      14.03566509      25.26419716      33.68559621      -0.00003030      -0.00408520       0.00089124
Cl      16.84279811      25.26419716      33.68559621       0.00002933       0.00408870      -0.00089119
Na      16.84279811      28.07133018      33.68559621      -0.00002922      -0.00408831       0.00089112
Cl      19.64993112      28.07133018      33.68559621       0.00002922       0.00408484      -0.00089108
Na      19.64993112      30.87846319      33.68559621      -0.00002925      -0.00408699       0.00089124
Cl      22.45706414      30.87846319      33.68559621       0.00002936       0.00408693      -0.00089133
Na      22.45706414      33.68559621      33.68559621      -0.00002921      -0.00408698       0.00089137
Cl      25.26419716      33.68559621      33.68559621       0.00003113       0.00408700      -0.00089117
Na      25.26419716      36.49272923      33.68559621      -0.00002747      -0.00408704       0.00089113
Cl      28.07133018      36.49272923      33.68559621       0.00002698       0.00408699      -0.00089131
Na      28.07133018      39.29986225      33.68559621      -0.00003061      -0.00408711       0.00089134
Cl      30.87846319      39.29986225      33.68559621       0.00002910       0.00408712      -0.00089129
Na      30.87846319      42.10699527      33.68559621      -0.00002922      -0.00408710       0.00089126
Cl      33.68559621      42.10699527      33.68559621       0.00002922       0.00408703      -0.00089134
Na      33.68559621      44.91412828      33.68559621      -0.00002922      -0.00408704       0.00089122
Cl      36.49272923      44.91412828      33.68559621       0.00002924       0.00408705      -0.00089134
Na      36.49272923      47.72126130      33.68559621      -0.00002916      -0.00408704       0.00089122
Cl      39.29986225      47.72126130      33.68559621       0.00002918       0.00408705      -0.00089126
Na      39.29986225      50.52839432      33.68559621      -0.00002915      -0.00408714       0.00089126
Cl      42.10699527      50.52839432      33.68559621       0.00002908       0.00408732      -0.00089120
Na      42.10699527      53.33552734      33.68559621      -0.00002954      -0.00408446       0.00089161
Cl      44.91412828      53.33552734      33.68559621       0.00003051       0.00409069      -0.00089120
Na      14.03566509      22.45706414      36.49272923      -0.00003166      -0.00408778       0.00089166
Cl      16.84279811      22.45706414      36.49272923       0.00002872       0.00408603      -0.00089058
Na      16.84279811      25.26419716      36.49272923      -0.00002948      -0.00408506       0.00089120
Cl      19.64993112      25.26419716      36.49272923       0.00002923       0.00408861      -0.00089107
Na      19.64993112      28.07133018      36.49272923      -0.00002929      -0.00408829       0.00089110
Cl      22.45706414      28.07133018      36.49272923       0.00002917       0.00408498      -0.00089111
Na      22.45706414      30.87846319      36.49272923      -0.00002920      -0.00408698       0.00089125
Cl      25.26419716      30.87846319      36.49272923       0.00003125       0.00408716      -0.00089111
Na      25.26419716      33.68559621      36.49272923      -0.00002744      -0.00408706       0.00089114
Cl      28.07133018      33.68559621      36.49272923       0.00002697       0.00408703      -0.00089128
Na      28.07133018      36.49272923      36.49272923      -0.00003062      -0.00408708       0.00089132
Cl      30.87846319      36.49272923      36.49272923       0.00002913       0.00408704      -0.00089122
Na      30.87846319      39.29986225      36.49272923      -0.00002919      -0.00408707       0.00089125
Cl      33.68559621      39.29986225      36.49272923       0.00002923       0.00408706      -0.00089134
Na      33.68559621      42.10699527      36.49272923      -0.00002921      -0.00408706       0.00089136
Cl      36.49272923      42.10699527      36.49272923       0.00002919       0.00408706      -0.00089134
Na      36.49272923      44.91412828      36.49272923      -0.00002920      -0.00408708       0.00089136
Cl      39.29986225      44.91412828      36.49272923       0.00002920       0.00408706      -0.00089136
Na      39.29986225      47.72126130      36.49272923      -0.00002918      -0.00408709       0.00089135
Cl      42.10699527      47.72126130      36.49272923       0.00002915       0.00408702      -0.00089123
Na      42.10699527      50.52839432      36.49272923      -0.00002920      -0.00408711       0.00089120
Cl      44.91412828      50.52839432      36.49272923       0.00002926       0.00408721      -0.00089113
Na      44.91412828      53.33552734      36.49272923      -0.00002928      -0.00408426       0.00089139
Cl      47.72126130      53.33552734      36.49272923       0.00003106       0.00409050      -0.00089112
Na      16.84279811      22.45706414      39.29986225      -0.00003151      -0.00408783       0.00089175
Cl      19.64993112      22.45706414      39.29986225       0.00002848       0.00408582      -0.00089047
Na      19.64993112      25.26419716      39.29986225      -0.00002940      -0.00408506       0.00089122
Cl      22.45706414      25.26419716      39.29986225       0.00002911       0.00408858      -0.00089117
Na      22.45706414      28.07133018      39.29986225      -0.00002918      -0.00408833       0.00089117
Cl      25.26419716      28.07133018      39.29986225       0.00003113       0.00408514      -0.00089119
Na      25.26419716      30.87846319      39.29986225      -0.00002754      -0.00408708       0.00089115
Cl      28.07133018      30.87846319      39.29986225       0.00002706       0.00408704      -0.00089131
Na      28.07133018      33.68559621      39.29986225      -0.00003066      -0.00408712       0.00089132
Cl      30.87846319      33.68559621      39.29986225       0.00002909       0.00408700      -0.00089121
Na      30.87846319      36.49272923      39.29986225      -0.00002918      -0.00408705       0.00089122
Cl      33.68559621      36.49272923      39.29986225       0.00002924       0.00408703      -0.00089135
Na      33.68559621      39.29986225      39.29986225      -0.00002922      -0.00408706       0.00089132
Cl      36.49272923      39.29986225      39.29986225       0.00002920       0.00408707      -0.00089138
Na      36.49272923      42.10699527      39.29986225      -0.00002919      -0.00408706       0.00089133
Cl      39.29986225      42.10699527      39.29986225       0.00002921       0.00408707      -0.00089138
Na      39.29986225      44.91412828      39.29986225      -0.00002919      -0.00408708       0.00089135
Cl      42.10699527      44.91412828      39.29986225       0.00002921       0.00408705      -0.00089136
Na      42.10699527      47.72126130      39.29986225      -0.00002921      -0.00408704       0.00089132
Cl      44.91412828      47.72126130      39.29986225       0.00002924       0.00408709      -0.00089130
Na      44.91412828      50.52839432      39.29986225      -0.00002930      -0.00408713       0.00089119
Cl      47.72126130      50.52839432      39.29986225       0.00002940       0.00408735      -0.00089098
Na      47.72126130      53.33552734      39.29986225      -0.00002947      -0.00408424       0.00089136
Cl      50.52839432      53.33552734      39.29986225       0.00003127       0.00409045      -0.00089122
Na      19.64993112      22.45706414      42.10699527      -0.00003124      -0.00408757       0.00089154
Cl      22.45706414      22.45706414      42.10699527       0.00002789       0.00408584      -0.00089046
Na      22.45706414      25.26419716      42.10699527      -0.00002927      -0.00408505       0.00089116
Cl      25.26419716      25.26419716      42.10699527       0.00003095       0.00408886      -0.00089125
Na      25.26419716      28.07133018      42.10699527      -0.00002757      -0.00408846       0.00089130
Cl      28.07133018      28.07133018      42.10699527       0.00002708       0.00408495      -0.00089123
Na      28.07133018      30.87846319      42.10699527      -0.00003078      -0.00408713       0.00089135
Cl      30.87846319      30.87846319      42.10699527       0.00002913       0.00408699      -0.00089128
Na      30.87846319      33.68559621      42.10699527      -0.00002922      -0.00408705       0.00089121
Cl      33.68559621      33.68559621      42.10699527       0.00002921       0.00408699      -0.00089135
Na      33.68559621      36.49272923      42.10699527      -0.00002922      -0.00408707       0.00089133
Cl      36.49272923      36.49272923      42.10699527       0.00002922       0.00408704      -0.00089139
Na      36.49272923      39.29986225      42.10699527      -0.00002919      -0.00408705       0.00089135
Cl      39.29986225      39.29986225      42.10699527       0.00002919       0.00408705      -0.00089134
Na      39.29986225      42.10699527      42.10699527      -0.00002918      -0.00408705       0.00089136
Cl      42.10699527      42.10699527      42.10699527       0.00002922       0.00408707      -0.00089138
Na      42.10699527      44.91412828      42.10699527      -0.00002921      -0.00408706       0.00089136
Cl      44.91412828      44.91412828      42.10699527       0.00002920       0.00408706      -0.00089134
Na      44.91412828      47.72126130      42.10699527      -0.00002922      -0.00408704       0.00089131
Cl      47.72126130      47.72126130      42.10699527       0.00002927       0.00408706      -0.00089137
Na      47.72126130      50.52839432      42.10699527      -0.00002938      -0.00408707       0.00089126
Cl      50.52839432      50.52839432      42.10699527       0.00002952       0.00408740      -0.00089128
Na      50.52839432      53.33552734      42.10699527      -0.00002970      -0.00408422       0.00089134
Cl      53.33552734      53.33552734      42.10699527       0.00003206       0.00408989      -0.00089058
Na      22.45706414      22.45706414      44.91412828      -0.00003003      -0.00408766       0.00089163
Cl      25.26419716      22.45706414      44.91412828       0.00003075       0.00408659      -0.00089116
Na      25.26419716      25.26419716      44.91412828      -0.00002740      -0.00408533       0.00089154
Cl      28.07133018      25.26419716      44.91412828       0.00002728       0.00408889      -0.00089147
Na      28.07133018      28.07133018      44.91412828      -0.00003076      -0.00408855       0.00089139
Cl      30.87846319      28.07133018      44.91412828       0.00002925       0.00408498      -0.00089120
Na      30.87846319      30.87846319      44.91412828      -0.00002918      -0.00408712       0.00089127
Cl      33.68559621      30.87846319      44.91412828       0.00002923       0.00408704      -0.00089117
Na      33.68559621      33.68559621      44.91412828      -0.00002921      -0.00408707       0.00089130
Cl      36.49272923      33.68559621      44.91412828       0.00002919       0.00408704      -0.00089128
Na      36.49272923      36.49272923      44.91412828      -0.00002918      -0.00408705       0.00089133
Cl      39.29986225      36.49272923      44.91412828       0.00002921       0.00408705      -0.00089133
Na      39.29986225      39.29986225      44.91412828      -0.00002919      -0.00408703       0.00089132
Cl      42.10699527      39.29986225      44.91412828       0.00002924       0.00408707      -0.00089133
Na      42.10699527      42.10699527      44.91412828      -0.00002919      -0.00408706       0.00089133
Cl      44.91412828      42.10699527      44.91412828       0.00002921       0.00408707      -0.00089139
Na      44.91412828      44.91412828      44.91412828      -0.00002916      -0.00408709       0.00089133
Cl      47.72126130      44.91412828      44.91412828       0.00002924       0.00408703      -0.00089128
Na      47.72126130      47.72126130      44.91412828      -0.00002923      -0.00408706       0.00089136
Cl      50.52839432      47.72126130      44.91412828       0.00002942       0.00408716      -0.00089131
Na      50.52839432      50.52839432      44.91412828      -0.00002945      -0.00408727       0.00089141
Cl      53.33552734      50.52839432      44.91412828       0.00003339       0.00408769      -0.00089140
Na      53.33552734      53.33552734      44.91412828      -0.00002691      -0.00408483       0.00089193
Cl      56.14266035      53.33552734      44.91412828       0.00002299       0.00408992      -0.00089061
Na      25.26419716      22.45706414      47.72126130      -0.00002568      -0.00408734       0.00089116
Cl      28.07133018      22.45706414      47.72126130       0.00002739       0.00408665      -0.00089128
Na      28.07133018      25.26419716      47.72126130      -0.00003108      -0.00408543       0.00089166
Cl      30.87846319      25.26419716      47.72126130       0.00002949       0.00408891      -0.00089122
Na      30.87846319      28.07133018      47.72126130      -0.00002922      -0.00408841       0.00089125
Cl      33.68559621      28.07133018      47.72126130       0.00002916       0.00408492      -0.00089109
Na      33.68559621      30.87846319      47.72126130      -0.00002924      -0.00408702       0.00089116
Cl      36.49272923      30.87846319      47.72126130       0.00002920       0.00408709      -0.00089117
Na      36.49272923      33.68559621      47.72126130      -0.00002919      -0.00408708       0.00089125
Cl      39.29986225      33.68559621      47.72126130       0.00002915       0.00408706      -0.00089128
Na      39.29986225      36.49272923      47.72126130      -0.00002919      -0.00408706       0.00089122
Cl      42.10699527      36.49272923      47.72126130       0.00002914       0.00408714      -0.00089122
Na      42.10699527      39.29986225      47.72126130      -0.00002919      -0.00408707       0.00089121
Cl      44.91412828      39.29986225      47.72126130       0.00002914       0.00408715      -0.00089128
Na      44.91412828      42.10699527      47.72126130      -0.00002920      -0.00408704       0.00089125
Cl      47.72126130      42.10699527      47.72126130       0.00002926       0.00408714      -0.00089126
Na      47.72126130      44.91412828      47.72126130      -0.00002924      -0.00408706       0.00089119
Cl      50.52839432      44.91412828      47.72126130       0.00002937       0.00408711      -0.00089117
Na      50.52839432      47.72126130      47.72126130      -0.00002932      -0.00408714       0.00089121
Cl      53.33552734      47.72126130      47.72126130       0.00003324       0.00408720      -0.00089107
Na      53.33552734      50.52839432      47.72126130      -0.00002618      -0.00408719       0.00089120
Cl      56.14266035      50.52839432      47.72126130       0.00002492       0.00408745      -0.00089127
Na      56.14266035      53.33552734      47.72126130      -0.00003272      -0.00408491       0.00089191
Cl      58.94979337      53.33552734      47.72126130       0.00002811       0.00409023      -0.00089087
Na      28.07133018      22.45706414      50.52839432      -0.00002989      -0.00408732       0.00089135
Cl      30.87846319      22.45706414      50.52839432       0.00002949       0.00408615      -0.00089045
Na      30.87846319      25.26419716      50.52839432      -0.00002995      -0.00408506       0.00089131
Cl      33.68559621      25.26419716      50.52839432       0.00002933       0.00408860      -0.00089086
Na      33.68559621      28.07133018      50.52839432      -0.00002938      -0.00408834       0.00089104
Cl      36.49272923      28.07133018      50.52839432       0.00002918       0.00408495      -0.00089072
Na      36.49272923      30.87846319      50.52839432      -0.00002926      -0.00408705       0.00089112
Cl      39.29986225      30.87846319      50.52839432       0.00002920       0.00408699      -0.00089094
Na      39.29986225      33.68559621      50.52839432      -0.00002923      -0.00408701       0.00089117
Cl      42.10699527      33.68559621      50.52839432       0.00002912       0.00408708      -0.00089088
Na      42.10699527      36.49272923      50.52839432      -0.00002914      -0.00408709       0.00089128
Cl      44.91412828      36.49272923      50.52839432       0.00002907       0.00408721      -0.00089104
Na      44.91412828      39.29986225      50.52839432      -0.00002916      -0.00408716       0.00089124
Cl      47.72126130      39.29986225      50.52839432       0.00002923       0.00408715      -0.00089106
Na      47.72126130      42.10699527      50.52839432      -0.00002928      -0.00408711       0.00089129
Cl      50.52839432      42.10699527      50.52839432       0.00002944       0.00408716      -0.00089099
Na      50.52839432      44.91412828      50.52839432      -0.00002931      -0.00408717       0.00089115
Cl      53.33552734      44.91412828      50.52839432       0.00003330       0.00408714      -0.00089085
Na      53.33552734      47.72126130      50.52839432      -0.00002605      -0.00408709       0.00089090
Cl      56.14266035      47.72126130      50.52839432       0.00002488       0.00408700      -0.00089086
Na      56.14266035      50.52839432      50.52839432      -0.00003206      -0.00408715       0.00089118
Cl      58.94979337      50.52839432      50.52839432       0.00002857       0.00408731      -0.00089102
Na      58.94979337      53.33552734      50.52839432      -0.00002916      -0.00408437       0.00089155
Cl      61.75692639      53.33552734      50.52839432       0.00002825       0.00409077      -0.00089139
Na      30.87846319      22.45706414      53.33552734      -0.00003098      -0.00408719       0.00089405
Cl      33.68559621      22.45706414      53.33552734       0.00002786       0.00408586      -0.00088704
Na      33.68559621      25.26419716      53.33552734      -0.00002984      -0.00408444       0.00089358
Cl      36.49272923      25.26419716      53.33552734       0.00002876       0.00408867      -0.00088803
Na      36.49272923      28.07133018      53.33552734      -0.00002952      -0.00408796       0.00089359
Cl      39.29986225      28.07133018      53.33552734       0.00002886       0.00408545      -0.00088800
Na      39.29986225      30.87846319      53.33552734      -0.00002953      -0.00408659       0.00089379
Cl      42.10699527      30.87846319      53.33552734       0.00002884       0.00408726      -0.00088791
Na      42.10699527      33.68559621      53.33552734      -0.00002930      -0.00408670       0.00089361
Cl      44.91412828      33.68559621      53.33552734       0.00003037       0.00408691      -0.00088783
Na      44.91412828      36.49272923      53.33552734      -0.00002919      -0.00408705       0.00089396
Cl      47.72126130      36.49272923      53.33552734       0.00003089       0.00408706      -0.00088767
Na      47.72126130      39.29986225      53.33552734      -0.00002924      -0.00408701       0.00089399
Cl      50.52839432      39.29986225      53.33552734       0.00003126       0.00408713      -0.00088768
Na      50.52839432      42.10699527      53.33552734      -0.00002972      -0.00408711       0.00089402
Cl      53.33552734      42.10699527      53.33552734       0.00003209       0.00408773      -0.00088825
Na      53.33552734      44.91412828      53.33552734      -0.00002688      -0.00408646       0.00089351
Cl      56.14266035      44.91412828      53.33552734       0.00002300       0.00408754      -0.00088814
Na      56.14266035      47.72126130      53.33552734      -0.00003264      -0.00408649       0.00089329
Cl      58.94979337      47.72126130      53.33552734       0.00002800       0.00408712      -0.00088783
Na      58.94979337      50.52839432      53.33552734      -0.00002919      -0.00408673       0.00089364
Cl      61.75692639      50.52839432      53.33552734       0.00002829       0.00408691      -0.00088761
Na      61.75692639      53.33552734      53.33552734      -0.00003228      -0.00408407       0.00089417
Cl      64.56405941      53.33552734      53.33552734       0.00003806       0.00409043      -0.00088770
Na      -0.00000000      25.26419716      25.26419716      -0.00003072      -0.00408373       0.00089483
Cl       2.80713302      25.26419716      25.26419716       0.00002977       0.00408858      -0.00088977
Na       2.80713302      28.07133018      25.26419716      -0.00002855      -0.00408885       0.00089489
Cl       5.61426604      28.07133018      25.26419716       0.00002989       0.00408476      -0.00088945
Na       5.61426604      30.87846319      25.26419716      -0.00002840      -0.00408750       0.00089492
Cl       8.42139905      30.87846319      25.26419716       0.00002907       0.00408664      -0.00088935
Na       8.42139905      33.68559621      25.26419716      -0.00002881      -0.00408737       0.00089484
Cl      11.22853207      33.68559621      25.26419716       0.00003073       0.00408672      -0.00088933
Na      11.22853207      36.49272923      25.26419716      -0.00002814      -0.00408726       0.00089483
Cl      14.03566509      36.49272923      25.26419716       0.00002866       0.00408690      -0.00088940
Na      14.03566509      39.29986225      25.26419716      -0.00003127      -0.00408727       0.00089462
Cl      16.84279811      39.29986225      25.26419716       0.00002943       0.00408709      -0.00088952
Na      16.84279811      42.10699527      25.26419716      -0.00003109      -0.00408704       0.00089433
Cl      19.64993112      42.10699527      25.26419716       0.00002936       0.00408720      -0.00088962
Na      19.64993112      44.91412828      25.26419716      -0.00003096      -0.00408734       0.00089467
Cl      22.45706414      44.91412828      25.26419716       0.00002877       0.00408702      -0.00088961
Na      22.45706414      47.72126130      25.26419716      -0.00002944      -0.00408711       0.00089452
Cl      25.26419716      47.72126130      25.26419716       0.00003146       0.00408655      -0.00088892
Na      25.26419716      50.52839432      25.26419716      -0.00002514      -0.00408725       0.00089505
Cl      28.07133018      50.52839432      25.26419716       0.00002798       0.00408625      -0.00088895
Na      28.07133018      53.33552734      25.26419716      -0.00002930      -0.00408426       0.00089502
Cl      30.87846319      53.33552734      25.26419716       0.00003057       0.00409060      -0.00088950
Na      30.87846319      56.14266035      25.26419716      -0.00003071      -0.00409066       0.00089506
Cl      33.68559621      56.14266035      25.26419716       0.00002888       0.00408152      -0.00088994
Na       2.80713302      25.26419716      28.07133018      -0.00002871      -0.00408325       0.00088956
Cl       5.61426604      25.26419716      28.07133018       0.00002981       0.00408892      -0.00089352
Na       5.61426604      28.07133018      28.07133018      -0.00002917      -0.00408847       0.00088980
Cl       8.42139905      28.07133018      28.07133018       0.00002886       0.00408485      -0.00089320
Na       8.42139905      30.87846319      28.07133018      -0.00002965      -0.00408696       0.00088965
Cl      11.22853207      30.87846319      28.07133018       0.00003038       0.00408709      -0.00089316
Na      11.22853207      33.68559621      28.07133018      -0.00002859      -0.00408688       0.00088973
Cl      14.03566509      33.68559621      28.07133018       0.00002827       0.00408698      -0.00089314
Na      14.03566509      36.49272923      28.07133018      -0.00003020      -0.00408695       0.00088981
Cl      16.84279811      36.49272923      28.07133018       0.00002935       0.00408710      -0.00089332
Na      16.84279811      39.29986225      28.07133018      -0.00002940      -0.00408711       0.00088981
Cl      19.64993112      39.29986225      28.07133018       0.00002933       0.00408718      -0.00089327
Na      19.64993112      42.10699527      28.07133018      -0.00002931      -0.00408713       0.00088992
Cl      22.45706414      42.10699527      28.07133018       0.00002926       0.00408718      -0.00089328
Na      22.45706414      44.91412828      28.07133018      -0.00002914      -0.00408727       0.00088987
Cl      25.26419716      44.91412828      28.07133018       0.00003102       0.00408709      -0.00089321
Na      25.26419716      47.72126130      28.07133018      -0.00002733      -0.00408682       0.00088945
Cl      28.07133018      47.72126130      28.07133018       0.00002715       0.00408682      -0.00089301
Na      28.07133018      50.52839432      28.07133018      -0.00003095      -0.00408647       0.00088950
Cl      30.87846319      50.52839432      28.07133018       0.00002946       0.00408694      -0.00089315
Na      30.87846319      53.33552734      28.07133018      -0.00002992      -0.00408373       0.00088975
Cl      33.68559621      53.33552734      28.07133018       0.00002969       0.00409098      -0.00089332
Na      33.68559621      56.14266035      28.07133018      -0.00002978      -0.00409038       0.00089050
Cl      36.49272923      56.14266035      28.07133018       0.00002900       0.00408108      -0.00089320
Na       5.61426604      25.26419716      30.87846319      -0.00002857      -0.00408345       0.00089105
Cl       8.42139905      25.26419716      30.87846319       0.00002922       0.00408911      -0.00089180
Na       8.42139905      28.07133018      30.87846319      -0.00002986      -0.00408855       0.00089142
Cl      11.22853207      28.07133018      30.87846319       0.00003038       0.00408508      -0.00089136
Na      11.22853207      30.87846319      30.87846319      -0.00002850      -0.00408698       0.00089134
Cl      14.03566509      30.87846319      30.87846319       0.00002819       0.00408700      -0.00089120
Na      14.03566509      33.68559621      30.87846319      -0.00003015      -0.00408701       0.00089116
Cl      16.84279811      33.68559621      30.87846319       0.00002928       0.00408701      -0.00089133
Na      16.84279811      36.49272923      30.87846319      -0.00002934      -0.00408711       0.00089127
Cl      19.64993112      36.49272923      30.87846319       0.00002930       0.00408707      -0.00089127
Na      19.64993112      39.29986225      30.87846319      -0.00002928      -0.00408708       0.00089132
Cl      22.45706414      39.29986225      30.87846319       0.00002927       0.00408705      -0.00089136
Na      22.45706414      42.10699527      30.87846319      -0.00002919      -0.00408715       0.00089126
Cl      25.26419716      42.10699527      30.87846319       0.00003115       0.00408710      -0.00089117
Na      25.26419716      44.91412828      30.87846319      -0.00002741      -0.00408696       0.00089114
Cl      28.07133018      44.91412828      30.87846319       0.00002691       0.00408703      -0.00089117
Na      28.07133018      47.72126130      30.87846319      -0.00003064      -0.00408705       0.00089111
Cl      30.87846319      47.72126130      30.87846319       0.00002916       0.00408709      -0.00089125
Na      30.87846319      50.52839432      30.87846319      -0.00002936      -0.00408687       0.00089117
Cl      33.68559621      50.52839432      30.87846319       0.00002932       0.00408706      -0.00089125
Na      33.68559621      53.33552734      30.87846319      -0.00002954      -0.00408393       0.00089137
Cl      36.49272923      53.33552734      30.87846319       0.00002939       0.00409108      -0.00089150
Na      36.49272923      56.14266035      30.87846319      -0.00002961      -0.00409022       0.00089173
Cl      39.29986225      56.14266035      30.87846319       0.00002913       0.00408095      -0.00089124
Na       8.42139905      25.26419716      33.68559621      -0.00002903      -0.00408338       0.00089092
Cl      11.22853207      25.26419716      33.68559621       0.00003070       0.00408906      -0.00089162
Na      11.22853207      28.07133018      33.68559621      -0.00002857      -0.00408852       0.00089137
Cl      14.03566509      28.07133018      33.68559621       0.00002836       0.00408492      -0.00089109
Na      14.03566509      30.87846319      33.68559621      -0.00003015      -0.00408714       0.00089119
Cl      16.84279811      30.87846319      33.68559621       0.00002927       0.00408692      -0.00089131
Na      16.84279811      33.68559621      33.68559621      -0.00002921      -0.00408698       0.00089126
Cl      19.64993112      33.68559621      33.68559621       0.00002927       0.00408696      -0.00089137
Na      19.64993112      36.49272923      33.68559621      -0.00002923      -0.00408703       0.00089124
Cl      22.45706414      36.49272923      33.68559621       0.00002930       0.00408703      -0.00089129
Na      22.45706414      39.29986225      33.68559621      -0.00002926      -0.00408705       0.00089134
Cl      25.26419716      39.29986225      33.68559621       0.00003110       0.00408716      -0.00089123
Na      25.26419716      42.10699527      33.68559621      -0.00002736      -0.00408709       0.00089107
Cl      28.07133018      42.10699527      33.68559621       0.00002689       0.00408711      -0.00089133
Na      28.07133018      44.91412828      33.68559621      -0.00003059      -0.00408728       0.00089125
Cl      30.87846319      44.91412828      33.68559621       0.00002907       0.00408716      -0.00089124
Na      30.87846319      47.72126130      33.68559621      -0.00002916      -0.00408702       0.00089118
Cl      33.68559621      47.72126130      33.68559621       0.00002918       0.00408700      -0.00089133
Na      33.68559621      50.52839432      33.68559621      -0.00002924      -0.00408694       0.00089122
Cl      36.49272923      50.52839432      33.68559621       0.00002928       0.00408712      -0.00089136
Na      36.49272923      53.33552734      33.68559621      -0.00002936      -0.00408395       0.00089146
Cl      39.29986225      53.33552734      33.68559621       0.00002939       0.00409108      -0.00089151
Na      39.29986225      56.14266035      33.68559621      -0.00002956      -0.00409021       0.00089164
Cl      42.10699527      56.14266035      33.68559621       0.00002913       0.00408097      -0.00089129
Na      11.22853207      25.26419716      36.49272923      -0.00002829      -0.00408353       0.00089139
Cl      14.03566509      25.26419716      36.49272923       0.00002872       0.00408890      -0.00089158
Na      14.03566509      28.07133018      36.49272923      -0.00003026      -0.00408850       0.00089111
Cl      16.84279811      28.07133018      36.49272923       0.00002937       0.00408482      -0.00089113
Na      16.84279811      30.87846319      36.49272923      -0.00002935      -0.00408706       0.00089125
Cl      19.64993112      30.87846319      36.49272923       0.00002918       0.00408698      -0.00089120
Na      19.64993112      33.68559621      36.49272923      -0.00002927      -0.00408702       0.00089132
Cl      22.45706414      33.68559621      36.49272923       0.00002928       0.00408700      -0.00089123
Na      22.45706414      36.49272923      36.49272923      -0.00002926      -0.00408702       0.00089120
Cl      25.26419716      36.49272923      36.49272923       0.00003112       0.00408714      -0.00089115
Na      25.26419716      39.29986225      36.49272923      -0.00002751      -0.00408702       0.00089111
Cl      28.07133018      39.29986225      36.49272923       0.00002693       0.00408704      -0.00089124
Na      28.07133018      42.10699527      36.49272923      -0.00003065      -0.00408724       0.00089114
Cl      30.87846319      42.10699527      36.49272923       0.00002908       0.00408710      -0.00089117
Na      30.87846319      44.91412828      36.49272923      -0.00002914      -0.00408707       0.00089118
Cl      33.68559621      44.91412828      36.49272923       0.00002918       0.00408708      -0.00089131
Na      33.68559621      47.72126130      36.49272923      -0.00002911      -0.00408703       0.00089125
Cl      36.49272923      47.72126130      36.49272923       0.00002920       0.00408701      -0.00089129
Na      36.49272923      50.52839432      36.49272923      -0.00002927      -0.00408695       0.00089127
Cl      39.29986225      50.52839432      36.49272923       0.00002929       0.00408717      -0.00089128
Na      39.29986225      53.33552734      36.49272923      -0.00002931      -0.00408394       0.00089148
Cl      42.10699527      53.33552734      36.49272923       0.00002936       0.00409101      -0.00089138
Na      42.10699527      56.14266035      36.49272923      -0.00002939      -0.00409012       0.00089166
Cl      44.91412828      56.14266035      36.49272923       0.00003048       0.00408141      -0.00089153
Na      14.03566509      25.26419716      39.29986225      -0.00003131      -0.00408352       0.00089128
Cl      16.84279811      25.26419716      39.29986225       0.00002945       0.00408869      -0.00089133
Na      16.84279811      28.07133018      39.29986225      -0.00002938      -0.00408829       0.00089113
Cl      19.64993112      28.07133018      39.29986225       0.00002929       0.00408488      -0.00089113
Na      19.64993112      30.87846319      39.29986225      -0.00002921      -0.00408701       0.00089113
Cl      22.45706414      30.87846319      39.29986225       0.00002926       0.00408701      -0.00089122
Na      22.45706414      33.68559621      39.29986225      -0.00002922      -0.00408700       0.00089119
Cl      25.26419716      33.68559621      39.29986225       0.00003110       0.00408708      -0.00089108
Na      25.26419716      36.49272923      39.29986225      -0.00002747      -0.00408708       0.00089104
Cl      28.07133018      36.49272923      39.29986225       0.00002693       0.00408703      -0.00089121
Na      28.07133018      39.29986225      39.29986225      -0.00003071      -0.00408725       0.00089120
Cl      30.87846319      39.29986225      39.29986225       0.00002907       0.00408711      -0.00089116
Na      30.87846319      42.10699527      39.29986225      -0.00002919      -0.00408709       0.00089108
Cl      33.68559621      42.10699527      39.29986225       0.00002918       0.00408712      -0.00089124
Na      33.68559621      44.91412828      39.29986225      -0.00002909      -0.00408714       0.00089123
Cl      36.49272923      44.91412828      39.29986225       0.00002913       0.00408711      -0.00089130
Na      36.49272923      47.72126130      39.29986225      -0.00002913      -0.00408705       0.00089114
Cl      39.29986225      47.72126130      39.29986225       0.00002915       0.00408704      -0.00089131
Na      39.29986225      50.52839432      39.29986225      -0.00002920      -0.00408694       0.00089120
Cl      42.10699527      50.52839432      39.29986225       0.00002919       0.00408710      -0.00089123
Na      42.10699527      53.33552734      39.29986225      -0.00002925      -0.00408389       0.00089130
Cl      44.91412828      53.33552734      39.29986225       0.00002941       0.00409102      -0.00089135
Na      44.91412828      56.14266035      39.29986225      -0.00002921      -0.00408991       0.00089132
Cl      47.72126130      56.14266035      39.29986225       0.00003115       0.00408119      -0.00089145
Na      16.84279811      25.26419716      42.10699527      -0.00003112      -0.00408365       0.00089141
Cl      19.64993112      25.26419716      42.10699527       0.00002928       0.00408865      -0.00089122
Na      19.64993112      28.07133018      42.10699527      -0.00002924      -0.00408833       0.00089110
Cl      22.45706414      28.07133018      42.10699527       0.00002922       0.00408499      -0.00089113
Na      22.45706414      30.87846319      42.10699527      -0.00002913      -0.00408712       0.00089105
Cl      25.26419716      30.87846319      42.10699527       0.00003119       0.00408719      -0.00089114
Na      25.26419716      33.68559621      42.10699527      -0.00002739      -0.00408714       0.00089099
Cl      28.07133018      33.68559621      42.10699527       0.00002689       0.00408710      -0.00089123
Na      28.07133018      36.49272923      42.10699527      -0.00003058      -0.00408722       0.00089116
Cl      30.87846319      36.49272923      42.10699527       0.00002906       0.00408710      -0.00089119
Na      30.87846319      39.29986225      42.10699527      -0.00002915      -0.00408712       0.00089113
Cl      33.68559621      39.29986225      42.10699527       0.00002915       0.00408715      -0.00089128
Na      33.68559621      42.10699527      42.10699527      -0.00002907      -0.00408713       0.00089111
Cl      36.49272923      42.10699527      42.10699527       0.00002914       0.00408713      -0.00089128
Na      36.49272923      44.91412828      42.10699527      -0.00002908      -0.00408718       0.00089117
Cl      39.29986225      44.91412828      42.10699527       0.00002913       0.00408709      -0.00089124
Na      39.29986225      47.72126130      42.10699527      -0.00002909      -0.00408707       0.00089117
Cl      42.10699527      47.72126130      42.10699527       0.00002918       0.00408703      -0.00089125
Na      42.10699527      50.52839432      42.10699527      -0.00002919      -0.00408700       0.00089116
Cl      44.91412828      50.52839432      42.10699527       0.00002923       0.00408713      -0.00089125
Na      44.91412828      53.33552734      42.10699527      -0.00002931      -0.00408396       0.00089129
Cl      47.72126130      53.33552734      42.10699527       0.00002957       0.00409096      -0.00089145
Na      47.72126130      56.14266035      42.10699527      -0.00002940      -0.00408995       0.00089121
Cl      50.52839432      56.14266035      42.10699527       0.00003128       0.00408118      -0.00089128
Na      19.64993112      25.26419716      44.91412828      -0.00003110      -0.00408344       0.00089104
Cl      22.45706414      25.26419716      44.91412828       0.00002862       0.00408852      -0.00089121
Na      22.45706414      28.07133018      44.91412828      -0.00002903      -0.00408838       0.00089117
Cl      25.26419716      28.07133018      44.91412828       0.00003108       0.00408517      -0.00089140
Na      25.26419716      30.87846319      44.91412828      -0.00002742      -0.00408719       0.00089116
Cl      28.07133018      30.87846319      44.91412828       0.00002699       0.00408715      -0.00089137
Na      28.07133018      33.68559621      44.91412828      -0.00003062      -0.00408723       0.00089120
Cl      30.87846319      33.68559621      44.91412828       0.00002906       0.00408703      -0.00089119
Na      30.87846319      36.49272923      44.91412828      -0.00002912      -0.00408711       0.00089115
Cl      33.68559621      36.49272923      44.91412828       0.00002915       0.00408712      -0.00089131
Na      33.68559621      39.29986225      44.91412828      -0.00002911      -0.00408718       0.00089129
Cl      36.49272923      39.29986225      44.91412828       0.00002914       0.00408716      -0.00089128
Na      36.49272923      42.10699527      44.91412828      -0.00002911      -0.00408713       0.00089118
Cl      39.29986225      42.10699527      44.91412828       0.00002915       0.00408715      -0.00089127
Na      39.29986225      44.91412828      44.91412828      -0.00002905      -0.00408717       0.00089120
Cl      42.10699527      44.91412828      44.91412828       0.00002911       0.00408710      -0.00089127
Na      42.10699527      47.72126130      44.91412828      -0.00002906      -0.00408707       0.00089116
Cl      44.91412828      47.72126130      44.91412828       0.00002917       0.00408703      -0.00089127
Na      44.91412828      50.52839432      44.91412828      -0.00002918      -0.00408698       0.00089117
Cl      47.72126130      50.52839432      44.91412828       0.00002937       0.00408709      -0.00089131
Na      47.72126130      53.33552734      44.91412828      -0.00002950      -0.00408389       0.00089142
Cl      50.52839432      53.33552734      44.91412828       0.00002962       0.00409117      -0.00089143
Na      50.52839432      56.14266035      44.91412828      -0.00002948      -0.00409000       0.00089129
Cl      53.33552734      56.14266035      44.91412828       0.00003204       0.00408076      -0.00089075
Na      22.45706414      25.26419716      47.72126130      -0.00002938      -0.00408366       0.00089121
Cl      25.26419716      25.26419716      47.72126130       0.00003147       0.00408944      -0.00089202
Na      25.26419716      28.07133018      47.72126130      -0.00002725      -0.00408874       0.00089156
Cl      28.07133018      28.07133018      47.72126130       0.00002721       0.00408512      -0.00089145
Na      28.07133018      30.87846319      47.72126130      -0.00003077      -0.00408730       0.00089144
Cl      30.87846319      30.87846319      47.72126130       0.00002919       0.00408703      -0.00089128
Na      30.87846319      33.68559621      47.72126130      -0.00002916      -0.00408712       0.00089124
Cl      33.68559621      33.68559621      47.72126130       0.00002919       0.00408703      -0.00089127
Na      33.68559621      36.49272923      47.72126130      -0.00002910      -0.00408709       0.00089130
Cl      36.49272923      36.49272923      47.72126130       0.00002919       0.00408706      -0.00089127
Na      36.49272923      39.29986225      47.72126130      -0.00002914      -0.00408714       0.00089120
Cl      39.29986225      39.29986225      47.72126130       0.00002920       0.00408710      -0.00089123
Na      39.29986225      42.10699527      47.72126130      -0.00002909      -0.00408715       0.00089115
Cl      42.10699527      42.10699527      47.72126130       0.00002915       0.00408710      -0.00089123
Na      42.10699527      44.91412828      47.72126130      -0.00002917      -0.00408712       0.00089117
Cl      44.91412828      44.91412828      47.72126130       0.00002920       0.00408706      -0.00089123
Na      44.91412828      47.72126130      47.72126130      -0.00002903      -0.00408707       0.00089119
Cl      47.72126130      47.72126130      47.72126130       0.00002923       0.00408702      -0.00089125
Na      47.72126130      50.52839432      47.72126130      -0.00002925      -0.00408701       0.00089126
Cl      50.52839432      50.52839432      47.72126130       0.00002949       0.00408718      -0.00089135
Na      50.52839432      53.33552734      47.72126130      -0.00002953      -0.00408410       0.00089156
Cl      53.33552734      53.33552734      47.72126130       0.00003336       0.00409116      -0.00089158
Na      53.33552734      56.14266035      47.72126130      -0.00002689      -0.00409071       0.00089198
Cl      56.14266035      56.14266035      47.72126130       0.00002308       0.00408088      -0.00089112
Na      25.26419716      25.26419716      50.52839432      -0.00002521      -0.00408315       0.00089092
Cl      28.07133018      25.26419716      50.52839432       0.00002832       0.00408925      -0.00089204
Na      28.07133018      28.07133018      50.52839432      -0.00003103      -0.00408877       0.00089173
Cl      30.87846319      28.07133018      50.52839432       0.00002968       0.00408496      -0.00089118
Na      30.87846319      30.87846319      50.52839432      -0.00002939      -0.00408714       0.00089142
Cl      33.68559621      30.87846319      50.52839432       0.00002929       0.00408692      -0.00089117
Na      33.68559621      33.68559621      50.52839432      -0.00002918      -0.00408703       0.00089128
Cl      36.49272923      33.68559621      50.52839432       0.00002918       0.00408703      -0.00089111
Na      36.49272923      36.49272923      50.52839432      -0.00002920      -0.00408704       0.00089128
Cl      39.29986225      36.49272923      50.52839432       0.00002911       0.00408701      -0.00089113
Na      39.29986225      39.29986225      50.52839432      -0.00002922      -0.00408700       0.00089130
Cl      42.10699527      39.29986225      50.52839432       0.00002910       0.00408707      -0.00089116
Na      42.10699527      42.10699527      50.52839432      -0.00002912      -0.00408709       0.00089129
Cl      44.91412828      42.10699527      50.52839432       0.00002912       0.00408712      -0.00089112
Na      44.91412828      44.91412828      50.52839432      -0.00002912      -0.00408709       0.00089126
Cl      47.72126130      44.91412828      50.52839432       0.00002917       0.00408707      -0.00089109
Na      47.72126130      47.72126130      50.52839432      -0.00002927      -0.00408706       0.00089128
Cl      50.52839432      47.72126130      50.52839432       0.00002943       0.00408708      -0.00089112
Na      50.52839432      50.52839432      50.52839432      -0.00002930      -0.00408695       0.00089132
Cl      53.33552734      50.52839432      50.52839432       0.00003333       0.00408704      -0.00089121
Na      53.33552734      53.33552734      50.52839432      -0.00002641      -0.00408386       0.00089172
Cl      56.14266035      53.33552734      50.52839432       0.00002528       0.00409088      -0.00089154
Na      56.14266035      56.14266035      50.52839432      -0.00003261      -0.00409051       0.00089221
Cl      58.94979337      56.14266035      50.52839432       0.00002826       0.00408082      -0.00089123
Na      28.07133018      25.26419716      53.33552734      -0.00002945      -0.00408308       0.00089396
Cl      30.87846319      25.26419716      53.33552734       0.00003032       0.00408883      -0.00088771
Na      30.87846319      28.07133018      53.33552734      -0.00002999      -0.00408843       0.00089426
Cl      33.68559621      28.07133018      53.33552734       0.00002958       0.00408480      -0.00088717
Na      33.68559621      30.87846319      53.33552734      -0.00002955      -0.00408694       0.00089420
Cl      36.49272923      30.87846319      53.33552734       0.00002945       0.00408685      -0.00088726
Na      36.49272923      33.68559621      53.33552734      -0.00002942      -0.00408693       0.00089421
Cl      39.29986225      33.68559621      53.33552734       0.00002934       0.00408682      -0.00088720
Na      39.29986225      36.49272923      53.33552734      -0.00002931      -0.00408702       0.00089420
Cl      42.10699527      36.49272923      53.33552734       0.00002927       0.00408696      -0.00088730
Na      42.10699527      39.29986225      53.33552734      -0.00002927      -0.00408703       0.00089427
Cl      44.91412828      39.29986225      53.33552734       0.00002927       0.00408713      -0.00088742
Na      44.91412828      42.10699527      53.33552734      -0.00002929      -0.00408713       0.00089424
Cl      47.72126130      42.10699527      53.33552734       0.00002947       0.00408712      -0.00088734
Na      47.72126130      44.91412828      53.33552734      -0.00002936      -0.00408711       0.00089421
Cl      50.52839432      44.91412828      53.33552734       0.00002964       0.00408709      -0.00088720
Na      50.52839432      47.72126130      53.33552734      -0.00002940      -0.00408693       0.00089421
Cl      53.33552734      47.72126130      53.33552734       0.00003336       0.00408694      -0.00088736
Na      53.33552734      50.52839432      53.33552734      -0.00002630      -0.00408660       0.00089430
Cl      56.14266035      50.52839432      53.33552734       0.00002534       0.00408683      -0.00088729
Na      56.14266035      53.33552734      53.33552734      -0.00003248      -0.00408373       0.00089446
Cl      58.94979337      53.33552734      53.33552734       0.00002916       0.00409079      -0.00088746
Na      58.94979337      56.14266035      53.33552734      -0.00002921      -0.00409016       0.00089477
Cl      61.75692639      56.14266035      53.33552734       0.00002859       0.00408157      -0.00088801
Na      30.87846319      25.26419716      56.14266035      -0.00003078      -0.00408294       0.00088782
Cl      33.68559621      25.26419716      56.14266035       0.00002867       0.00408844      -0.00089692
Na      33.68559621      28.07133018      56.14266035      -0.00002989      -0.00408789       0.00088784
Cl      36.49272923      28.07133018      56.14266035       0.00002890       0.00408500      -0.00089690
Na      36.49272923      30.87846319      56.14266035      -0.00002962      -0.00408660       0.00088783
Cl      39.29986225      30.87846319      56.14266035       0.00002895       0.00408725      -0.00089721
Na      39.29986225      33.68559621      56.14266035      -0.00002964      -0.00408666       0.00088785
Cl      42.10699527      33.68559621      56.14266035       0.00002892       0.00408709      -0.00089707
Na      42.10699527      36.49272923      56.14266035      -0.00002939      -0.00408669       0.00088793
Cl      44.91412828      36.49272923      56.14266035       0.00003041       0.00408694      -0.00089680
Na      44.91412828      39.29986225      56.14266035      -0.00002918      -0.00408704       0.00088828
Cl      47.72126130      39.29986225      56.14266035       0.00003110       0.00408692      -0.00089669
Na      47.72126130      42.10699527      56.14266035      -0.00002927      -0.00408708       0.00088820
Cl      50.52839432      42.10699527      56.14266035       0.00003129       0.00408689      -0.00089665
Na      50.52839432      44.91412828      56.14266035      -0.00002961      -0.00408715       0.00088817
Cl      53.33552734      44.91412828      56.14266035       0.00003215       0.00408748      -0.00089730
Na      53.33552734      47.72126130      56.14266035      -0.00002697      -0.00408627       0.00088778
Cl      56.14266035      47.72126130      56.14266035       0.00002314       0.00408751      -0.00089723
Na      56.14266035      50.52839432      56.14266035      -0.00003274      -0.00408617       0.00088767
Cl      58.94979337      50.52839432      56.14266035       0.00002801       0.00408706      -0.00089711
Na      58.94979337      53.33552734      56.14266035      -0.00002934      -0.00408331       0.00088816
Cl      61.75692639      53.33552734      56.14266035       0.00002843       0.00409049      -0.00089662
Na      61.75692639      56.14266035      56.14266035      -0.00003236      -0.00408984       0.00088856
Cl      64.56405941      56.14266035      56.14266035       0.00003815       0.00408122      -0.00089697
Na      -0.00000000      28.07133018      28.07133018      -0.00003050      -0.00408755       0.00089061
Cl       2.80713302      28.07133018      28.07133018       0.00002955       0.00408522      -0.00089285
Na       2.80713302      30.87846319      28.07133018      -0.00002825      -0.00408752       0.00089107
Cl       5.61426604      30.87846319      28.07133018       0.00002956       0.00408692      -0.00089258
Na       5.61426604      33.68559621      28.07133018      -0.00002832      -0.00408735       0.00089105
Cl       8.42139905      33.68559621      28.07133018       0.00002901       0.00408670      -0.00089238
Na       8.42139905      36.49272923      28.07133018      -0.00002879      -0.00408728       0.00089102
Cl      11.22853207      36.49272923      28.07133018       0.00003057       0.00408673      -0.00089259
Na      11.22853207      39.29986225      28.07133018      -0.00002801      -0.00408724       0.00089066
Cl      14.03566509      39.29986225      28.07133018       0.00002853       0.00408698      -0.00089271
Na      14.03566509      42.10699527      28.07133018      -0.00003101      -0.00408742       0.00089064
Cl      16.84279811      42.10699527      28.07133018       0.00002925       0.00408729      -0.00089284
Na      16.84279811      44.91412828      28.07133018      -0.00003084      -0.00408727       0.00089034
Cl      19.64993112      44.91412828      28.07133018       0.00002913       0.00408731      -0.00089296
Na      19.64993112      47.72126130      28.07133018      -0.00003078      -0.00408754       0.00089074
Cl      22.45706414      47.72126130      28.07133018       0.00002860       0.00408722      -0.00089281
Na      22.45706414      50.52839432      28.07133018      -0.00002933      -0.00408688       0.00089075
Cl      25.26419716      50.52839432      28.07133018       0.00003141       0.00408635      -0.00089224
Na      25.26419716      53.33552734      28.07133018      -0.00002509      -0.00408431       0.00089128
Cl      28.07133018      53.33552734      28.07133018       0.00002812       0.00409022      -0.00089209
Na      28.07133018      56.14266035      28.07133018      -0.00002922      -0.00409051       0.00089117
Cl      30.87846319      56.14266035      28.07133018       0.00003017       0.00408294      -0.00089275
Na      30.87846319      58.94979337      28.07133018      -0.00003005      -0.00408749       0.00089101
Cl      33.68559621      58.94979337      28.07133018       0.00002871       0.00408697      -0.00089329
Na       2.80713302      28.07133018      30.87846319      -0.00002835      -0.00408728       0.00089061
Cl       5.61426604      28.07133018      30.87846319       0.00002985       0.00408558      -0.00089136
Na       5.61426604      30.87846319      30.87846319      -0.00002881      -0.00408727       0.00089100
Cl       8.42139905      30.87846319      30.87846319       0.00002871       0.00408709      -0.00089107
Na       8.42139905      33.68559621      30.87846319      -0.00002965      -0.00408707       0.00089089
Cl      11.22853207      33.68559621      30.87846319       0.00003047       0.00408699      -0.00089111
Na      11.22853207      36.49272923      30.87846319      -0.00002834      -0.00408703       0.00089099
Cl      14.03566509      36.49272923      30.87846319       0.00002816       0.00408701      -0.00089105
Na      14.03566509      39.29986225      30.87846319      -0.00003013      -0.00408725       0.00089098
Cl      16.84279811      39.29986225      30.87846319       0.00002933       0.00408718      -0.00089115
Na      16.84279811      42.10699527      30.87846319      -0.00002922      -0.00408738       0.00089114
Cl      19.64993112      42.10699527      30.87846319       0.00002910       0.00408726      -0.00089122
Na      19.64993112      44.91412828      30.87846319      -0.00002897      -0.00408750       0.00089109
Cl      22.45706414      44.91412828      30.87846319       0.00002914       0.00408731      -0.00089121
Na      22.45706414      47.72126130      30.87846319      -0.00002887      -0.00408740       0.00089117
Cl      25.26419716      47.72126130      30.87846319       0.00003091       0.00408707      -0.00089096
Na      25.26419716      50.52839432      30.87846319      -0.00002703      -0.00408660       0.00089064
Cl      28.07133018      50.52839432      30.87846319       0.00002698       0.00408671      -0.00089097
Na      28.07133018      53.33552734      30.87846319      -0.00003098      -0.00408355       0.00089080
Cl      30.87846319      53.33552734      30.87846319       0.00002981       0.00409081      -0.00089111
Na      30.87846319      56.14266035      30.87846319      -0.00002972      -0.00409015       0.00089113
Cl      33.68559621      56.14266035      30.87846319       0.00002948       0.00408310      -0.00089146
Na      33.68559621      58.94979337      30.87846319      -0.00002947      -0.00408747       0.00089134
Cl      36.49272923      58.94979337      30.87846319       0.00002913       0.00408648      -0.00089117
Na       5.61426604      28.07133018      33.68559621      -0.00002839      -0.00408730       0.00089072
Cl       8.42139905      28.07133018      33.68559621       0.00002900       0.00408569      -0.00089155
Na       8.42139905      30.87846319      33.68559621      -0.00002961      -0.00408735       0.00089119
Cl      11.22853207      30.87846319      33.68559621       0.00003036       0.00408725      -0.00089133
Na      11.22853207      33.68559621      33.68559621      -0.00002828      -0.00408703       0.00089121
Cl      14.03566509      33.68559621      33.68559621       0.00002802       0.00408716      -0.00089117
Na      14.03566509      36.49272923      33.68559621      -0.00002996      -0.00408713       0.00089111
Cl      16.84279811      36.49272923      33.68559621       0.00002922       0.00408701      -0.00089116
Na      16.84279811      39.29986225      33.68559621      -0.00002921      -0.00408712       0.00089129
Cl      19.64993112      39.29986225      33.68559621       0.00002931       0.00408711      -0.00089137
Na      19.64993112      42.10699527      33.68559621      -0.00002915      -0.00408730       0.00089119
Cl      22.45706414      42.10699527      33.68559621       0.00002922       0.00408723      -0.00089124
Na      22.45706414      44.91412828      33.68559621      -0.00002901      -0.00408726       0.00089112
Cl      25.26419716      44.91412828      33.68559621       0.00003107       0.00408722      -0.00089105
Na      25.26419716      47.72126130      33.68559621      -0.00002731      -0.00408721       0.00089092
Cl      28.07133018      47.72126130      33.68559621       0.00002686       0.00408711      -0.00089116
Na      28.07133018      50.52839432      33.68559621      -0.00003039      -0.00408685       0.00089102
Cl      30.87846319      50.52839432      33.68559621       0.00002909       0.00408686      -0.00089119
Na      30.87846319      53.33552734      33.68559621      -0.00002946      -0.00408380       0.00089122
Cl      33.68559621      53.33552734      33.68559621       0.00002942       0.00409084      -0.00089143
Na      33.68559621      56.14266035      33.68559621      -0.00002935      -0.00409016       0.00089139
Cl      36.49272923      56.14266035      33.68559621       0.00002934       0.00408297      -0.00089138
Na      36.49272923      58.94979337      33.68559621      -0.00002915      -0.00408698       0.00089121
Cl      39.29986225      58.94979337      33.68559621       0.00002912       0.00408654      -0.00089111
Na       8.42139905      28.07133018      36.49272923      -0.00002889      -0.00408719       0.00089079
Cl      11.22853207      28.07133018      36.49272923       0.00003075       0.00408569      -0.00089141
Na      11.22853207      30.87846319      36.49272923      -0.00002846      -0.00408729       0.00089125
Cl      14.03566509      30.87846319      36.49272923       0.00002825       0.00408712      -0.00089110
Na      14.03566509      33.68559621      36.49272923      -0.00002997      -0.00408713       0.00089118
Cl      16.84279811      33.68559621      36.49272923       0.00002925       0.00408697      -0.00089111
Na      16.84279811      36.49272923      36.49272923      -0.00002917      -0.00408703       0.00089125
Cl      19.64993112      36.49272923      36.49272923       0.00002931       0.00408699      -0.00089131
Na      19.64993112      39.29986225      36.49272923      -0.00002927      -0.00408708       0.00089127
Cl      22.45706414      39.29986225      36.49272923       0.00002936       0.00408715      -0.00089120
Na      22.45706414      42.10699527      36.49272923      -0.00002913      -0.00408731       0.00089124
Cl      25.26419716      42.10699527      36.49272923       0.00003114       0.00408726      -0.00089109
Na      25.26419716      44.91412828      36.49272923      -0.00002737      -0.00408731       0.00089097
Cl      28.07133018      44.91412828      36.49272923       0.00002681       0.00408725      -0.00089118
Na      28.07133018      47.72126130      36.49272923      -0.00003036      -0.00408727       0.00089108
Cl      30.87846319      47.72126130      36.49272923       0.00002893       0.00408709      -0.00089115
Na      30.87846319      50.52839432      36.49272923      -0.00002908      -0.00408677       0.00089118
Cl      33.68559621      50.52839432      36.49272923       0.00002918       0.00408697      -0.00089128
Na      33.68559621      53.33552734      36.49272923      -0.00002935      -0.00408387       0.00089141
Cl      36.49272923      53.33552734      36.49272923       0.00002935       0.00409088      -0.00089148
Na      36.49272923      56.14266035      36.49272923      -0.00002940      -0.00409016       0.00089139
Cl      39.29986225      56.14266035      36.49272923       0.00002935       0.00408289      -0.00089132
Na      39.29986225      58.94979337      36.49272923      -0.00002919      -0.00408689       0.00089115
Cl      42.10699527      58.94979337      36.49272923       0.00002919       0.00408639      -0.00089116
Na      11.22853207      28.07133018      39.29986225      -0.00002816      -0.00408756       0.00089075
Cl      14.03566509      28.07133018      39.29986225       0.00002854       0.00408548      -0.00089124
Na      14.03566509      30.87846319      39.29986225      -0.00003008      -0.00408720       0.00089085
Cl      16.84279811      30.87846319      39.29986225       0.00002923       0.00408696      -0.00089115
Na      16.84279811      33.68559621      39.29986225      -0.00002918      -0.00408696       0.00089104
Cl      19.64993112      33.68559621      39.29986225       0.00002928       0.00408700      -0.00089125
Na      19.64993112      36.49272923      39.29986225      -0.00002932      -0.00408704       0.00089114
Cl      22.45706414      36.49272923      39.29986225       0.00002934       0.00408712      -0.00089119
Na      22.45706414      39.29986225      39.29986225      -0.00002920      -0.00408720       0.00089117
Cl      25.26419716      39.29986225      39.29986225       0.00003126       0.00408728      -0.00089106
Na      25.26419716      42.10699527      39.29986225      -0.00002747      -0.00408736       0.00089104
Cl      28.07133018      42.10699527      39.29986225       0.00002692       0.00408733      -0.00089105
Na      28.07133018      44.91412828      39.29986225      -0.00003043      -0.00408738       0.00089091
Cl      30.87846319      44.91412828      39.29986225       0.00002885       0.00408719      -0.00089106
Na      30.87846319      47.72126130      39.29986225      -0.00002905      -0.00408702       0.00089104
Cl      33.68559621      47.72126130      39.29986225       0.00002907       0.00408717      -0.00089102
Na      33.68559621      50.52839432      39.29986225      -0.00002912      -0.00408684       0.00089102
Cl      36.49272923      50.52839432      39.29986225       0.00002916       0.00408699      -0.00089123
Na      36.49272923      53.33552734      39.29986225      -0.00002935      -0.00408387       0.00089132
Cl      39.29986225      53.33552734      39.29986225       0.00002928       0.00409084      -0.00089134
Na      39.29986225      56.14266035      39.29986225      -0.00002937      -0.00409008       0.00089131
Cl      42.10699527      56.14266035      39.29986225       0.00002928       0.00408286      -0.00089132
Na      42.10699527      58.94979337      39.29986225      -0.00002893      -0.00408687       0.00089114
Cl      44.91412828      58.94979337      39.29986225       0.00003070       0.00408695      -0.00089159
Na      14.03566509      28.07133018      42.10699527      -0.00003104      -0.00408747       0.00089073
Cl      16.84279811      28.07133018      42.10699527       0.00002910       0.00408519      -0.00089098
Na      16.84279811      30.87846319      42.10699527      -0.00002924      -0.00408696       0.00089076
Cl      19.64993112      30.87846319      42.10699527       0.00002920       0.00408695      -0.00089094
Na      19.64993112      33.68559621      42.10699527      -0.00002913      -0.00408700       0.00089086
Cl      22.45706414      33.68559621      42.10699527       0.00002925       0.00408707      -0.00089110
Na      22.45706414      36.49272923      42.10699527      -0.00002913      -0.00408711       0.00089089
Cl      25.26419716      36.49272923      42.10699527       0.00003109       0.00408724      -0.00089085
Na      25.26419716      39.29986225      42.10699527      -0.00002748      -0.00408716       0.00089094
Cl      28.07133018      39.29986225      42.10699527       0.00002691       0.00408730      -0.00089108
Na      28.07133018      42.10699527      42.10699527      -0.00003069      -0.00408760       0.00089097
Cl      30.87846319      42.10699527      42.10699527       0.00002898       0.00408728      -0.00089096
Na      30.87846319      44.91412828      42.10699527      -0.00002901      -0.00408715       0.00089072
Cl      33.68559621      44.91412828      42.10699527       0.00002901       0.00408725      -0.00089098
Na      33.68559621      47.72126130      42.10699527      -0.00002906      -0.00408723       0.00089067
Cl      36.49272923      47.72126130      42.10699527       0.00002898       0.00408715      -0.00089101
Na      36.49272923      50.52839432      42.10699527      -0.00002904      -0.00408686       0.00089091
Cl      39.29986225      50.52839432      42.10699527       0.00002907       0.00408703      -0.00089106
Na      39.29986225      53.33552734      42.10699527      -0.00002940      -0.00408388       0.00089112
Cl      42.10699527      53.33552734      42.10699527       0.00002929       0.00409097      -0.00089118
Na      42.10699527      56.14266035      42.10699527      -0.00002926      -0.00409004       0.00089115
Cl      44.91412828      56.14266035      42.10699527       0.00002924       0.00408294      -0.00089109
Na      44.91412828      58.94979337      42.10699527      -0.00002878      -0.00408687       0.00089049
Cl      47.72126130      58.94979337      42.10699527       0.00003141       0.00408699      -0.00089141
Na      16.84279811      28.07133018      44.91412828      -0.00003086      -0.00408784       0.00089097
Cl      19.64993112      28.07133018      44.91412828       0.00002905       0.00408525      -0.00089089
Na      19.64993112      30.87846319      44.91412828      -0.00002894      -0.00408715       0.00089084
Cl      22.45706414      30.87846319      44.91412828       0.00002903       0.00408714      -0.00089100
Na      22.45706414      33.68559621      44.91412828      -0.00002898      -0.00408723       0.00089105
Cl      25.26419716      33.68559621      44.91412828       0.00003107       0.00408715      -0.00089102
Na      25.26419716      36.49272923      44.91412828      -0.00002736      -0.00408729       0.00089085
Cl      28.07133018      36.49272923      44.91412828       0.00002688       0.00408726      -0.00089113
Na      28.07133018      39.29986225      44.91412828      -0.00003052      -0.00408751       0.00089099
Cl      30.87846319      39.29986225      44.91412828       0.00002903       0.00408719      -0.00089113
Na      30.87846319      42.10699527      44.91412828      -0.00002900      -0.00408755       0.00089106
Cl      33.68559621      42.10699527      44.91412828       0.00002896       0.00408726      -0.00089099
Na      33.68559621      44.91412828      44.91412828      -0.00002889      -0.00408741       0.00089083
Cl      36.49272923      44.91412828      44.91412828       0.00002903       0.00408726      -0.00089102
Na      36.49272923      47.72126130      44.91412828      -0.00002882      -0.00408737       0.00089086
Cl      39.29986225      47.72126130      44.91412828       0.00002889       0.00408717      -0.00089097
Na      39.29986225      50.52839432      44.91412828      -0.00002887      -0.00408697       0.00089085
Cl      42.10699527      50.52839432      44.91412828       0.00002899       0.00408700      -0.00089105
Na      42.10699527      53.33552734      44.91412828      -0.00002911      -0.00408397       0.00089115
Cl      44.91412828      53.33552734      44.91412828       0.00002930       0.00409107      -0.00089127
Na      44.91412828      56.14266035      44.91412828      -0.00002925      -0.00409029       0.00089115
Cl      47.72126130      56.14266035      44.91412828       0.00002933       0.00408294      -0.00089117
Na      47.72126130      58.94979337      44.91412828      -0.00002891      -0.00408688       0.00089077
Cl      50.52839432      58.94979337      44.91412828       0.00003157       0.00408688      -0.00089152
Na      19.64993112      28.07133018      47.72126130      -0.00003073      -0.00408760       0.00089068
Cl      22.45706414      28.07133018      47.72126130       0.00002842       0.00408532      -0.00089122
Na      22.45706414      30.87846319      47.72126130      -0.00002873      -0.00408721       0.00089102
Cl      25.26419716      30.87846319      47.72126130       0.00003099       0.00408738      -0.00089134
Na      25.26419716      33.68559621      47.72126130      -0.00002727      -0.00408734       0.00089104
Cl      28.07133018      33.68559621      47.72126130       0.00002683       0.00408731      -0.00089135
Na      28.07133018      36.49272923      47.72126130      -0.00003043      -0.00408750       0.00089117
Cl      30.87846319      36.49272923      47.72126130       0.00002894       0.00408724      -0.00089113
Na      30.87846319      39.29986225      47.72126130      -0.00002898      -0.00408729       0.00089125
Cl      33.68559621      39.29986225      47.72126130       0.00002899       0.00408713      -0.00089117
Na      33.68559621      42.10699527      47.72126130      -0.00002907      -0.00408754       0.00089120
Cl      36.49272923      42.10699527      47.72126130       0.00002904       0.00408728      -0.00089101
Na      36.49272923      44.91412828      47.72126130      -0.00002883      -0.00408754       0.00089103
Cl      39.29986225      44.91412828      47.72126130       0.00002903       0.00408729      -0.00089112
Na      39.29986225      47.72126130      47.72126130      -0.00002884      -0.00408732       0.00089098
Cl      42.10699527      47.72126130      47.72126130       0.00002897       0.00408718      -0.00089108
Na      42.10699527      50.52839432      47.72126130      -0.00002885      -0.00408697       0.00089091
Cl      44.91412828      50.52839432      47.72126130       0.00002902       0.00408694      -0.00089111
Na      44.91412828      53.33552734      47.72126130      -0.00002916      -0.00408393       0.00089124
Cl      47.72126130      53.33552734      47.72126130       0.00002945       0.00409098      -0.00089143
Na      47.72126130      56.14266035      47.72126130      -0.00002933      -0.00409019       0.00089139
Cl      50.52839432      56.14266035      47.72126130       0.00002956       0.00408302      -0.00089148
Na      50.52839432      58.94979337      47.72126130      -0.00002917      -0.00408685       0.00089093
Cl      53.33552734      58.94979337      47.72126130       0.00003227       0.00408641      -0.00089092
Na      22.45706414      28.07133018      50.52839432      -0.00002921      -0.00408769       0.00089135
Cl      25.26419716      28.07133018      50.52839432       0.00003150       0.00408603      -0.00089206
Na      25.26419716      30.87846319      50.52839432      -0.00002707      -0.00408767       0.00089166
Cl      28.07133018      30.87846319      50.52839432       0.00002709       0.00408735      -0.00089164
Na      28.07133018      33.68559621      50.52839432      -0.00003057      -0.00408749       0.00089172
Cl      30.87846319      33.68559621      50.52839432       0.00002913       0.00408709      -0.00089143
Na      30.87846319      36.49272923      50.52839432      -0.00002908      -0.00408706       0.00089160
Cl      33.68559621      36.49272923      50.52839432       0.00002917       0.00408700      -0.00089135
Na      33.68559621      39.29986225      50.52839432      -0.00002914      -0.00408710       0.00089155
Cl      36.49272923      39.29986225      50.52839432       0.00002919       0.00408703      -0.00089130
Na      36.49272923      42.10699527      50.52839432      -0.00002911      -0.00408731       0.00089144
Cl      39.29986225      42.10699527      50.52839432       0.00002904       0.00408714      -0.00089120
Na      39.29986225      44.91412828      50.52839432      -0.00002894      -0.00408740       0.00089139
Cl      42.10699527      44.91412828      50.52839432       0.00002909       0.00408716      -0.00089120
Na      42.10699527      47.72126130      50.52839432      -0.00002882      -0.00408720       0.00089133
Cl      44.91412828      47.72126130      50.52839432       0.00002901       0.00408702      -0.00089122
Na      44.91412828      50.52839432      50.52839432      -0.00002891      -0.00408690       0.00089150
Cl      47.72126130      50.52839432      50.52839432       0.00002920       0.00408694      -0.00089142
Na      47.72126130      53.33552734      50.52839432      -0.00002925      -0.00408392       0.00089172
Cl      50.52839432      53.33552734      50.52839432       0.00002953       0.00409091      -0.00089170
Na      50.52839432      56.14266035      50.52839432      -0.00002937      -0.00409033       0.00089189
Cl      53.33552734      56.14266035      50.52839432       0.00003333       0.00408327      -0.00089178
Na      53.33552734      58.94979337      50.52839432      -0.00002643      -0.00408755       0.00089189
Cl      56.14266035      58.94979337      50.52839432       0.00002304       0.00408640      -0.00089126
Na      25.26419716      28.07133018      53.33552734      -0.00002499      -0.00408711       0.00089392
Cl      28.07133018      28.07133018      53.33552734       0.00002821       0.00408570      -0.00088808
Na      28.07133018      30.87846319      53.33552734      -0.00003094      -0.00408749       0.00089469
Cl      30.87846319      30.87846319      53.33552734       0.00002970       0.00408719      -0.00088747
Na      30.87846319      33.68559621      53.33552734      -0.00002953      -0.00408703       0.00089454
Cl      33.68559621      33.68559621      53.33552734       0.00002951       0.00408688      -0.00088744
Na      33.68559621      36.49272923      53.33552734      -0.00002951      -0.00408691       0.00089450
Cl      36.49272923      36.49272923      53.33552734       0.00002942       0.00408693      -0.00088743
Na      36.49272923      39.29986225      53.33552734      -0.00002952      -0.00408694       0.00089453
Cl      39.29986225      39.29986225      53.33552734       0.00002934       0.00408704      -0.00088744
Na      39.29986225      42.10699527      53.33552734      -0.00002936      -0.00408708       0.00089432
Cl      42.10699527      42.10699527      53.33552734       0.00002925       0.00408718      -0.00088742
Na      42.10699527      44.91412828      53.33552734      -0.00002928      -0.00408715       0.00089432
Cl      44.91412828      44.91412828      53.33552734       0.00002923       0.00408715      -0.00088739
Na      44.91412828      47.72126130      53.33552734      -0.00002926      -0.00408695       0.00089438
Cl      47.72126130      47.72126130      53.33552734       0.00002939       0.00408694      -0.00088746
Na      47.72126130      50.52839432      53.33552734      -0.00002941      -0.00408646       0.00089430
Cl      50.52839432      50.52839432      53.33552734       0.00002949       0.00408677      -0.00088744
Na      50.52839432      53.33552734      53.33552734      -0.00002962      -0.00408356       0.00089457
Cl      53.33552734      53.33552734      53.33552734       0.00003351       0.00409049      -0.00088788
Na      53.33552734      56.14266035      53.33552734      -0.00002654      -0.00409010       0.00089473
Cl      56.14266035      56.14266035      53.33552734       0.00002551       0.00408314      -0.00088797
Na      56.14266035      58.94979337      53.33552734      -0.00003245      -0.00408733       0.00089485
Cl      58.94979337      58.94979337      53.33552734       0.00002841       0.00408658      -0.00088742
Na      28.07133018      28.07133018      56.14266035      -0.00002926      -0.00408711       0.00088776
Cl      30.87846319      28.07133018      56.14266035       0.00003036       0.00408542      -0.00089517
Na      30.87846319      30.87846319      56.14266035      -0.00002985      -0.00408708       0.00088807
Cl      33.68559621      30.87846319      56.14266035       0.00002956       0.00408705      -0.00089504
Na      33.68559621      33.68559621      56.14266035      -0.00002947      -0.00408686       0.00088790
Cl      36.49272923      33.68559621      56.14266035       0.00002944       0.00408700      -0.00089509
Na      36.49272923      36.49272923      56.14266035      -0.00002940      -0.00408688       0.00088807
Cl      39.29986225      36.49272923      56.14266035       0.00002936       0.00408695      -0.00089505
Na      39.29986225      39.29986225      56.14266035      -0.00002944      -0.00408701       0.00088807
Cl      42.10699527      39.29986225      56.14266035       0.00002921       0.00408715      -0.00089512
Na      42.10699527      42.10699527      56.14266035      -0.00002932      -0.00408723       0.00088809
Cl      44.91412828      42.10699527      56.14266035       0.00002928       0.00408737      -0.00089514
Na      44.91412828      44.91412828      56.14266035      -0.00002918      -0.00408715       0.00088792
Cl      47.72126130      44.91412828      56.14266035       0.00002933       0.00408725      -0.00089507
Na      47.72126130      47.72126130      56.14266035      -0.00002936      -0.00408695       0.00088794
Cl      50.52839432      47.72126130      56.14266035       0.00002955       0.00408713      -0.00089500
Na      50.52839432      50.52839432      56.14266035      -0.00002937      -0.00408646       0.00088786
Cl      53.33552734      50.52839432      56.14266035       0.00003344       0.00408648      -0.00089477
Na      53.33552734      53.33552734      56.14266035      -0.00002662      -0.00408326       0.00088835
Cl      56.14266035      53.33552734      56.14266035       0.00002558       0.00409029      -0.00089478
Na      56.14266035      56.14266035      56.14266035      -0.00003254      -0.00408996       0.00088837
Cl      58.94979337      56.14266035      56.14266035       0.00002910       0.00408286      -0.00089514
Na      58.94979337      58.94979337      56.14266035      -0.00002889      -0.00408703       0.00088812
Cl      61.75692639      58.94979337      56.14266035       0.00002873       0.00408689      -0.00089562
Na      30.87846319      28.07133018      58.94979337      -0.00003013      -0.00408698       0.00089053
Cl      33.68559621      28.07133018      58.94979337       0.00002868       0.00408476      -0.00089141
Na      33.68559621      30.87846319      58.94979337      -0.00002942      -0.00408696       0.00089105
Cl      36.49272923      30.87846319      58.94979337       0.00002911       0.00408702      -0.00089172
Na      36.49272923      33.68559621      58.94979337      -0.00002915      -0.00408696       0.00089124
Cl      39.29986225      33.68559621      58.94979337       0.00002904       0.00408713      -0.00089166
Na      39.29986225      36.49272923      58.94979337      -0.00002907      -0.00408710       0.00089131
Cl      42.10699527      36.49272923      58.94979337       0.00002900       0.00408695      -0.00089177
Na      42.10699527      39.29986225      58.94979337      -0.00002888      -0.00408725       0.00089135
Cl      44.91412828      39.29986225      58.94979337       0.00003056       0.00408672      -0.00089130
Na      44.91412828      42.10699527      58.94979337      -0.00002871      -0.00408754       0.00089168
Cl      47.72126130      42.10699527      58.94979337       0.00003121       0.00408691      -0.00089144
Na      47.72126130      44.91412828      58.94979337      -0.00002882      -0.00408752       0.00089148
Cl      50.52839432      44.91412828      58.94979337       0.00003140       0.00408693      -0.00089133
Na      50.52839432      47.72126130      58.94979337      -0.00002923      -0.00408743       0.00089137
Cl      53.33552734      47.72126130      58.94979337       0.00003233       0.00408745      -0.00089199
Na      53.33552734      50.52839432      58.94979337      -0.00002656      -0.00408626       0.00089059
Cl      56.14266035      50.52839432      58.94979337       0.00002324       0.00408704      -0.00089201
Na      56.14266035      53.33552734      58.94979337      -0.00003256      -0.00408336       0.00089102
Cl      58.94979337      53.33552734      58.94979337       0.00002837       0.00409058      -0.00089190
Na      58.94979337      56.14266035      58.94979337      -0.00002884      -0.00408990       0.00089128
Cl      61.75692639      56.14266035      58.94979337       0.00002854       0.00408243      -0.00089137
Na      61.75692639      58.94979337      58.94979337      -0.00003147      -0.00408705       0.00089137
Cl      64.56405941      58.94979337      58.94979337       0.00003840       0.00408653      -0.00089184
Na      -0.00000000      30.87846319      30.87846319      -0.00003099      -0.00408721       0.00089107
Cl       2.80713302      30.87846319      30.87846319       0.00002886       0.00408729      -0.00089104
Na       2.80713302      33.68559621      30.87846319      -0.00002866      -0.00408720       0.00089124
Cl       5.61426604      33.68559621      30.87846319       0.00002942       0.00408706      -0.00089115
Na       5.61426604      36.49272923      30.87846319      -0.00002849      -0.00408703       0.00089113
Cl       8.42139905      36.49272923      30.87846319       0.00002862       0.00408682      -0.00089110
Na       8.42139905      39.29986225      30.87846319      -0.00002901      -0.00408711       0.00089122
Cl      11.22853207      39.29986225      30.87846319       0.00003021       0.00408723      -0.00089102
Na      11.22853207      42.10699527      30.87846319      -0.00002834      -0.00408713       0.00089095
Cl      14.03566509      42.10699527      30.87846319       0.00002824       0.00408740      -0.00089123
Na      14.03566509      44.91412828      30.87846319      -0.00003166      -0.00408582       0.00089128
Cl      16.84279811      44.91412828      30.87846319       0.00002861       0.00408812      -0.00089120
Na      16.84279811      47.72126130      30.87846319      -0.00003149      -0.00408503       0.00089117
Cl      19.64993112      47.72126130      30.87846319       0.00002844       0.00408785      -0.00089125
Na      19.64993112      50.52839432      30.87846319      -0.00003148      -0.00408516       0.00089167
Cl      22.45706414      50.52839432      30.87846319       0.00002792       0.00408757      -0.00089121
Na      22.45706414      53.33552734      30.87846319      -0.00002958      -0.00408446       0.00089105
Cl      25.26419716      53.33552734      30.87846319       0.00003129       0.00408993      -0.00089104
Na      25.26419716      56.14266035      30.87846319      -0.00002515      -0.00409243       0.00089115
Cl      28.07133018      56.14266035      30.87846319       0.00002790       0.00408259      -0.00089085
Na      28.07133018      58.94979337      30.87846319      -0.00002907      -0.00408801       0.00089084
Cl      30.87846319      58.94979337      30.87846319       0.00002960       0.00408746      -0.00089105
Na      30.87846319      61.75692639      30.87846319      -0.00003015      -0.00408713       0.00089104
Cl      33.68559621      61.75692639      30.87846319       0.00002827       0.00408797      -0.00089168
Na       2.80713302      30.87846319      33.68559621      -0.00002863      -0.00408709       0.00089105
Cl       5.61426604      30.87846319      33.68559621       0.00002938       0.00408727      -0.00089114
Na       5.61426604      33.68559621      33.68559621      -0.00002879      -0.00408716       0.00089108
Cl       8.42139905      33.68559621      33.68559621       0.00002854       0.00408707      -0.00089115
Na       8.42139905      36.49272923      33.68559621      -0.00002949      -0.00408704       0.00089120
Cl      11.22853207      36.49272923      33.68559621       0.00003021       0.00408696      -0.00089113
Na      11.22853207      39.29986225      33.68559621      -0.00002837      -0.00408718       0.00089101
Cl      14.03566509      39.29986225      33.68559621       0.00002808       0.00408721      -0.00089115
Na      14.03566509      42.10699527      33.68559621      -0.00002998      -0.00408724       0.00089121
Cl      16.84279811      42.10699527      33.68559621       0.00002917       0.00408733      -0.00089129
Na      16.84279811      44.91412828      33.68559621      -0.00002966      -0.00408594       0.00089162
Cl      19.64993112      44.91412828      33.68559621       0.00002893       0.00408785      -0.00089102
Na      19.64993112      47.72126130      33.68559621      -0.00002956      -0.00408543       0.00089176
Cl      22.45706414      47.72126130      33.68559621       0.00002886       0.00408756      -0.00089109
Na      22.45706414      50.52839432      33.68559621      -0.00002951      -0.00408538       0.00089184
Cl      25.26419716      50.52839432      33.68559621       0.00003065       0.00408729      -0.00089074
Na      25.26419716      53.33552734      33.68559621      -0.00002708      -0.00408447       0.00089078
Cl      28.07133018      53.33552734      33.68559621       0.00002746       0.00409007      -0.00089135
Na      28.07133018      56.14266035      33.68559621      -0.00003061      -0.00409199       0.00089064
Cl      30.87846319      56.14266035      33.68559621       0.00002963       0.00408288      -0.00089127
Na      30.87846319      58.94979337      33.68559621      -0.00002935      -0.00408771       0.00089085
Cl      33.68559621      58.94979337      33.68559621       0.00002919       0.00408750      -0.00089127
Na      33.68559621      61.75692639      33.68559621      -0.00002895      -0.00408753       0.00089122
Cl      36.49272923      61.75692639      33.68559621       0.00002886       0.00408701      -0.00089110
Na       5.61426604      30.87846319      36.49272923      -0.00002853      -0.00408721       0.00089096
Cl       8.42139905      30.87846319      36.49272923       0.00002864       0.00408728      -0.00089123
Na       8.42139905      33.68559621      36.49272923      -0.00002946      -0.00408716       0.00089126
Cl      11.22853207      33.68559621      36.49272923       0.00003023       0.00408720      -0.00089128
Na      11.22853207      36.49272923      36.49272923      -0.00002843      -0.00408723       0.00089108
Cl      14.03566509      36.49272923      36.49272923       0.00002810       0.00408704      -0.00089122
Na      14.03566509      39.29986225      36.49272923      -0.00002993      -0.00408720       0.00089097
Cl      16.84279811      39.29986225      36.49272923       0.00002914       0.00408720      -0.00089116
Na      16.84279811      42.10699527      36.49272923      -0.00002912      -0.00408717       0.00089125
Cl      19.64993112      42.10699527      36.49272923       0.00002918       0.00408726      -0.00089127
Na      19.64993112      44.91412828      36.49272923      -0.00002948      -0.00408592       0.00089157
Cl      22.45706414      44.91412828      36.49272923       0.00002899       0.00408775      -0.00089096
Na      22.45706414      47.72126130      36.49272923      -0.00002959      -0.00408533       0.00089167
Cl      25.26419716      47.72126130      36.49272923       0.00003077       0.00408755      -0.00089101
Na      25.26419716      50.52839432      36.49272923      -0.00002803      -0.00408506       0.00089173
Cl      28.07133018      50.52839432      36.49272923       0.00002649       0.00408714      -0.00089100
Na      28.07133018      53.33552734      36.49272923      -0.00003048      -0.00408461       0.00089104
Cl      30.87846319      53.33552734      36.49272923       0.00002943       0.00409022      -0.00089142
Na      30.87846319      56.14266035      36.49272923      -0.00002911      -0.00409209       0.00089097
Cl      33.68559621      56.14266035      36.49272923       0.00002951       0.00408296      -0.00089159
Na      33.68559621      58.94979337      36.49272923      -0.00002911      -0.00408783       0.00089102
Cl      36.49272923      58.94979337      36.49272923       0.00002914       0.00408734      -0.00089122
Na      36.49272923      61.75692639      36.49272923      -0.00002888      -0.00408707       0.00089092
Cl      39.29986225      61.75692639      36.49272923       0.00002885       0.00408710      -0.00089093
Na       8.42139905      30.87846319      39.29986225      -0.00002916      -0.00408695       0.00089105
Cl      11.22853207      30.87846319      39.29986225       0.00003030       0.00408723      -0.00089105
Na      11.22853207      33.68559621      39.29986225      -0.00002853      -0.00408721       0.00089115
Cl      14.03566509      33.68559621      39.29986225       0.00002810       0.00408698      -0.00089122
Na      14.03566509      36.49272923      39.29986225      -0.00002973      -0.00408714       0.00089107
Cl      16.84279811      36.49272923      39.29986225       0.00002917       0.00408713      -0.00089112
Na      16.84279811      39.29986225      39.29986225      -0.00002912      -0.00408725       0.00089102
Cl      19.64993112      39.29986225      39.29986225       0.00002922       0.00408712      -0.00089118
Na      19.64993112      42.10699527      39.29986225      -0.00002927      -0.00408708       0.00089122
Cl      22.45706414      42.10699527      39.29986225       0.00002930       0.00408724      -0.00089139
Na      22.45706414      44.91412828      39.29986225      -0.00002964      -0.00408578       0.00089160
Cl      25.26419716      44.91412828      39.29986225       0.00003085       0.00408783      -0.00089092
Na      25.26419716      47.72126130      39.29986225      -0.00002780      -0.00408520       0.00089168
Cl      28.07133018      47.72126130      39.29986225       0.00002664       0.00408735      -0.00089099
Na      28.07133018      50.52839432      39.29986225      -0.00003114      -0.00408508       0.00089166
Cl      30.87846319      50.52839432      39.29986225       0.00002883       0.00408716      -0.00089090
Na      30.87846319      53.33552734      39.29986225      -0.00002908      -0.00408466       0.00089104
Cl      33.68559621      53.33552734      39.29986225       0.00002950       0.00409022      -0.00089147
Na      33.68559621      56.14266035      39.29986225      -0.00002901      -0.00409215       0.00089099
Cl      36.49272923      56.14266035      39.29986225       0.00002951       0.00408287      -0.00089149
Na      36.49272923      58.94979337      39.29986225      -0.00002896      -0.00408772       0.00089088
Cl      39.29986225      58.94979337      39.29986225       0.00002905       0.00408720      -0.00089110
Na      39.29986225      61.75692639      39.29986225      -0.00002894      -0.00408699       0.00089079
Cl      42.10699527      61.75692639      39.29986225       0.00002889       0.00408700      -0.00089092
Na      11.22853207      30.87846319      42.10699527      -0.00002847      -0.00408717       0.00089131
Cl      14.03566509      30.87846319      42.10699527       0.00002810       0.00408683      -0.00089088
Na      14.03566509      33.68559621      42.10699527      -0.00003019      -0.00408698       0.00089098
Cl      16.84279811      33.68559621      42.10699527       0.00002918       0.00408693      -0.00089088
Na      16.84279811      36.49272923      42.10699527      -0.00002924      -0.00408693       0.00089096
Cl      19.64993112      36.49272923      42.10699527       0.00002918       0.00408701      -0.00089087
Na      19.64993112      39.29986225      42.10699527      -0.00002926      -0.00408710       0.00089097
Cl      22.45706414      39.29986225      42.10699527       0.00002928       0.00408708      -0.00089091
Na      22.45706414      42.10699527      42.10699527      -0.00002924      -0.00408710       0.00089121
Cl      25.26419716      42.10699527      42.10699527       0.00003127       0.00408725      -0.00089107
Na      25.26419716      44.91412828      42.10699527      -0.00002798      -0.00408576       0.00089159
Cl      28.07133018      44.91412828      42.10699527       0.00002681       0.00408774      -0.00089082
Na      28.07133018      47.72126130      42.10699527      -0.00003116      -0.00408509       0.00089145
Cl      30.87846319      47.72126130      42.10699527       0.00002898       0.00408728      -0.00089079
Na      30.87846319      50.52839432      42.10699527      -0.00002964      -0.00408517       0.00089170
Cl      33.68559621      50.52839432      42.10699527       0.00002882       0.00408717      -0.00089068
Na      33.68559621      53.33552734      42.10699527      -0.00002927      -0.00408450       0.00089109
Cl      36.49272923      53.33552734      42.10699527       0.00002967       0.00409020      -0.00089133
Na      36.49272923      56.14266035      42.10699527      -0.00002914      -0.00409202       0.00089101
Cl      39.29986225      56.14266035      42.10699527       0.00002946       0.00408277      -0.00089149
Na      39.29986225      58.94979337      42.10699527      -0.00002897      -0.00408774       0.00089083
Cl      42.10699527      58.94979337      42.10699527       0.00002895       0.00408712      -0.00089088
Na      42.10699527      61.75692639      42.10699527      -0.00002887      -0.00408703       0.00089080
Cl      44.91412828      61.75692639      42.10699527       0.00003070       0.00408743      -0.00089123
Na      14.03566509      30.87846319      44.91412828      -0.00003171      -0.00408669       0.00089271
Cl      16.84279811      30.87846319      44.91412828       0.00002854       0.00408705      -0.00089021
Na      16.84279811      33.68559621      44.91412828      -0.00002956      -0.00408658       0.00089228
Cl      19.64993112      33.68559621      44.91412828       0.00002875       0.00408719      -0.00089036
Na      19.64993112      36.49272923      44.91412828      -0.00002952      -0.00408679       0.00089222
Cl      22.45706414      36.49272923      44.91412828       0.00002882       0.00408739      -0.00089045
Na      22.45706414      39.29986225      44.91412828      -0.00002952      -0.00408682       0.00089223
Cl      25.26419716      39.29986225      44.91412828       0.00003086       0.00408763      -0.00089048
Na      25.26419716      42.10699527      44.91412828      -0.00002791      -0.00408686       0.00089242
Cl      28.07133018      42.10699527      44.91412828       0.00002676       0.00408756      -0.00089063
Na      28.07133018      44.91412828      44.91412828      -0.00003138      -0.00408545       0.00089275
Cl      30.87846319      44.91412828      44.91412828       0.00002855       0.00408796      -0.00089021
Na      30.87846319      47.72126130      44.91412828      -0.00003002      -0.00408460       0.00089289
Cl      33.68559621      47.72126130      44.91412828       0.00002859       0.00408763      -0.00089023
Na      33.68559621      50.52839432      44.91412828      -0.00003013      -0.00408459       0.00089307
Cl      36.49272923      50.52839432      44.91412828       0.00002860       0.00408748      -0.00089038
Na      36.49272923      53.33552734      44.91412828      -0.00002956      -0.00408420       0.00089237
Cl      39.29986225      53.33552734      44.91412828       0.00002931       0.00409034      -0.00089096
Na      39.29986225      56.14266035      44.91412828      -0.00002939      -0.00409175       0.00089254
Cl      42.10699527      56.14266035      44.91412828       0.00002927       0.00408311      -0.00089101
Na      42.10699527      58.94979337      44.91412828      -0.00002929      -0.00408743       0.00089225
Cl      44.91412828      58.94979337      44.91412828       0.00002883       0.00408745      -0.00089038
Na      44.91412828      61.75692639      44.91412828      -0.00002907      -0.00408646       0.00089194
Cl      47.72126130      61.75692639      44.91412828       0.00003098       0.00408750      -0.00089066
Na      16.84279811      30.87846319      47.72126130      -0.00003166      -0.00408712       0.00089340
Cl      19.64993112      30.87846319      47.72126130       0.00002839       0.00408706      -0.00089042
Na      19.64993112      33.68559621      47.72126130      -0.00002930      -0.00408665       0.00089285
Cl      22.45706414      33.68559621      47.72126130       0.00002869       0.00408721      -0.00089073
Na      22.45706414      36.49272923      47.72126130      -0.00002944      -0.00408687       0.00089296
Cl      25.26419716      36.49272923      47.72126130       0.00003078       0.00408760      -0.00089076
Na      25.26419716      39.29986225      47.72126130      -0.00002785      -0.00408689       0.00089305
Cl      28.07133018      39.29986225      47.72126130       0.00002664       0.00408744      -0.00089092
Na      28.07133018      42.10699527      47.72126130      -0.00003095      -0.00408687       0.00089316
Cl      30.87846319      42.10699527      47.72126130       0.00002880       0.00408757      -0.00089090
Na      30.87846319      44.91412828      47.72126130      -0.00002988      -0.00408573       0.00089338
Cl      33.68559621      44.91412828      47.72126130       0.00002857       0.00408814      -0.00089057
Na      33.68559621      47.72126130      47.72126130      -0.00003003      -0.00408472       0.00089360
Cl      36.49272923      47.72126130      47.72126130       0.00002855       0.00408779      -0.00089063
Na      36.49272923      50.52839432      47.72126130      -0.00003008      -0.00408461       0.00089374
Cl      39.29986225      50.52839432      47.72126130       0.00002848       0.00408741      -0.00089053
Na      39.29986225      53.33552734      47.72126130      -0.00002963      -0.00408420       0.00089308
Cl      42.10699527      53.33552734      47.72126130       0.00002924       0.00409041      -0.00089122
Na      42.10699527      56.14266035      47.72126130      -0.00002957      -0.00409169       0.00089304
Cl      44.91412828      56.14266035      47.72126130       0.00002915       0.00408317      -0.00089134
Na      44.91412828      58.94979337      47.72126130      -0.00002950      -0.00408756       0.00089297
Cl      47.72126130      58.94979337      47.72126130       0.00002894       0.00408755      -0.00089081
Na      47.72126130      61.75692639      47.72126130      -0.00002910      -0.00408651       0.00089261
Cl      50.52839432      61.75692639      47.72126130       0.00003113       0.00408764      -0.00089094
Na      19.64993112      30.87846319      50.52839432      -0.00003148      -0.00408680       0.00089318
Cl      22.45706414      30.87846319      50.52839432       0.00002779       0.00408728      -0.00089060
Na      22.45706414      33.68559621      50.52839432      -0.00002939      -0.00408668       0.00089282
Cl      25.26419716      33.68559621      50.52839432       0.00003061       0.00408760      -0.00089104
Na      25.26419716      36.49272923      50.52839432      -0.00002777      -0.00408682       0.00089318
Cl      28.07133018      36.49272923      50.52839432       0.00002651       0.00408747      -0.00089120
Na      28.07133018      39.29986225      50.52839432      -0.00003093      -0.00408680       0.00089317
Cl      30.87846319      39.29986225      50.52839432       0.00002871       0.00408735      -0.00089120
Na      30.87846319      42.10699527      50.52839432      -0.00002953      -0.00408686       0.00089305
Cl      33.68559621      42.10699527      50.52839432       0.00002881       0.00408762      -0.00089118
Na      33.68559621      44.91412828      50.52839432      -0.00002996      -0.00408553       0.00089349
Cl      36.49272923      44.91412828      50.52839432       0.00002864       0.00408800      -0.00089094
Na      36.49272923      47.72126130      50.52839432      -0.00003001      -0.00408464       0.00089376
Cl      39.29986225      47.72126130      50.52839432       0.00002847       0.00408783      -0.00089088
Na      39.29986225      50.52839432      50.52839432      -0.00003028      -0.00408462       0.00089371
Cl      42.10699527      50.52839432      50.52839432       0.00002846       0.00408738      -0.00089089
Na      42.10699527      53.33552734      50.52839432      -0.00002968      -0.00408412       0.00089314
Cl      44.91412828      53.33552734      50.52839432       0.00002919       0.00409041      -0.00089152
Na      44.91412828      56.14266035      50.52839432      -0.00002946      -0.00409163       0.00089318
Cl      47.72126130      56.14266035      50.52839432       0.00002921       0.00408334      -0.00089152
Na      47.72126130      58.94979337      50.52839432      -0.00002961      -0.00408750       0.00089309
Cl      50.52839432      58.94979337      50.52839432       0.00002909       0.00408769      -0.00089114
Na      50.52839432      61.75692639      50.52839432      -0.00002954      -0.00408646       0.00089263
Cl      53.33552734      61.75692639      50.52839432       0.00003187       0.00408717      -0.00089044
Na      22.45706414      30.87846319      53.33552734      -0.00002943      -0.00408749       0.00089382
Cl      25.26419716      30.87846319      53.33552734       0.00003129       0.00408742      -0.00088851
Na      25.26419716      33.68559621      53.33552734      -0.00002696      -0.00408758       0.00089377
Cl      28.07133018      33.68559621      53.33552734       0.00002743       0.00408719      -0.00088828
Na      28.07133018      36.49272923      53.33552734      -0.00003048      -0.00408746       0.00089371
Cl      30.87846319      36.49272923      53.33552734       0.00002958       0.00408695      -0.00088830
Na      30.87846319      39.29986225      53.33552734      -0.00002889      -0.00408753       0.00089347
Cl      33.68559621      39.29986225      53.33552734       0.00002969       0.00408691      -0.00088811
Na      33.68559621      42.10699527      53.33552734      -0.00002903      -0.00408744       0.00089357
Cl      36.49272923      42.10699527      53.33552734       0.00002971       0.00408710      -0.00088814
Na      36.49272923      44.91412828      53.33552734      -0.00002947      -0.00408609       0.00089407
Cl      39.29986225      44.91412828      53.33552734       0.00002929       0.00408742      -0.00088791
Na      39.29986225      47.72126130      53.33552734      -0.00002952      -0.00408538       0.00089414
Cl      42.10699527      47.72126130      53.33552734       0.00002936       0.00408718      -0.00088790
Na      42.10699527      50.52839432      53.33552734      -0.00002968      -0.00408528       0.00089416
Cl      44.91412828      50.52839432      53.33552734       0.00002927       0.00408685      -0.00088796
Na      44.91412828      53.33552734      53.33552734      -0.00002896      -0.00408478       0.00089350
Cl      47.72126130      53.33552734      53.33552734       0.00002983       0.00408974      -0.00088843
Na      47.72126130      56.14266035      53.33552734      -0.00002894      -0.00409229       0.00089338
Cl      50.52839432      56.14266035      53.33552734       0.00002995       0.00408279      -0.00088867
Na      50.52839432      58.94979337      53.33552734      -0.00002892      -0.00408831       0.00089357
Cl      53.33552734      58.94979337      53.33552734       0.00003345       0.00408733      -0.00088835
Na      53.33552734      61.75692639      53.33552734      -0.00002612      -0.00408778       0.00089361
Cl      56.14266035      61.75692639      53.33552734       0.00002319       0.00408662      -0.00088787
Na      25.26419716      30.87846319      56.14266035      -0.00002519      -0.00408717       0.00088594
Cl      28.07133018      30.87846319      56.14266035       0.00002800       0.00408740      -0.00089549
Na      28.07133018      33.68559621      56.14266035      -0.00003080      -0.00408753       0.00088632
Cl      30.87846319      33.68559621      56.14266035       0.00002967       0.00408689      -0.00089518
Na      30.87846319      36.49272923      56.14266035      -0.00002906      -0.00408733       0.00088611
Cl      33.68559621      36.49272923      56.14266035       0.00002946       0.00408682      -0.00089508
Na      33.68559621      39.29986225      56.14266035      -0.00002909      -0.00408722       0.00088596
Cl      36.49272923      39.29986225      56.14266035       0.00002955       0.00408684      -0.00089506
Na      36.49272923      42.10699527      56.14266035      -0.00002911      -0.00408716       0.00088603
Cl      39.29986225      42.10699527      56.14266035       0.00002954       0.00408695      -0.00089500
Na      39.29986225      44.91412828      56.14266035      -0.00002952      -0.00408584       0.00088633
Cl      42.10699527      44.91412828      56.14266035       0.00002931       0.00408739      -0.00089498
Na      42.10699527      47.72126130      56.14266035      -0.00002967      -0.00408532       0.00088648
Cl      44.91412828      47.72126130      56.14266035       0.00002927       0.00408698      -0.00089503
Na      44.91412828      50.52839432      56.14266035      -0.00002974      -0.00408522       0.00088661
Cl      47.72126130      50.52839432      56.14266035       0.00002932       0.00408668      -0.00089495
Na      47.72126130      53.33552734      56.14266035      -0.00002900      -0.00408485       0.00088584
Cl      50.52839432      53.33552734      56.14266035       0.00002991       0.00408968      -0.00089529
Na      50.52839432      56.14266035      56.14266035      -0.00002874      -0.00409235       0.00088596
Cl      53.33552734      56.14266035      56.14266035       0.00003358       0.00408278      -0.00089541
Na      53.33552734      58.94979337      56.14266035      -0.00002575      -0.00408809       0.00088618
Cl      56.14266035      58.94979337      56.14266035       0.00002538       0.00408723      -0.00089538
Na      56.14266035      61.75692639      56.14266035      -0.00003185      -0.00408762       0.00088631
Cl      58.94979337      61.75692639      56.14266035       0.00002829       0.00408691      -0.00089526
Na      28.07133018      30.87846319      58.94979337      -0.00002924      -0.00408708       0.00089026
Cl      30.87846319      30.87846319      58.94979337       0.00002968       0.00408714      -0.00089104
Na      30.87846319      33.68559621      58.94979337      -0.00002944      -0.00408729       0.00089039
Cl      33.68559621      33.68559621      58.94979337       0.00002909       0.00408726      -0.00089084
Na      33.68559621      36.49272923      58.94979337      -0.00002910      -0.00408746       0.00089036
Cl      36.49272923      36.49272923      58.94979337       0.00002901       0.00408716      -0.00089097
Na      36.49272923      39.29986225      58.94979337      -0.00002899      -0.00408741       0.00089031
Cl      39.29986225      39.29986225      58.94979337       0.00002899       0.00408728      -0.00089103
Na      39.29986225      42.10699527      58.94979337      -0.00002906      -0.00408738       0.00089041
Cl      42.10699527      42.10699527      58.94979337       0.00002893       0.00408743      -0.00089112
Na      42.10699527      44.91412828      58.94979337      -0.00002943      -0.00408593       0.00089095
Cl      44.91412828      44.91412828      58.94979337       0.00002881       0.00408781      -0.00089090
Na      44.91412828      47.72126130      58.94979337      -0.00002937      -0.00408539       0.00089097
Cl      47.72126130      47.72126130      58.94979337       0.00002893       0.00408750      -0.00089075
Na      47.72126130      50.52839432      58.94979337      -0.00002960      -0.00408541       0.00089100
Cl      50.52839432      50.52839432      58.94979337       0.00002910       0.00408713      -0.00089059
Na      50.52839432      53.33552734      58.94979337      -0.00002896      -0.00408473       0.00089027
Cl      53.33552734      53.33552734      58.94979337       0.00003353       0.00408987      -0.00089123
Na      53.33552734      56.14266035      58.94979337      -0.00002568      -0.00409221       0.00089018
Cl      56.14266035      56.14266035      58.94979337       0.00002546       0.00408274      -0.00089114
Na      56.14266035      58.94979337      58.94979337      -0.00003186      -0.00408785       0.00089030
Cl      58.94979337      58.94979337      58.94979337       0.00002856       0.00408743      -0.00089098
Na      58.94979337      61.75692639      58.94979337      -0.00002835      -0.00408730       0.00089024
Cl      61.75692639      61.75692639      58.94979337       0.00002824       0.00408758      -0.00089153
Na      30.87846319      30.87846319      61.75692639      -0.00003019      -0.00408714       0.00089095
Cl      33.68559621      30.87846319      61.75692639       0.00002823       0.00408647      -0.00089028
Na      33.68559621      33.68559621      61.75692639      -0.00002925      -0.00408713       0.00089089
Cl      36.49272923      33.68559621      61.75692639       0.00002892       0.00408712      -0.00089120
Na      36.49272923      36.49272923      61.75692639      -0.00002890      -0.00408721       0.00089117
Cl      39.29986225      36.49272923      61.75692639       0.00002885       0.00408709      -0.00089127
Na      39.29986225      39.29986225      61.75692639      -0.00002883      -0.00408731       0.00089125
Cl      42.10699527      39.29986225      61.75692639       0.00002894       0.00408728      -0.00089129
Na      42.10699527      42.10699527      61.75692639      -0.00002881      -0.00408733       0.00089129
Cl      44.91412828      42.10699527      61.75692639       0.00003050       0.00408725      -0.00089103
Na      44.91412828      44.91412828      61.75692639      -0.00002896      -0.00408643       0.00089191
Cl      47.72126130      44.91412828      61.75692639       0.00003085       0.00408751      -0.00089052
Na      47.72126130      47.72126130      61.75692639      -0.00002925      -0.00408564       0.00089200
Cl      50.52839432      47.72126130      61.75692639       0.00003112       0.00408725      -0.00089054
Na      50.52839432      50.52839432      61.75692639      -0.00002969      -0.00408547       0.00089219
Cl      53.33552734      50.52839432      61.75692639       0.00003195       0.00408772      -0.00089113
Na      53.33552734      53.33552734      61.75692639      -0.00002639      -0.00408446       0.00089054
Cl      56.14266035      53.33552734      61.75692639       0.00002338       0.00409036      -0.00089194
Na      56.14266035      56.14266035      61.75692639      -0.00003189      -0.00409197       0.00089056
Cl      58.94979337      56.14266035      61.75692639       0.00002839       0.00408306      -0.00089147
Na      58.94979337      58.94979337      61.75692639      -0.00002829      -0.00408808       0.00089088
Cl      61.75692639      58.94979337      61.75692639       0.00002820       0.00408685      -0.00089058
Na      61.75692639      61.75692639      61.75692639      -0.00003115      -0.00408710       0.00089100
Cl      64.56405941      61.75692639      61.75692639       0.00003830       0.00408709      -0.00089094
