
     Program PWSCF v.7.2 starts on 22Dec2024 at 16:44:41 

     This program is part of the open-source Quantum ESPRESSO suite
     for quantum simulation of materials; please cite
         "P. Giannozzi et al., J. Phys.:Condens. Matter 21 395502 (2009);
         "P. Giannozzi et al., J. Phys.:Condens. Matter 29 465901 (2017);
         "P. Giannozzi et al., J. Chem. Phys. 152 154105 (2020);
          URL http://www.quantum-espresso.org", 
     in publications or presentations arising from this work. More details at
     http://www.quantum-espresso.org/quote

     Parallel version (MPI), running on    16 processors

     MPI processes distributed on     1 nodes
     55006 MiB available memory on the printing compute node when the environment starts

     Waiting for input...
     Reading input from standard input

     Current dimensions of program PWSCF are:
     Max number of different atomic species (ntypx) = 10
     Max number of k-points (npk) =  40000
     Max angular momentum in pseudopotentials (lmaxx) =  4
     Message from routine volume:
     axis vectors are left-handed
     Message from routine setup:
     using ibrav=0 with symmetry is DISCOURAGED, use correct ibrav instead

     R & G space division:  proc/nbgrp/npool/nimage =      16
     Subspace diagonalization in iterative solution of the eigenvalue problem:
     a serial algorithm will be used


     Parallelization info
     --------------------
     sticks:   dense  smooth     PW     G-vecs:    dense   smooth      PW
     Min          53      27      9                 1054      373      70
     Max          54      28     10                 1057      376      72
     Sum         859     433    151                16889     5985    1139

     Using Slab Decomposition



     bravais-lattice index     =            0
     lattice parameter (alat)  =       7.2595  a.u.
     unit-cell volume          =     270.5223 (a.u.)^3
     number of atoms/cell      =            2
     number of atomic types    =            1
     number of electrons       =         8.00
     number of Kohn-Sham states=            4
     kinetic-energy cutoff     =      30.0000  Ry
     charge density cutoff     =     240.0000  Ry
     scf convergence threshold =      4.0E-10
     mixing beta               =       0.4000
     number of iterations used =            8  plain     mixing
     Exchange-correlation= PBESOL
                           (   1   4  10   8   0   0   0)

     celldm(1)=   7.259489  celldm(2)=   0.000000  celldm(3)=   0.000000
     celldm(4)=   0.000000  celldm(5)=   0.000000  celldm(6)=   0.000000

     crystal axes: (cart. coord. in units of alat)
               a(1) = (   0.707107   0.707107   0.000000 )  
               a(2) = (   0.707107   0.000000   0.707107 )  
               a(3) = (   0.000000   0.707107   0.707107 )  

     reciprocal axes: (cart. coord. in units 2 pi/alat)
               b(1) = (  0.707107  0.707107 -0.707107 )  
               b(2) = (  0.707107 -0.707107  0.707107 )  
               b(3) = ( -0.707107  0.707107  0.707107 )  


     PseudoPot. # 1 for Si read from file:
     ../pseudo/Si.pbesol-n-rrkjus_psl.1.0.0.UPF
     MD5 check sum: c4212819de858c94c3a1644338846ac9
     Pseudo is Ultrasoft + core correction, Zval =  4.0
     Generated using "atomic" code by A. Dal Corso  v.6.0 svn rev. 13079
     Using radial grid of 1141 points,  6 beta functions with: 
                l(1) =   0
                l(2) =   0
                l(3) =   1
                l(4) =   1
                l(5) =   2
                l(6) =   2
     Q(r) pseudized with 0 coefficients 


     atomic species   valence    mass     pseudopotential
        Si             4.00    28.08550     Si( 1.00)

     48 Sym. Ops., with inversion, found (24 have fractional translation)


                                    s                        frac. trans.

      isym =  1     identity                                     

 cryst.   s( 1) = (     1          0          0      )
                  (     0          1          0      )
                  (     0          0          1      )

 cart.    s( 1) = (  1.0000000  0.0000000 -0.0000000 )
                  (  0.0000000  1.0000000 -0.0000000 )
                  (  0.0000000 -0.0000000  1.0000000 )


      isym =  2     180 deg rotation - cart. axis [0,0,1]        

 cryst.   s( 2) = (    -1          0          0      )
                  (    -1          0          1      )
                  (    -1          1          0      )

 cart.    s( 2) = ( -1.0000000 -0.0000000 -0.0000000 )
                  ( -0.0000000 -1.0000000 -0.0000000 )
                  ( -0.0000000  0.0000000  1.0000000 )


      isym =  3     180 deg rotation - cart. axis [0,1,0]        

 cryst.   s( 3) = (     0         -1          1      )
                  (     0         -1          0      )
                  (     1         -1          0      )

 cart.    s( 3) = ( -1.0000000  0.0000000  0.0000000 )
                  ( -0.0000000  1.0000000  0.0000000 )
                  ( -0.0000000 -0.0000000 -1.0000000 )


      isym =  4     180 deg rotation - cart. axis [1,0,0]        

 cryst.   s( 4) = (     0          1         -1      )
                  (     1          0         -1      )
                  (     0          0         -1      )

 cart.    s( 4) = (  1.0000000 -0.0000000  0.0000000 )
                  (  0.0000000 -1.0000000  0.0000000 )
                  (  0.0000000  0.0000000 -1.0000000 )


      isym =  5     180 deg rotation - cart. axis [1,1,0]        

 cryst.   s( 5) = (     1          0          0      )    f =( -0.2500000 )
                  (     1         -1          0      )       ( -0.2500000 )
                  (     1          0         -1      )       ( -0.2500000 )

 cart.    s( 5) = (  0.0000000  1.0000000  0.0000000 )    f =( -0.3535534 )
                  (  1.0000000  0.0000000  0.0000000 )       ( -0.3535534 )
                  ( -0.0000000  0.0000000 -1.0000000 )       ( -0.3535534 )


      isym =  6     180 deg rotation - cart. axis [1,-1,0]       

 cryst.   s( 6) = (    -1          0          0      )    f =( -0.2500000 )
                  (     0          0         -1      )       ( -0.2500000 )
                  (     0         -1          0      )       ( -0.2500000 )

 cart.    s( 6) = ( -0.0000000 -1.0000000  0.0000000 )    f =( -0.3535534 )
                  ( -1.0000000 -0.0000000  0.0000000 )       ( -0.3535534 )
                  (  0.0000000 -0.0000000 -1.0000000 )       ( -0.3535534 )


      isym =  7      90 deg rotation - cart. axis [0,0,-1]       

 cryst.   s( 7) = (     0          1         -1      )    f =( -0.2500000 )
                  (    -1          1          0      )       ( -0.2500000 )
                  (     0          1          0      )       ( -0.2500000 )

 cart.    s( 7) = ( -0.0000000  1.0000000 -0.0000000 )    f =( -0.3535534 )
                  ( -1.0000000  0.0000000 -0.0000000 )       ( -0.3535534 )
                  (  0.0000000  0.0000000  1.0000000 )       ( -0.3535534 )


      isym =  8      90 deg rotation - cart. axis [0,0,1]        

 cryst.   s( 8) = (     0         -1          1      )    f =( -0.2500000 )
                  (     0          0          1      )       ( -0.2500000 )
                  (    -1          0          1      )       ( -0.2500000 )

 cart.    s( 8) = (  0.0000000 -1.0000000 -0.0000000 )    f =( -0.3535534 )
                  (  1.0000000 -0.0000000 -0.0000000 )       ( -0.3535534 )
                  ( -0.0000000 -0.0000000  1.0000000 )       ( -0.3535534 )


      isym =  9     180 deg rotation - cart. axis [1,0,1]        

 cryst.   s( 9) = (    -1          1          0      )    f =( -0.2500000 )
                  (     0          1          0      )       ( -0.2500000 )
                  (     0          1         -1      )       ( -0.2500000 )

 cart.    s( 9) = ( -0.0000000 -0.0000000  1.0000000 )    f =( -0.3535534 )
                  ( -0.0000000 -1.0000000  0.0000000 )       ( -0.3535534 )
                  (  1.0000000  0.0000000  0.0000000 )       ( -0.3535534 )


      isym = 10     180 deg rotation - cart. axis [-1,0,1]       

 cryst.   s(10) = (     0          0         -1      )    f =( -0.2500000 )
                  (     0         -1          0      )       ( -0.2500000 )
                  (    -1          0          0      )       ( -0.2500000 )

 cart.    s(10) = (  0.0000000 -0.0000000 -1.0000000 )    f =( -0.3535534 )
                  (  0.0000000 -1.0000000 -0.0000000 )       ( -0.3535534 )
                  ( -1.0000000  0.0000000 -0.0000000 )       ( -0.3535534 )


      isym = 11      90 deg rotation - cart. axis [0,1,0]        

 cryst.   s(11) = (     1         -1          0      )    f =( -0.2500000 )
                  (     1          0         -1      )       ( -0.2500000 )
                  (     1          0          0      )       ( -0.2500000 )

 cart.    s(11) = (  0.0000000  0.0000000  1.0000000 )    f =( -0.3535534 )
                  (  0.0000000  1.0000000  0.0000000 )       ( -0.3535534 )
                  ( -1.0000000 -0.0000000  0.0000000 )       ( -0.3535534 )


      isym = 12      90 deg rotation - cart. axis [0,-1,0]       

 cryst.   s(12) = (     0          0          1      )    f =( -0.2500000 )
                  (    -1          0          1      )       ( -0.2500000 )
                  (     0         -1          1      )       ( -0.2500000 )

 cart.    s(12) = ( -0.0000000  0.0000000 -1.0000000 )    f =( -0.3535534 )
                  ( -0.0000000  1.0000000 -0.0000000 )       ( -0.3535534 )
                  (  1.0000000 -0.0000000 -0.0000000 )       ( -0.3535534 )


      isym = 13     180 deg rotation - cart. axis [0,1,1]        

 cryst.   s(13) = (    -1          0          1      )    f =( -0.2500000 )
                  (     0         -1          1      )       ( -0.2500000 )
                  (     0          0          1      )       ( -0.2500000 )

 cart.    s(13) = ( -1.0000000 -0.0000000  0.0000000 )    f =( -0.3535534 )
                  ( -0.0000000 -0.0000000  1.0000000 )       ( -0.3535534 )
                  ( -0.0000000  1.0000000 -0.0000000 )       ( -0.3535534 )


      isym = 14     180 deg rotation - cart. axis [0,1,-1]       

 cryst.   s(14) = (     0         -1          0      )    f =( -0.2500000 )
                  (    -1          0          0      )       ( -0.2500000 )
                  (     0          0         -1      )       ( -0.2500000 )

 cart.    s(14) = ( -1.0000000  0.0000000 -0.0000000 )    f =( -0.3535534 )
                  ( -0.0000000  0.0000000 -1.0000000 )       ( -0.3535534 )
                  ( -0.0000000 -1.0000000  0.0000000 )       ( -0.3535534 )


      isym = 15      90 deg rotation - cart. axis [-1,0,0]       

 cryst.   s(15) = (     1          0         -1      )    f =( -0.2500000 )
                  (     1          0          0      )       ( -0.2500000 )
                  (     1         -1          0      )       ( -0.2500000 )

 cart.    s(15) = (  1.0000000  0.0000000  0.0000000 )    f =( -0.3535534 )
                  (  0.0000000  0.0000000  1.0000000 )       ( -0.3535534 )
                  (  0.0000000 -1.0000000 -0.0000000 )       ( -0.3535534 )


      isym = 16      90 deg rotation - cart. axis [1,0,0]        

 cryst.   s(16) = (     0          1          0      )    f =( -0.2500000 )
                  (     0          1         -1      )       ( -0.2500000 )
                  (    -1          1          0      )       ( -0.2500000 )

 cart.    s(16) = (  1.0000000 -0.0000000 -0.0000000 )    f =( -0.3535534 )
                  (  0.0000000 -0.0000000 -1.0000000 )       ( -0.3535534 )
                  (  0.0000000  1.0000000  0.0000000 )       ( -0.3535534 )


      isym = 17     120 deg rotation - cart. axis [-1,-1,-1]     

 cryst.   s(17) = (     0          1          0      )
                  (     0          0          1      )
                  (     1          0          0      )

 cart.    s(17) = ( -0.0000000  1.0000000  0.0000000 )
                  ( -0.0000000  0.0000000  1.0000000 )
                  (  1.0000000  0.0000000 -0.0000000 )


      isym = 18     120 deg rotation - cart. axis [-1,1,1]       

 cryst.   s(18) = (     0         -1          0      )
                  (     1         -1          0      )
                  (     0         -1          1      )

 cart.    s(18) = (  0.0000000 -1.0000000  0.0000000 )
                  (  0.0000000 -0.0000000  1.0000000 )
                  ( -1.0000000 -0.0000000 -0.0000000 )


      isym = 19     120 deg rotation - cart. axis [1,1,-1]       

 cryst.   s(19) = (     1          0         -1      )
                  (     0          0         -1      )
                  (     0          1         -1      )

 cart.    s(19) = (  0.0000000  1.0000000 -0.0000000 )
                  (  0.0000000  0.0000000 -1.0000000 )
                  ( -1.0000000  0.0000000  0.0000000 )


      isym = 20     120 deg rotation - cart. axis [1,-1,1]       

 cryst.   s(20) = (    -1          0          1      )
                  (    -1          1          0      )
                  (    -1          0          0      )

 cart.    s(20) = ( -0.0000000 -1.0000000 -0.0000000 )
                  ( -0.0000000 -0.0000000 -1.0000000 )
                  (  1.0000000 -0.0000000  0.0000000 )


      isym = 21     120 deg rotation - cart. axis [1,1,1]        

 cryst.   s(21) = (     0          0          1      )
                  (     1          0          0      )
                  (     0          1          0      )

 cart.    s(21) = (  0.0000000 -0.0000000  1.0000000 )
                  (  1.0000000 -0.0000000  0.0000000 )
                  ( -0.0000000  1.0000000  0.0000000 )


      isym = 22     120 deg rotation - cart. axis [-1,1,-1]      

 cryst.   s(22) = (     0          0         -1      )
                  (     0          1         -1      )
                  (     1          0         -1      )

 cart.    s(22) = ( -0.0000000  0.0000000  1.0000000 )
                  ( -1.0000000  0.0000000  0.0000000 )
                  (  0.0000000 -1.0000000  0.0000000 )


      isym = 23     120 deg rotation - cart. axis [1,-1,-1]      

 cryst.   s(23) = (    -1          1          0      )
                  (    -1          0          0      )
                  (    -1          0          1      )

 cart.    s(23) = ( -0.0000000 -0.0000000 -1.0000000 )
                  ( -1.0000000 -0.0000000 -0.0000000 )
                  (  0.0000000  1.0000000 -0.0000000 )


      isym = 24     120 deg rotation - cart. axis [-1,-1,1]      

 cryst.   s(24) = (     1         -1          0      )
                  (     0         -1          1      )
                  (     0         -1          0      )

 cart.    s(24) = (  0.0000000  0.0000000 -1.0000000 )
                  (  1.0000000  0.0000000 -0.0000000 )
                  ( -0.0000000 -1.0000000 -0.0000000 )


      isym = 25     inversion                                    

 cryst.   s(25) = (    -1          0          0      )    f =( -0.2500000 )
                  (     0         -1          0      )       ( -0.2500000 )
                  (     0          0         -1      )       ( -0.2500000 )

 cart.    s(25) = ( -1.0000000 -0.0000000  0.0000000 )    f =( -0.3535534 )
                  ( -0.0000000 -1.0000000  0.0000000 )       ( -0.3535534 )
                  ( -0.0000000  0.0000000 -1.0000000 )       ( -0.3535534 )


      isym = 26     inv. 180 deg rotation - cart. axis [0,0,1]   

 cryst.   s(26) = (     1          0          0      )    f =( -0.2500000 )
                  (     1          0         -1      )       ( -0.2500000 )
                  (     1         -1          0      )       ( -0.2500000 )

 cart.    s(26) = (  1.0000000  0.0000000  0.0000000 )    f =( -0.3535534 )
                  (  0.0000000  1.0000000  0.0000000 )       ( -0.3535534 )
                  (  0.0000000 -0.0000000 -1.0000000 )       ( -0.3535534 )


      isym = 27     inv. 180 deg rotation - cart. axis [0,1,0]   

 cryst.   s(27) = (     0          1         -1      )    f =( -0.2500000 )
                  (     0          1          0      )       ( -0.2500000 )
                  (    -1          1          0      )       ( -0.2500000 )

 cart.    s(27) = (  1.0000000 -0.0000000 -0.0000000 )    f =( -0.3535534 )
                  (  0.0000000 -1.0000000 -0.0000000 )       ( -0.3535534 )
                  (  0.0000000  0.0000000  1.0000000 )       ( -0.3535534 )


      isym = 28     inv. 180 deg rotation - cart. axis [1,0,0]   

 cryst.   s(28) = (     0         -1          1      )    f =( -0.2500000 )
                  (    -1          0          1      )       ( -0.2500000 )
                  (     0          0          1      )       ( -0.2500000 )

 cart.    s(28) = ( -1.0000000  0.0000000 -0.0000000 )    f =( -0.3535534 )
                  ( -0.0000000  1.0000000 -0.0000000 )       ( -0.3535534 )
                  ( -0.0000000 -0.0000000  1.0000000 )       ( -0.3535534 )


      isym = 29     inv. 180 deg rotation - cart. axis [1,1,0]   

 cryst.   s(29) = (    -1          0          0      )
                  (    -1          1          0      )
                  (    -1          0          1      )

 cart.    s(29) = ( -0.0000000 -1.0000000 -0.0000000 )
                  ( -1.0000000 -0.0000000 -0.0000000 )
                  (  0.0000000 -0.0000000  1.0000000 )


      isym = 30     inv. 180 deg rotation - cart. axis [1,-1,0]  

 cryst.   s(30) = (     1          0          0      )
                  (     0          0          1      )
                  (     0          1          0      )

 cart.    s(30) = (  0.0000000  1.0000000 -0.0000000 )
                  (  1.0000000  0.0000000 -0.0000000 )
                  ( -0.0000000  0.0000000  1.0000000 )


      isym = 31     inv.  90 deg rotation - cart. axis [0,0,-1]  

 cryst.   s(31) = (     0         -1          1      )
                  (     1         -1          0      )
                  (     0         -1          0      )

 cart.    s(31) = (  0.0000000 -1.0000000  0.0000000 )
                  (  1.0000000 -0.0000000  0.0000000 )
                  ( -0.0000000 -0.0000000 -1.0000000 )


      isym = 32     inv.  90 deg rotation - cart. axis [0,0,1]   

 cryst.   s(32) = (     0          1         -1      )
                  (     0          0         -1      )
                  (     1          0         -1      )

 cart.    s(32) = ( -0.0000000  1.0000000  0.0000000 )
                  ( -1.0000000  0.0000000  0.0000000 )
                  (  0.0000000  0.0000000 -1.0000000 )


      isym = 33     inv. 180 deg rotation - cart. axis [1,0,1]   

 cryst.   s(33) = (     1         -1          0      )
                  (     0         -1          0      )
                  (     0         -1          1      )

 cart.    s(33) = (  0.0000000  0.0000000 -1.0000000 )
                  (  0.0000000  1.0000000 -0.0000000 )
                  ( -1.0000000 -0.0000000 -0.0000000 )


      isym = 34     inv. 180 deg rotation - cart. axis [-1,0,1]  

 cryst.   s(34) = (     0          0          1      )
                  (     0          1          0      )
                  (     1          0          0      )

 cart.    s(34) = ( -0.0000000  0.0000000  1.0000000 )
                  ( -0.0000000  1.0000000  0.0000000 )
                  (  1.0000000 -0.0000000  0.0000000 )


      isym = 35     inv.  90 deg rotation - cart. axis [0,1,0]   

 cryst.   s(35) = (    -1          1          0      )
                  (    -1          0          1      )
                  (    -1          0          0      )

 cart.    s(35) = ( -0.0000000 -0.0000000 -1.0000000 )
                  ( -0.0000000 -1.0000000 -0.0000000 )
                  (  1.0000000  0.0000000 -0.0000000 )


      isym = 36     inv.  90 deg rotation - cart. axis [0,-1,0]  

 cryst.   s(36) = (     0          0         -1      )
                  (     1          0         -1      )
                  (     0          1         -1      )

 cart.    s(36) = (  0.0000000 -0.0000000  1.0000000 )
                  (  0.0000000 -1.0000000  0.0000000 )
                  ( -1.0000000  0.0000000  0.0000000 )


      isym = 37     inv. 180 deg rotation - cart. axis [0,1,1]   

 cryst.   s(37) = (     1          0         -1      )
                  (     0          1         -1      )
                  (     0          0         -1      )

 cart.    s(37) = (  1.0000000  0.0000000 -0.0000000 )
                  (  0.0000000  0.0000000 -1.0000000 )
                  (  0.0000000 -1.0000000  0.0000000 )


      isym = 38     inv. 180 deg rotation - cart. axis [0,1,-1]  

 cryst.   s(38) = (     0          1          0      )
                  (     1          0          0      )
                  (     0          0          1      )

 cart.    s(38) = (  1.0000000 -0.0000000  0.0000000 )
                  (  0.0000000 -0.0000000  1.0000000 )
                  (  0.0000000  1.0000000 -0.0000000 )


      isym = 39     inv.  90 deg rotation - cart. axis [-1,0,0]  

 cryst.   s(39) = (    -1          0          1      )
                  (    -1          0          0      )
                  (    -1          1          0      )

 cart.    s(39) = ( -1.0000000 -0.0000000 -0.0000000 )
                  ( -0.0000000 -0.0000000 -1.0000000 )
                  ( -0.0000000  1.0000000  0.0000000 )


      isym = 40     inv.  90 deg rotation - cart. axis [1,0,0]   

 cryst.   s(40) = (     0         -1          0      )
                  (     0         -1          1      )
                  (     1         -1          0      )

 cart.    s(40) = ( -1.0000000  0.0000000  0.0000000 )
                  ( -0.0000000  0.0000000  1.0000000 )
                  ( -0.0000000 -1.0000000 -0.0000000 )


      isym = 41     inv. 120 deg rotation - cart. axis [-1,-1,-1]

 cryst.   s(41) = (     0         -1          0      )    f =( -0.2500000 )
                  (     0          0         -1      )       ( -0.2500000 )
                  (    -1          0          0      )       ( -0.2500000 )

 cart.    s(41) = (  0.0000000 -1.0000000 -0.0000000 )    f =( -0.3535534 )
                  (  0.0000000 -0.0000000 -1.0000000 )       ( -0.3535534 )
                  ( -1.0000000 -0.0000000  0.0000000 )       ( -0.3535534 )


      isym = 42     inv. 120 deg rotation - cart. axis [-1,1,1]  

 cryst.   s(42) = (     0          1          0      )    f =( -0.2500000 )
                  (    -1          1          0      )       ( -0.2500000 )
                  (     0          1         -1      )       ( -0.2500000 )

 cart.    s(42) = ( -0.0000000  1.0000000 -0.0000000 )    f =( -0.3535534 )
                  ( -0.0000000  0.0000000 -1.0000000 )       ( -0.3535534 )
                  (  1.0000000  0.0000000  0.0000000 )       ( -0.3535534 )


      isym = 43     inv. 120 deg rotation - cart. axis [1,1,-1]  

 cryst.   s(43) = (    -1          0          1      )    f =( -0.2500000 )
                  (     0          0          1      )       ( -0.2500000 )
                  (     0         -1          1      )       ( -0.2500000 )

 cart.    s(43) = ( -0.0000000 -1.0000000  0.0000000 )    f =( -0.3535534 )
                  ( -0.0000000 -0.0000000  1.0000000 )       ( -0.3535534 )
                  (  1.0000000 -0.0000000 -0.0000000 )       ( -0.3535534 )


      isym = 44     inv. 120 deg rotation - cart. axis [1,-1,1]  

 cryst.   s(44) = (     1          0         -1      )    f =( -0.2500000 )
                  (     1         -1          0      )       ( -0.2500000 )
                  (     1          0          0      )       ( -0.2500000 )

 cart.    s(44) = (  0.0000000  1.0000000  0.0000000 )    f =( -0.3535534 )
                  (  0.0000000  0.0000000  1.0000000 )       ( -0.3535534 )
                  ( -1.0000000  0.0000000 -0.0000000 )       ( -0.3535534 )


      isym = 45     inv. 120 deg rotation - cart. axis [1,1,1]   

 cryst.   s(45) = (     0          0         -1      )    f =( -0.2500000 )
                  (    -1          0          0      )       ( -0.2500000 )
                  (     0         -1          0      )       ( -0.2500000 )

 cart.    s(45) = ( -0.0000000  0.0000000 -1.0000000 )    f =( -0.3535534 )
                  ( -1.0000000  0.0000000 -0.0000000 )       ( -0.3535534 )
                  (  0.0000000 -1.0000000 -0.0000000 )       ( -0.3535534 )


      isym = 46     inv. 120 deg rotation - cart. axis [-1,1,-1] 

 cryst.   s(46) = (     0          0          1      )    f =( -0.2500000 )
                  (     0         -1          1      )       ( -0.2500000 )
                  (    -1          0          1      )       ( -0.2500000 )

 cart.    s(46) = (  0.0000000 -0.0000000 -1.0000000 )    f =( -0.3535534 )
                  (  1.0000000 -0.0000000 -0.0000000 )       ( -0.3535534 )
                  ( -0.0000000  1.0000000 -0.0000000 )       ( -0.3535534 )


      isym = 47     inv. 120 deg rotation - cart. axis [1,-1,-1] 

 cryst.   s(47) = (     1         -1          0      )    f =( -0.2500000 )
                  (     1          0          0      )       ( -0.2500000 )
                  (     1          0         -1      )       ( -0.2500000 )

 cart.    s(47) = (  0.0000000  0.0000000  1.0000000 )    f =( -0.3535534 )
                  (  1.0000000  0.0000000  0.0000000 )       ( -0.3535534 )
                  ( -0.0000000 -1.0000000  0.0000000 )       ( -0.3535534 )


      isym = 48     inv. 120 deg rotation - cart. axis [-1,-1,1] 

 cryst.   s(48) = (    -1          1          0      )    f =( -0.2500000 )
                  (     0          1         -1      )       ( -0.2500000 )
                  (     0          1          0      )       ( -0.2500000 )

 cart.    s(48) = ( -0.0000000 -0.0000000  1.0000000 )    f =( -0.3535534 )
                  ( -1.0000000 -0.0000000  0.0000000 )       ( -0.3535534 )
                  (  0.0000000  1.0000000  0.0000000 )       ( -0.3535534 )


   Cartesian axes

     site n.     atom                  positions (alat units)
         1           Si  tau(   1) = (   0.0000000   0.0000000   0.0000000  )
         2           Si  tau(   2) = (   0.3535534   0.3535534   0.3535534  )

   Crystallographic axes

     site n.     atom                  positions (cryst. coord.)
         1           Si  tau(   1) = (  0.0000000  0.0000000  0.0000000  )
         2           Si  tau(   2) = (  0.2500000  0.2500000  0.2500000  )

     number of k points=   104
                       cart. coord. in units 2pi/alat
        k(    1) = (   0.0000000   0.0000000   0.0000000), wk =   0.0007289
        k(    2) = (  -0.0505076   0.0505076   0.0505076), wk =   0.0058309
        k(    3) = (  -0.1010153   0.1010153   0.1010153), wk =   0.0058309
        k(    4) = (  -0.1515229   0.1515229   0.1515229), wk =   0.0058309
        k(    5) = (  -0.2020305   0.2020305   0.2020305), wk =   0.0058309
        k(    6) = (  -0.2525381   0.2525381   0.2525381), wk =   0.0058309
        k(    7) = (  -0.3030458   0.3030458   0.3030458), wk =   0.0058309
        k(    8) = (   0.3535534  -0.3535534  -0.3535534), wk =   0.0029155
        k(    9) = (   0.0000000  -0.0000000   0.1010153), wk =   0.0043732
        k(   10) = (  -0.0505076   0.0505076   0.1515229), wk =   0.0174927
        k(   11) = (  -0.1010153   0.1010153   0.2020305), wk =   0.0174927
        k(   12) = (  -0.1515229   0.1515229   0.2525381), wk =   0.0174927
        k(   13) = (  -0.2020305   0.2020305   0.3030458), wk =   0.0174927
        k(   14) = (  -0.2525381   0.2525381   0.3535534), wk =   0.0174927
        k(   15) = (   0.4040610  -0.4040610  -0.3030458), wk =   0.0174927
        k(   16) = (   0.3535534  -0.3535534  -0.2525381), wk =   0.0174927
        k(   17) = (   0.3030458  -0.3030458  -0.2020305), wk =   0.0174927
        k(   18) = (   0.2525381  -0.2525381  -0.1515229), wk =   0.0174927
        k(   19) = (   0.2020305  -0.2020305  -0.1010153), wk =   0.0174927
        k(   20) = (   0.1515229  -0.1515229  -0.0505076), wk =   0.0174927
        k(   21) = (   0.1010153  -0.1010153   0.0000000), wk =   0.0087464
        k(   22) = (   0.0000000  -0.0000000   0.2020305), wk =   0.0043732
        k(   23) = (  -0.0505076   0.0505076   0.2525381), wk =   0.0174927
        k(   24) = (  -0.1010153   0.1010153   0.3030458), wk =   0.0174927
        k(   25) = (  -0.1515229   0.1515229   0.3535534), wk =   0.0174927
        k(   26) = (  -0.2020305   0.2020305   0.4040610), wk =   0.0174927
        k(   27) = (   0.4545686  -0.4545686  -0.2525381), wk =   0.0174927
        k(   28) = (   0.4040610  -0.4040610  -0.2020305), wk =   0.0174927
        k(   29) = (   0.3535534  -0.3535534  -0.1515229), wk =   0.0174927
        k(   30) = (   0.3030458  -0.3030458  -0.1010153), wk =   0.0174927
        k(   31) = (   0.2525381  -0.2525381  -0.0505076), wk =   0.0174927
        k(   32) = (   0.2020305  -0.2020305  -0.0000000), wk =   0.0087464
        k(   33) = (   0.0000000  -0.0000000   0.3030458), wk =   0.0043732
        k(   34) = (  -0.0505076   0.0505076   0.3535534), wk =   0.0174927
        k(   35) = (  -0.1010153   0.1010153   0.4040610), wk =   0.0174927
        k(   36) = (  -0.1515229   0.1515229   0.4545686), wk =   0.0174927
        k(   37) = (   0.5050763  -0.5050763  -0.2020305), wk =   0.0174927
        k(   38) = (   0.4545686  -0.4545686  -0.1515229), wk =   0.0174927
        k(   39) = (   0.4040610  -0.4040610  -0.1010153), wk =   0.0174927
        k(   40) = (   0.3535534  -0.3535534  -0.0505076), wk =   0.0174927
        k(   41) = (   0.3030458  -0.3030458  -0.0000000), wk =   0.0087464
        k(   42) = (   0.0000000  -0.0000000   0.4040610), wk =   0.0043732
        k(   43) = (  -0.0505076   0.0505076   0.4545686), wk =   0.0174927
        k(   44) = (  -0.1010153   0.1010153   0.5050763), wk =   0.0174927
        k(   45) = (   0.5555839  -0.5555839  -0.1515229), wk =   0.0174927
        k(   46) = (   0.5050763  -0.5050763  -0.1010153), wk =   0.0174927
        k(   47) = (   0.4545686  -0.4545686  -0.0505076), wk =   0.0174927
        k(   48) = (   0.4040610  -0.4040610   0.0000000), wk =   0.0087464
        k(   49) = (  -0.0000000   0.0000000   0.5050763), wk =   0.0043732
        k(   50) = (  -0.0505076   0.0505076   0.5555839), wk =   0.0174927
        k(   51) = (   0.6060915  -0.6060915  -0.1010153), wk =   0.0174927
        k(   52) = (   0.5555839  -0.5555839  -0.0505076), wk =   0.0174927
        k(   53) = (   0.5050763  -0.5050763   0.0000000), wk =   0.0087464
        k(   54) = (   0.0000000  -0.0000000   0.6060915), wk =   0.0043732
        k(   55) = (   0.6565992  -0.6565992  -0.0505076), wk =   0.0174927
        k(   56) = (   0.6060915  -0.6060915  -0.0000000), wk =   0.0087464
        k(   57) = (   0.0000000   0.0000000  -0.7071068), wk =   0.0021866
        k(   58) = (   0.0000000   0.1010153   0.2020305), wk =   0.0174927
        k(   59) = (  -0.0505076   0.1515229   0.2525381), wk =   0.0349854
        k(   60) = (  -0.1010153   0.2020305   0.3030458), wk =   0.0349854
        k(   61) = (  -0.1515229   0.2525381   0.3535534), wk =   0.0349854
        k(   62) = (   0.5050763  -0.4040610  -0.3030458), wk =   0.0349854
        k(   63) = (   0.4545686  -0.3535534  -0.2525381), wk =   0.0174927
        k(   64) = (   0.0000000   0.1010153   0.3030458), wk =   0.0174927
        k(   65) = (  -0.0505076   0.1515229   0.3535534), wk =   0.0349854
        k(   66) = (  -0.1010153   0.2020305   0.4040610), wk =   0.0349854
        k(   67) = (   0.5555839  -0.4545686  -0.2525381), wk =   0.0349854
        k(   68) = (   0.5050763  -0.4040610  -0.2020305), wk =   0.0349854
        k(   69) = (   0.4545686  -0.3535534  -0.1515229), wk =   0.0349854
        k(   70) = (   0.4040610  -0.3030458  -0.1010153), wk =   0.0349854
        k(   71) = (   0.3535534  -0.2525381  -0.0505076), wk =   0.0349854
        k(   72) = (   0.3030458  -0.2020305  -0.0000000), wk =   0.0174927
        k(   73) = (  -0.0000000   0.1010153   0.4040610), wk =   0.0174927
        k(   74) = (  -0.0505076   0.1515229   0.4545686), wk =   0.0349854
        k(   75) = (   0.6060915  -0.5050763  -0.2020305), wk =   0.0349854
        k(   76) = (   0.5555839  -0.4545686  -0.1515229), wk =   0.0349854
        k(   77) = (   0.5050763  -0.4040610  -0.1010153), wk =   0.0349854
        k(   78) = (   0.4545686  -0.3535534  -0.0505076), wk =   0.0349854
        k(   79) = (   0.4040610  -0.3030458  -0.0000000), wk =   0.0174927
        k(   80) = (   0.0000000   0.1010153   0.5050763), wk =   0.0174927
        k(   81) = (   0.6565992  -0.5555839  -0.1515229), wk =   0.0349854
        k(   82) = (   0.6060915  -0.5050763  -0.1010153), wk =   0.0349854
        k(   83) = (   0.5555839  -0.4545686  -0.0505076), wk =   0.0349854
        k(   84) = (   0.5050763  -0.4040610   0.0000000), wk =   0.0174927
        k(   85) = (   0.7071068  -0.6060915  -0.1010153), wk =   0.0174927
        k(   86) = (   0.6565992  -0.5555839  -0.0505076), wk =   0.0349854
        k(   87) = (   0.6060915  -0.5050763   0.0000000), wk =   0.0174927
        k(   88) = (   0.0000000   0.1010153  -0.7071068), wk =   0.0087464
        k(   89) = (   0.0000000   0.2020305   0.4040610), wk =   0.0174927
        k(   90) = (   0.6565992  -0.4545686  -0.2525381), wk =   0.0349854
        k(   91) = (   0.6060915  -0.4040610  -0.2020305), wk =   0.0349854
        k(   92) = (   0.5555839  -0.3535534  -0.1515229), wk =   0.0174927
        k(   93) = (   0.7071068  -0.5050763  -0.2020305), wk =   0.0174927
        k(   94) = (   0.6565992  -0.4545686  -0.1515229), wk =   0.0349854
        k(   95) = (   0.6060915  -0.4040610  -0.1010153), wk =   0.0349854
        k(   96) = (   0.5555839  -0.3535534  -0.0505076), wk =   0.0349854
        k(   97) = (   0.5050763  -0.3030458  -0.0000000), wk =   0.0174927
        k(   98) = (   0.7071068  -0.5050763  -0.1010153), wk =   0.0174927
        k(   99) = (   0.6565992  -0.4545686  -0.0505076), wk =   0.0349854
        k(  100) = (   0.6060915  -0.4040610   0.0000000), wk =   0.0174927
        k(  101) = (  -0.0000000   0.2020305  -0.7071068), wk =   0.0087464
        k(  102) = (   0.7071068  -0.4040610  -0.1010153), wk =   0.0174927
        k(  103) = (   0.6565992  -0.3535534  -0.0505076), wk =   0.0174927
        k(  104) = (  -0.0000000   0.3030458  -0.7071068), wk =   0.0087464

                       cryst. coord.
        k(    1) = (   0.0000000   0.0000000   0.0000000), wk =   0.0007289
        k(    2) = (   0.0000000  -0.0000000   0.0714286), wk =   0.0058309
        k(    3) = (   0.0000000  -0.0000000   0.1428571), wk =   0.0058309
        k(    4) = (  -0.0000000   0.0000000   0.2142857), wk =   0.0058309
        k(    5) = (   0.0000000  -0.0000000   0.2857143), wk =   0.0058309
        k(    6) = (   0.0000000  -0.0000000   0.3571429), wk =   0.0058309
        k(    7) = (  -0.0000000   0.0000000   0.4285714), wk =   0.0058309
        k(    8) = (  -0.0000000   0.0000000  -0.5000000), wk =   0.0029155
        k(    9) = (  -0.0000000   0.0714286   0.0714286), wk =   0.0043732
        k(   10) = (  -0.0000000   0.0714286   0.1428571), wk =   0.0174927
        k(   11) = (  -0.0000000   0.0714286   0.2142857), wk =   0.0174927
        k(   12) = (  -0.0000000   0.0714286   0.2857143), wk =   0.0174927
        k(   13) = (   0.0000000   0.0714286   0.3571429), wk =   0.0174927
        k(   14) = (   0.0000000   0.0714286   0.4285714), wk =   0.0174927
        k(   15) = (  -0.0000000   0.0714286  -0.5000000), wk =   0.0174927
        k(   16) = (  -0.0000000   0.0714286  -0.4285714), wk =   0.0174927
        k(   17) = (   0.0000000   0.0714286  -0.3571429), wk =   0.0174927
        k(   18) = (  -0.0000000   0.0714286  -0.2857143), wk =   0.0174927
        k(   19) = (  -0.0000000   0.0714286  -0.2142857), wk =   0.0174927
        k(   20) = (  -0.0000000   0.0714286  -0.1428571), wk =   0.0174927
        k(   21) = (  -0.0000000   0.0714286  -0.0714286), wk =   0.0087464
        k(   22) = (  -0.0000000   0.1428571   0.1428571), wk =   0.0043732
        k(   23) = (  -0.0000000   0.1428571   0.2142857), wk =   0.0174927
        k(   24) = (  -0.0000000   0.1428571   0.2857143), wk =   0.0174927
        k(   25) = (  -0.0000000   0.1428571   0.3571429), wk =   0.0174927
        k(   26) = (  -0.0000000   0.1428571   0.4285714), wk =   0.0174927
        k(   27) = (   0.0000000   0.1428571  -0.5000000), wk =   0.0174927
        k(   28) = (  -0.0000000   0.1428571  -0.4285714), wk =   0.0174927
        k(   29) = (  -0.0000000   0.1428571  -0.3571429), wk =   0.0174927
        k(   30) = (   0.0000000   0.1428571  -0.2857143), wk =   0.0174927
        k(   31) = (  -0.0000000   0.1428571  -0.2142857), wk =   0.0174927
        k(   32) = (  -0.0000000   0.1428571  -0.1428571), wk =   0.0087464
        k(   33) = (   0.0000000   0.2142857   0.2142857), wk =   0.0043732
        k(   34) = (   0.0000000   0.2142857   0.2857143), wk =   0.0174927
        k(   35) = (   0.0000000   0.2142857   0.3571429), wk =   0.0174927
        k(   36) = (  -0.0000000   0.2142857   0.4285714), wk =   0.0174927
        k(   37) = (  -0.0000000   0.2142857  -0.5000000), wk =   0.0174927
        k(   38) = (   0.0000000   0.2142857  -0.4285714), wk =   0.0174927
        k(   39) = (   0.0000000   0.2142857  -0.3571429), wk =   0.0174927
        k(   40) = (  -0.0000000   0.2142857  -0.2857143), wk =   0.0174927
        k(   41) = (   0.0000000   0.2142857  -0.2142857), wk =   0.0087464
        k(   42) = (  -0.0000000   0.2857143   0.2857143), wk =   0.0043732
        k(   43) = (   0.0000000   0.2857143   0.3571429), wk =   0.0174927
        k(   44) = (  -0.0000000   0.2857143   0.4285714), wk =   0.0174927
        k(   45) = (   0.0000000   0.2857143  -0.5000000), wk =   0.0174927
        k(   46) = (  -0.0000000   0.2857143  -0.4285714), wk =   0.0174927
        k(   47) = (  -0.0000000   0.2857143  -0.3571429), wk =   0.0174927
        k(   48) = (  -0.0000000   0.2857143  -0.2857143), wk =   0.0087464
        k(   49) = (   0.0000000   0.3571429   0.3571429), wk =   0.0043732
        k(   50) = (   0.0000000   0.3571429   0.4285714), wk =   0.0174927
        k(   51) = (   0.0000000   0.3571429  -0.5000000), wk =   0.0174927
        k(   52) = (  -0.0000000   0.3571429  -0.4285714), wk =   0.0174927
        k(   53) = (  -0.0000000   0.3571429  -0.3571429), wk =   0.0087464
        k(   54) = (   0.0000000   0.4285714   0.4285714), wk =   0.0043732
        k(   55) = (  -0.0000000   0.4285714  -0.5000000), wk =   0.0174927
        k(   56) = (   0.0000000   0.4285714  -0.4285714), wk =   0.0087464
        k(   57) = (   0.0000000  -0.5000000  -0.5000000), wk =   0.0021866
        k(   58) = (   0.0714286   0.1428571   0.2142857), wk =   0.0174927
        k(   59) = (   0.0714286   0.1428571   0.2857143), wk =   0.0349854
        k(   60) = (   0.0714286   0.1428571   0.3571429), wk =   0.0349854
        k(   61) = (   0.0714286   0.1428571   0.4285714), wk =   0.0349854
        k(   62) = (   0.0714286   0.1428571  -0.5000000), wk =   0.0349854
        k(   63) = (   0.0714286   0.1428571  -0.4285714), wk =   0.0174927
        k(   64) = (   0.0714286   0.2142857   0.2857143), wk =   0.0174927
        k(   65) = (   0.0714286   0.2142857   0.3571429), wk =   0.0349854
        k(   66) = (   0.0714286   0.2142857   0.4285714), wk =   0.0349854
        k(   67) = (   0.0714286   0.2142857  -0.5000000), wk =   0.0349854
        k(   68) = (   0.0714286   0.2142857  -0.4285714), wk =   0.0349854
        k(   69) = (   0.0714286   0.2142857  -0.3571429), wk =   0.0349854
        k(   70) = (   0.0714286   0.2142857  -0.2857143), wk =   0.0349854
        k(   71) = (   0.0714286   0.2142857  -0.2142857), wk =   0.0349854
        k(   72) = (   0.0714286   0.2142857  -0.1428571), wk =   0.0174927
        k(   73) = (   0.0714286   0.2857143   0.3571429), wk =   0.0174927
        k(   74) = (   0.0714286   0.2857143   0.4285714), wk =   0.0349854
        k(   75) = (   0.0714286   0.2857143  -0.5000000), wk =   0.0349854
        k(   76) = (   0.0714286   0.2857143  -0.4285714), wk =   0.0349854
        k(   77) = (   0.0714286   0.2857143  -0.3571429), wk =   0.0349854
        k(   78) = (   0.0714286   0.2857143  -0.2857143), wk =   0.0349854
        k(   79) = (   0.0714286   0.2857143  -0.2142857), wk =   0.0174927
        k(   80) = (   0.0714286   0.3571429   0.4285714), wk =   0.0174927
        k(   81) = (   0.0714286   0.3571429  -0.5000000), wk =   0.0349854
        k(   82) = (   0.0714286   0.3571429  -0.4285714), wk =   0.0349854
        k(   83) = (   0.0714286   0.3571429  -0.3571429), wk =   0.0349854
        k(   84) = (   0.0714286   0.3571429  -0.2857143), wk =   0.0174927
        k(   85) = (   0.0714286   0.4285714  -0.5000000), wk =   0.0174927
        k(   86) = (   0.0714286   0.4285714  -0.4285714), wk =   0.0349854
        k(   87) = (   0.0714286   0.4285714  -0.3571429), wk =   0.0174927
        k(   88) = (   0.0714286  -0.5000000  -0.4285714), wk =   0.0087464
        k(   89) = (   0.1428571   0.2857143   0.4285714), wk =   0.0174927
        k(   90) = (   0.1428571   0.2857143  -0.5000000), wk =   0.0349854
        k(   91) = (   0.1428571   0.2857143  -0.4285714), wk =   0.0349854
        k(   92) = (   0.1428571   0.2857143  -0.3571429), wk =   0.0174927
        k(   93) = (   0.1428571   0.3571429  -0.5000000), wk =   0.0174927
        k(   94) = (   0.1428571   0.3571429  -0.4285714), wk =   0.0349854
        k(   95) = (   0.1428571   0.3571429  -0.3571429), wk =   0.0349854
        k(   96) = (   0.1428571   0.3571429  -0.2857143), wk =   0.0349854
        k(   97) = (   0.1428571   0.3571429  -0.2142857), wk =   0.0174927
        k(   98) = (   0.1428571   0.4285714  -0.4285714), wk =   0.0174927
        k(   99) = (   0.1428571   0.4285714  -0.3571429), wk =   0.0349854
        k(  100) = (   0.1428571   0.4285714  -0.2857143), wk =   0.0174927
        k(  101) = (   0.1428571  -0.5000000  -0.3571429), wk =   0.0087464
        k(  102) = (   0.2142857   0.4285714  -0.3571429), wk =   0.0174927
        k(  103) = (   0.2142857   0.4285714  -0.2857143), wk =   0.0174927
        k(  104) = (   0.2142857  -0.5000000  -0.2857143), wk =   0.0087464

     Dense  grid:    16889 G-vectors     FFT dimensions: (  36,  36,  36)

     Smooth grid:     5985 G-vectors     FFT dimensions: (  32,  32,  32)

     Dynamical RAM for                 wfc:       0.00 MB

     Dynamical RAM for     wfc (w. buffer):       0.29 MB

     Dynamical RAM for           str. fact:       0.02 MB

     Dynamical RAM for           local pot:       0.00 MB

     Dynamical RAM for          nlocal pot:       0.03 MB

     Dynamical RAM for                qrad:       1.24 MB

     Dynamical RAM for          rho,v,vnew:       0.14 MB

     Dynamical RAM for               rhoin:       0.05 MB

     Dynamical RAM for            rho*nmix:       0.26 MB

     Dynamical RAM for           G-vectors:       0.06 MB

     Dynamical RAM for          h,s,v(r/c):       0.00 MB

     Dynamical RAM for          <psi|beta>:       0.00 MB

     Dynamical RAM for                 psi:       0.01 MB

     Dynamical RAM for                hpsi:       0.01 MB

     Dynamical RAM for                spsi:       0.01 MB

     Dynamical RAM for      wfcinit/wfcrot:       0.01 MB

     Dynamical RAM for           addusdens:       3.03 MB

     Dynamical RAM for          addusforce:       3.08 MB

     Dynamical RAM for         addusstress:       3.24 MB

     Estimated static dynamical RAM per process >       2.01 MB

     Estimated max dynamical RAM per process >       5.51 MB

     Estimated total dynamical RAM >      88.12 MB

     Initial potential from superposition of free atoms

     starting charge       7.9989, renormalised to       8.0000
     Starting wfcs are    8 randomized atomic wfcs

     total cpu time spent up to now is        0.6 secs

     per-process dynamical memory:    10.1 Mb

     Self-consistent Calculation

     iteration #  1     ecut=    30.00 Ry     beta= 0.40
     Davidson diagonalization with overlap

---- Real-time Memory Report at c_bands before calling an iterative solver
            39 MiB given to the printing process from OS
             9 MiB allocation reported by mallinfo(arena+hblkhd)
         63076 MiB available memory on the node where the printing process lives
------------------
     ethr =  1.00E-02,  avg # of iterations =  2.0

     Threshold (ethr) on eigenvalues was too large:
     Diagonalizing with lowered threshold

     Davidson diagonalization with overlap

---- Real-time Memory Report at c_bands before calling an iterative solver
            42 MiB given to the printing process from OS
            12 MiB allocation reported by mallinfo(arena+hblkhd)
         66157 MiB available memory on the node where the printing process lives
------------------
     ethr =  6.03E-04,  avg # of iterations =  1.5

     total cpu time spent up to now is        0.8 secs

     total energy              =     -22.67965774 Ry
     estimated scf accuracy    <       0.05261442 Ry

     iteration #  2     ecut=    30.00 Ry     beta= 0.40
     Davidson diagonalization with overlap

---- Real-time Memory Report at c_bands before calling an iterative solver
            42 MiB given to the printing process from OS
            12 MiB allocation reported by mallinfo(arena+hblkhd)
         70912 MiB available memory on the node where the printing process lives
------------------
     ethr =  6.58E-04,  avg # of iterations =  1.0

     total cpu time spent up to now is        0.9 secs

     total energy              =     -22.67574366 Ry
     estimated scf accuracy    <       0.01604297 Ry

     iteration #  3     ecut=    30.00 Ry     beta= 0.40
     Davidson diagonalization with overlap

---- Real-time Memory Report at c_bands before calling an iterative solver
            42 MiB given to the printing process from OS
            12 MiB allocation reported by mallinfo(arena+hblkhd)
         73279 MiB available memory on the node where the printing process lives
------------------
     ethr =  2.01E-04,  avg # of iterations =  2.0

     total cpu time spent up to now is        1.0 secs

     total energy              =     -22.67760779 Ry
     estimated scf accuracy    <       0.00035914 Ry

     iteration #  4     ecut=    30.00 Ry     beta= 0.40
     Davidson diagonalization with overlap

---- Real-time Memory Report at c_bands before calling an iterative solver
            42 MiB given to the printing process from OS
            12 MiB allocation reported by mallinfo(arena+hblkhd)
         75589 MiB available memory on the node where the printing process lives
------------------
     ethr =  4.49E-06,  avg # of iterations =  3.6

     total cpu time spent up to now is        1.1 secs

     total energy              =     -22.67762401 Ry
     estimated scf accuracy    <       0.00051038 Ry

     iteration #  5     ecut=    30.00 Ry     beta= 0.40
     Davidson diagonalization with overlap

---- Real-time Memory Report at c_bands before calling an iterative solver
            42 MiB given to the printing process from OS
            12 MiB allocation reported by mallinfo(arena+hblkhd)
         78287 MiB available memory on the node where the printing process lives
------------------
     ethr =  4.49E-06,  avg # of iterations =  2.0

     total cpu time spent up to now is        1.2 secs

     total energy              =     -22.67767984 Ry
     estimated scf accuracy    <       0.00000070 Ry

     iteration #  6     ecut=    30.00 Ry     beta= 0.40
     Davidson diagonalization with overlap

---- Real-time Memory Report at c_bands before calling an iterative solver
            42 MiB given to the printing process from OS
            12 MiB allocation reported by mallinfo(arena+hblkhd)
         80865 MiB available memory on the node where the printing process lives
------------------
     ethr =  8.73E-09,  avg # of iterations =  8.7

     total cpu time spent up to now is        1.6 secs

     total energy              =     -22.67768723 Ry
     estimated scf accuracy    <       0.00000324 Ry

     iteration #  7     ecut=    30.00 Ry     beta= 0.40
     Davidson diagonalization with overlap

---- Real-time Memory Report at c_bands before calling an iterative solver
            42 MiB given to the printing process from OS
            12 MiB allocation reported by mallinfo(arena+hblkhd)
         82509 MiB available memory on the node where the printing process lives
------------------
     ethr =  8.73E-09,  avg # of iterations =  2.0

     total cpu time spent up to now is        1.7 secs

     total energy              =     -22.67769031 Ry
     estimated scf accuracy    <       0.00000050 Ry

     iteration #  8     ecut=    30.00 Ry     beta= 0.40
     Davidson diagonalization with overlap

---- Real-time Memory Report at c_bands before calling an iterative solver
            42 MiB given to the printing process from OS
            12 MiB allocation reported by mallinfo(arena+hblkhd)
         82505 MiB available memory on the node where the printing process lives
------------------
     ethr =  6.27E-09,  avg # of iterations =  4.2

     total cpu time spent up to now is        2.0 secs

     total energy              =     -22.67768694 Ry
     estimated scf accuracy    <       0.00001364 Ry

     iteration #  9     ecut=    30.00 Ry     beta= 0.40
     Davidson diagonalization with overlap

---- Real-time Memory Report at c_bands before calling an iterative solver
            42 MiB given to the printing process from OS
            12 MiB allocation reported by mallinfo(arena+hblkhd)
         82498 MiB available memory on the node where the printing process lives
------------------
     ethr =  6.27E-09,  avg # of iterations =  2.9

     total cpu time spent up to now is        2.2 secs

     total energy              =     -22.67768726 Ry
     estimated scf accuracy    <       0.00000112 Ry

     iteration # 10     ecut=    30.00 Ry     beta= 0.40
     Davidson diagonalization with overlap

---- Real-time Memory Report at c_bands before calling an iterative solver
            42 MiB given to the printing process from OS
            12 MiB allocation reported by mallinfo(arena+hblkhd)
         82497 MiB available memory on the node where the printing process lives
------------------
     ethr =  6.27E-09,  avg # of iterations =  1.4

     total cpu time spent up to now is        2.3 secs

     total energy              =     -22.67768716 Ry
     estimated scf accuracy    <       0.00000029 Ry

     iteration # 11     ecut=    30.00 Ry     beta= 0.40
     Davidson diagonalization with overlap

---- Real-time Memory Report at c_bands before calling an iterative solver
            42 MiB given to the printing process from OS
            12 MiB allocation reported by mallinfo(arena+hblkhd)
         84833 MiB available memory on the node where the printing process lives
------------------
     ethr =  3.56E-09,  avg # of iterations =  3.1

     total cpu time spent up to now is        2.5 secs

     total energy              =     -22.67768723 Ry
     estimated scf accuracy    <       0.00000019 Ry

     iteration # 12     ecut=    30.00 Ry     beta= 0.40
     Davidson diagonalization with overlap

---- Real-time Memory Report at c_bands before calling an iterative solver
            42 MiB given to the printing process from OS
            12 MiB allocation reported by mallinfo(arena+hblkhd)
         89881 MiB available memory on the node where the printing process lives
------------------
     ethr =  2.33E-09,  avg # of iterations =  1.0

     total cpu time spent up to now is        2.6 secs

     total energy              =     -22.67768721 Ry
     estimated scf accuracy    <       0.00000005 Ry

     iteration # 13     ecut=    30.00 Ry     beta= 0.40
     Davidson diagonalization with overlap

---- Real-time Memory Report at c_bands before calling an iterative solver
            42 MiB given to the printing process from OS
            12 MiB allocation reported by mallinfo(arena+hblkhd)
         89183 MiB available memory on the node where the printing process lives
------------------
     ethr =  5.68E-10,  avg # of iterations =  2.0

     total cpu time spent up to now is        2.7 secs

     total energy              =     -22.67768722 Ry
     estimated scf accuracy    <          4.1E-10 Ry

     iteration # 14     ecut=    30.00 Ry     beta= 0.40
     Davidson diagonalization with overlap

---- Real-time Memory Report at c_bands before calling an iterative solver
            42 MiB given to the printing process from OS
            12 MiB allocation reported by mallinfo(arena+hblkhd)
         88881 MiB available memory on the node where the printing process lives
------------------
     ethr =  5.11E-12,  avg # of iterations =  5.0

     total cpu time spent up to now is        2.9 secs

     total energy              =     -22.67768722 Ry
     estimated scf accuracy    <          1.2E-09 Ry

     iteration # 15     ecut=    30.00 Ry     beta= 0.40
     Davidson diagonalization with overlap

---- Real-time Memory Report at c_bands before calling an iterative solver
            42 MiB given to the printing process from OS
            12 MiB allocation reported by mallinfo(arena+hblkhd)
         86700 MiB available memory on the node where the printing process lives
------------------
     ethr =  5.11E-12,  avg # of iterations =  2.1

     total cpu time spent up to now is        3.0 secs

     End of self-consistent calculation

          k = 0.0000 0.0000 0.0000 (   749 PWs)   bands (ev):

    -5.8373   6.1438   6.1438   6.1438

     occupation numbers 
     1.0000   1.0000   1.0000   1.0000

          k =-0.0505 0.0505 0.0505 (   737 PWs)   bands (ev):

    -5.7702   5.4698   6.0339   6.0339

     occupation numbers 
     1.0000   1.0000   1.0000   1.0000

          k =-0.1010 0.1010 0.1010 (   752 PWs)   bands (ev):

    -5.5705   4.1958   5.7828   5.7828

     occupation numbers 
     1.0000   1.0000   1.0000   1.0000

          k =-0.1515 0.1515 0.1515 (   757 PWs)   bands (ev):

    -5.2434   2.8475   5.5059   5.5059

     occupation numbers 
     1.0000   1.0000   1.0000   1.0000

          k =-0.2020 0.2020 0.2020 (   757 PWs)   bands (ev):

    -4.8012   1.5642   5.2653   5.2653

     occupation numbers 
     1.0000   1.0000   1.0000   1.0000

          k =-0.2525 0.2525 0.2525 (   757 PWs)   bands (ev):

    -4.2743   0.4191   5.0860   5.0860

     occupation numbers 
     1.0000   1.0000   1.0000   1.0000

          k =-0.3030 0.3030 0.3030 (   760 PWs)   bands (ev):

    -3.7518  -0.4798   4.9769   4.9769

     occupation numbers 
     1.0000   1.0000   1.0000   1.0000

          k = 0.3536-0.3536-0.3536 (   754 PWs)   bands (ev):

    -3.4921  -0.8658   4.9405   4.9405

     occupation numbers 
     1.0000   1.0000   1.0000   1.0000

          k = 0.0000-0.0000 0.1010 (   741 PWs)   bands (ev):

    -5.7478   5.6075   5.8068   5.8068

     occupation numbers 
     1.0000   1.0000   1.0000   1.0000

          k =-0.0505 0.0505 0.1515 (   751 PWs)   bands (ev):

    -5.5921   4.5769   5.4994   5.6853

     occupation numbers 
     1.0000   1.0000   1.0000   1.0000

          k =-0.1010 0.1010 0.2020 (   749 PWs)   bands (ev):

    -5.3068   3.2784   5.2086   5.4351

     occupation numbers 
     1.0000   1.0000   1.0000   1.0000

          k =-0.1515 0.1515 0.2525 (   757 PWs)   bands (ev):

    -4.9011   1.9892   4.9810   5.1343

     occupation numbers 
     1.0000   1.0000   1.0000   1.0000

          k =-0.2020 0.2020 0.3030 (   760 PWs)   bands (ev):

    -4.3971   0.8030   4.8354   4.8567

     occupation numbers 
     1.0000   1.0000   1.0000   1.0000

          k =-0.2525 0.2525 0.3536 (   756 PWs)   bands (ev):

    -3.8557  -0.1899   4.6336   4.7773

     occupation numbers 
     1.0000   1.0000   1.0000   1.0000

          k = 0.4041-0.4041-0.3030 (   751 PWs)   bands (ev):

    -3.4653  -0.7875   4.4799   4.8054

     occupation numbers 
     1.0000   1.0000   1.0000   1.0000

          k = 0.3536-0.3536-0.2525 (   756 PWs)   bands (ev):

    -3.5577  -0.6531   4.4053   4.9139

     occupation numbers 
     1.0000   1.0000   1.0000   1.0000

          k = 0.3030-0.3030-0.2020 (   758 PWs)   bands (ev):

    -4.0338   0.1132   4.4171   5.0943

     occupation numbers 
     1.0000   1.0000   1.0000   1.0000

          k = 0.2525-0.2525-0.1515 (   756 PWs)   bands (ev):

    -4.5744   1.1841   4.5209   5.3337

     occupation numbers 
     1.0000   1.0000   1.0000   1.0000

          k = 0.2020-0.2020-0.1010 (   755 PWs)   bands (ev):

    -5.0493   2.4102   4.7199   5.6107

     occupation numbers 
     1.0000   1.0000   1.0000   1.0000

          k = 0.1515-0.1515-0.0505 (   752 PWs)   bands (ev):

    -5.4162   3.6991   5.0187   5.8820

     occupation numbers 
     1.0000   1.0000   1.0000   1.0000

          k = 0.1010-0.1010 0.0000 (   741 PWs)   bands (ev):

    -5.6588   4.8569   5.4669   6.0600

     occupation numbers 
     1.0000   1.0000   1.0000   1.0000

          k = 0.0000-0.0000 0.2020 (   761 PWs)   bands (ev):

    -5.4803   4.5070   5.1591   5.1591

     occupation numbers 
     1.0000   1.0000   1.0000   1.0000

          k =-0.0505 0.0505 0.2525 (   756 PWs)   bands (ev):

    -5.2379   3.5514   4.8498   4.9072

     occupation numbers 
     1.0000   1.0000   1.0000   1.0000

          k =-0.1010 0.1010 0.3030 (   760 PWs)   bands (ev):

    -4.8714   2.3701   4.5706   4.6141

     occupation numbers 
     1.0000   1.0000   1.0000   1.0000

          k =-0.1515 0.1515 0.3536 (   755 PWs)   bands (ev):

    -4.3970   1.2067   4.2031   4.4709

     occupation numbers 
     1.0000   1.0000   1.0000   1.0000

          k =-0.2020 0.2020 0.4041 (   760 PWs)   bands (ev):

    -3.8564   0.1712   3.8761   4.4267

     occupation numbers 
     1.0000   1.0000   1.0000   1.0000

          k = 0.4546-0.4546-0.2525 (   748 PWs)   bands (ev):

    -3.3791  -0.5776   3.6217   4.4811

     occupation numbers 
     1.0000   1.0000   1.0000   1.0000

          k = 0.4041-0.4041-0.2020 (   749 PWs)   bands (ev):

    -3.2900  -0.7029   3.4577   4.6284

     occupation numbers 
     1.0000   1.0000   1.0000   1.0000

          k = 0.3536-0.3536-0.1515 (   755 PWs)   bands (ev):

    -3.6858  -0.1076   3.3977   4.8571

     occupation numbers 
     1.0000   1.0000   1.0000   1.0000

          k = 0.3030-0.3030-0.1010 (   749 PWs)   bands (ev):

    -4.2275   0.8563   3.4576   5.1478

     occupation numbers 
     1.0000   1.0000   1.0000   1.0000

          k = 0.2525-0.2525-0.0505 (   751 PWs)   bands (ev):

    -4.7295   1.9594   3.6701   5.4657

     occupation numbers 
     1.0000   1.0000   1.0000   1.0000

          k = 0.2020-0.2020-0.0000 (   753 PWs)   bands (ev):

    -5.1329   2.9937   4.1473   5.7463

     occupation numbers 
     1.0000   1.0000   1.0000   1.0000

          k = 0.0000-0.0000 0.3030 (   745 PWs)   bands (ev):

    -5.0381   3.2609   4.5202   4.5202

     occupation numbers 
     1.0000   1.0000   1.0000   1.0000

          k =-0.0505 0.0505 0.3536 (   747 PWs)   bands (ev):

    -4.7122   2.4379   4.1615   4.2655

     occupation numbers 
     1.0000   1.0000   1.0000   1.0000

          k =-0.1010 0.1010 0.4041 (   751 PWs)   bands (ev):

    -4.2718   1.4522   3.6829   4.1065

     occupation numbers 
     1.0000   1.0000   1.0000   1.0000

          k =-0.1515 0.1515 0.4546 (   754 PWs)   bands (ev):

    -3.7456   0.4786   3.2183   4.0518

     occupation numbers 
     1.0000   1.0000   1.0000   1.0000

          k = 0.5051-0.5051-0.2020 (   749 PWs)   bands (ev):

    -3.2202  -0.3302   2.8400   4.1029

     occupation numbers 
     1.0000   1.0000   1.0000   1.0000

          k = 0.4546-0.4546-0.1515 (   753 PWs)   bands (ev):

    -2.9649  -0.6745   2.5774   4.2557

     occupation numbers 
     1.0000   1.0000   1.0000   1.0000

          k = 0.4041-0.4041-0.1010 (   749 PWs)   bands (ev):

    -3.2468  -0.2831   2.4533   4.4995

     occupation numbers 
     1.0000   1.0000   1.0000   1.0000

          k = 0.3536-0.3536-0.0505 (   752 PWs)   bands (ev):

    -3.7745   0.5181   2.5108   4.8141

     occupation numbers 
     1.0000   1.0000   1.0000   1.0000

          k = 0.3030-0.3030-0.0000 (   754 PWs)   bands (ev):

    -4.2955   1.3516   2.8677   5.1607

     occupation numbers 
     1.0000   1.0000   1.0000   1.0000

          k = 0.0000-0.0000 0.4041 (   745 PWs)   bands (ev):

    -4.4264   1.9798   3.9872   3.9872

     occupation numbers 
     1.0000   1.0000   1.0000   1.0000

          k =-0.0505 0.0505 0.4546 (   746 PWs)   bands (ev):

    -4.0224   1.2571   3.5860   3.8041

     occupation numbers 
     1.0000   1.0000   1.0000   1.0000

          k =-0.1010 0.1010 0.5051 (   756 PWs)   bands (ev):

    -3.5199   0.4719   2.9879   3.7269

     occupation numbers 
     1.0000   1.0000   1.0000   1.0000

          k = 0.5556-0.5556-0.1515 (   750 PWs)   bands (ev):

    -2.9755  -0.2621   2.4288   3.7591

     occupation numbers 
     1.0000   1.0000   1.0000   1.0000

          k = 0.5051-0.5051-0.1010 (   750 PWs)   bands (ev):

    -2.5920  -0.7184   2.0207   3.8981

     occupation numbers 
     1.0000   1.0000   1.0000   1.0000

          k = 0.4546-0.4546-0.0505 (   745 PWs)   bands (ev):

    -2.7473  -0.5270   1.8254   4.1354

     occupation numbers 
     1.0000   1.0000   1.0000   1.0000

          k = 0.4041-0.4041 0.0000 (   754 PWs)   bands (ev):

    -3.2479   0.0381   1.9429   4.4528

     occupation numbers 
     1.0000   1.0000   1.0000   1.0000

          k =-0.0000 0.0000 0.5051 (   757 PWs)   bands (ev):

    -3.6541   0.7058   3.5934   3.5934

     occupation numbers 
     1.0000   1.0000   1.0000   1.0000

          k =-0.0505 0.0505 0.5556 (   754 PWs)   bands (ev):

    -3.1801   0.0566   3.2039   3.4882

     occupation numbers 
     1.0000   1.0000   1.0000   1.0000

          k = 0.6061-0.6061-0.1010 (   751 PWs)   bands (ev):

    -2.6365  -0.5703   2.5698   3.4938

     occupation numbers 
     1.0000   1.0000   1.0000   1.0000

          k = 0.5556-0.5556-0.0505 (   744 PWs)   bands (ev):

    -2.1732  -1.0316   2.0019   3.6093

     occupation numbers 
     1.0000   1.0000   1.0000   1.0000

          k = 0.5051-0.5051 0.0000 (   740 PWs)   bands (ev):

    -2.2693  -0.9141   1.6950   3.8283

     occupation numbers 
     1.0000   1.0000   1.0000   1.0000

          k = 0.0000-0.0000 0.6061 (   749 PWs)   bands (ev):

    -2.7337  -0.5265   3.3530   3.3530

     occupation numbers 
     1.0000   1.0000   1.0000   1.0000

          k = 0.6566-0.6566-0.0505 (   751 PWs)   bands (ev):

    -2.2024  -1.1103   3.0139   3.3283

     occupation numbers 
     1.0000   1.0000   1.0000   1.0000

          k = 0.6061-0.6061-0.0000 (   752 PWs)   bands (ev):

    -1.7758  -1.4903   2.4329   3.4153

     occupation numbers 
     1.0000   1.0000   1.0000   1.0000

          k = 0.0000 0.0000-0.7071 (   740 PWs)   bands (ev):

    -1.6831  -1.6831   3.2722   3.2722

     occupation numbers 
     1.0000   1.0000   1.0000   1.0000

          k = 0.0000 0.1010 0.2020 (   756 PWs)   bands (ev):

    -5.3931   3.8807   4.8124   5.6021

     occupation numbers 
     1.0000   1.0000   1.0000   1.0000

          k =-0.0505 0.1515 0.2525 (   757 PWs)   bands (ev):

    -5.0672   2.7837   4.3370   5.3937

     occupation numbers 
     1.0000   1.0000   1.0000   1.0000

          k =-0.1010 0.2020 0.3030 (   756 PWs)   bands (ev):

    -4.6263   1.5920   4.0594   5.1107

     occupation numbers 
     1.0000   1.0000   1.0000   1.0000

          k =-0.1515 0.2525 0.3536 (   757 PWs)   bands (ev):

    -4.1001   0.4881   3.8951   4.8500

     occupation numbers 
     1.0000   1.0000   1.0000   1.0000

          k = 0.5051-0.4041-0.3030 (   755 PWs)   bands (ev):

    -3.5763  -0.3936   3.8131   4.6681

     occupation numbers 
     1.0000   1.0000   1.0000   1.0000

          k = 0.4546-0.3536-0.2525 (   752 PWs)   bands (ev):

    -3.3141  -0.7767   3.7895   4.6023

     occupation numbers 
     1.0000   1.0000   1.0000   1.0000

          k = 0.0000 0.1010 0.3030 (   755 PWs)   bands (ev):

    -4.9541   2.8478   4.1703   4.8259

     occupation numbers 
     1.0000   1.0000   1.0000   1.0000

          k =-0.0505 0.1515 0.3536 (   754 PWs)   bands (ev):

    -4.5505   1.8764   3.6936   4.5929

     occupation numbers 
     1.0000   1.0000   1.0000   1.0000

          k =-0.1010 0.2020 0.4041 (   753 PWs)   bands (ev):

    -4.0483   0.8408   3.3800   4.3481

     occupation numbers 
     1.0000   1.0000   1.0000   1.0000

          k = 0.5556-0.4546-0.2525 (   750 PWs)   bands (ev):

    -3.5060  -0.0806   3.1498   4.2046

     occupation numbers 
     1.0000   1.0000   1.0000   1.0000

          k = 0.5051-0.4041-0.2020 (   750 PWs)   bands (ev):

    -3.1117  -0.6515   2.9804   4.2026

     occupation numbers 
     1.0000   1.0000   1.0000   1.0000

          k = 0.4546-0.3536-0.1515 (   750 PWs)   bands (ev):

    -3.2116  -0.5109   2.8866   4.3358

     occupation numbers 
     1.0000   1.0000   1.0000   1.0000

          k = 0.4041-0.3030-0.1010 (   754 PWs)   bands (ev):

    -3.6943   0.2228   2.8989   4.5771

     occupation numbers 
     1.0000   1.0000   1.0000   1.0000

          k = 0.3536-0.2525-0.0505 (   750 PWs)   bands (ev):

    -4.2333   1.1818   3.0658   4.8865

     occupation numbers 
     1.0000   1.0000   1.0000   1.0000

          k = 0.3030-0.2020-0.0000 (   750 PWs)   bands (ev):

    -4.7042   2.1104   3.5032   5.1978

     occupation numbers 
     1.0000   1.0000   1.0000   1.0000

          k =-0.0000 0.1010 0.4041 (   748 PWs)   bands (ev):

    -4.3479   1.7560   3.6425   4.0986

     occupation numbers 
     1.0000   1.0000   1.0000   1.0000

          k =-0.0505 0.1515 0.4546 (   754 PWs)   bands (ev):

    -3.8760   0.9393   3.1423   3.8724

     occupation numbers 
     1.0000   1.0000   1.0000   1.0000

          k = 0.6061-0.5051-0.2020 (   748 PWs)   bands (ev):

    -3.3355   0.1114   2.6997   3.7514

     occupation numbers 
     1.0000   1.0000   1.0000   1.0000

          k = 0.5556-0.4546-0.1515 (   745 PWs)   bands (ev):

    -2.8542  -0.5347   2.3529   3.7776

     occupation numbers 
     1.0000   1.0000   1.0000   1.0000

          k = 0.5051-0.4041-0.1010 (   746 PWs)   bands (ev):

    -2.7825  -0.6181   2.1408   3.9363

     occupation numbers 
     1.0000   1.0000   1.0000   1.0000

          k = 0.4546-0.3536-0.0505 (   750 PWs)   bands (ev):

    -3.2012  -0.0745   2.1142   4.2031

     occupation numbers 
     1.0000   1.0000   1.0000   1.0000

          k = 0.4041-0.3030-0.0000 (   754 PWs)   bands (ev):

    -3.7413   0.6295   2.3795   4.5420

     occupation numbers 
     1.0000   1.0000   1.0000   1.0000

          k = 0.0000 0.1010 0.5051 (   753 PWs)   bands (ev):

    -3.5845   0.6125   3.2653   3.5425

     occupation numbers 
     1.0000   1.0000   1.0000   1.0000

          k = 0.6566-0.5556-0.1515 (   746 PWs)   bands (ev):

    -3.0596  -0.0604   2.7247   3.3917

     occupation numbers 
     1.0000   1.0000   1.0000   1.0000

          k = 0.6061-0.5051-0.1010 (   743 PWs)   bands (ev):

    -2.5306  -0.6578   2.1767   3.4189

     occupation numbers 
     1.0000   1.0000   1.0000   1.0000

          k = 0.5556-0.4546-0.0505 (   745 PWs)   bands (ev):

    -2.3162  -0.8721   1.8103   3.5792

     occupation numbers 
     1.0000   1.0000   1.0000   1.0000

          k = 0.5051-0.4041 0.0000 (   736 PWs)   bands (ev):

    -2.6752  -0.5043   1.7459   3.8507

     occupation numbers 
     1.0000   1.0000   1.0000   1.0000

          k = 0.7071-0.6061-0.1010 (   749 PWs)   bands (ev):

    -2.6789  -0.5416   3.0564   3.1860

     occupation numbers 
     1.0000   1.0000   1.0000   1.0000

          k = 0.6566-0.5556-0.0505 (   748 PWs)   bands (ev):

    -2.1312  -1.0922   2.4992   3.1635

     occupation numbers 
     1.0000   1.0000   1.0000   1.0000

          k = 0.6061-0.5051 0.0000 (   743 PWs)   bands (ev):

    -1.9031  -1.2690   1.9857   3.3136

     occupation numbers 
     1.0000   1.0000   1.0000   1.0000

          k = 0.0000 0.1010-0.7071 (   758 PWs)   bands (ev):

    -1.6538  -1.6538   3.0268   3.0268

     occupation numbers 
     1.0000   1.0000   1.0000   1.0000

          k = 0.0000 0.2020 0.4041 (   753 PWs)   bands (ev):

    -4.1157   1.2370   2.9882   4.3369

     occupation numbers 
     1.0000   1.0000   1.0000   1.0000

          k = 0.6566-0.4546-0.2525 (   751 PWs)   bands (ev):

    -3.5938   0.4444   2.5905   4.0242

     occupation numbers 
     1.0000   1.0000   1.0000   1.0000

          k = 0.6061-0.4041-0.2020 (   750 PWs)   bands (ev):

    -3.0654  -0.3072   2.4143   3.7905

     occupation numbers 
     1.0000   1.0000   1.0000   1.0000

          k = 0.5556-0.3536-0.1515 (   746 PWs)   bands (ev):

    -2.7921  -0.6638   2.3660   3.7049

     occupation numbers 
     1.0000   1.0000   1.0000   1.0000

          k = 0.7071-0.5051-0.2020 (   757 PWs)   bands (ev):

    -3.3816   0.3383   2.6451   3.5189

     occupation numbers 
     1.0000   1.0000   1.0000   1.0000

          k = 0.6566-0.4546-0.1515 (   747 PWs)   bands (ev):

    -2.8387  -0.3004   2.2714   3.2600

     occupation numbers 
     1.0000   1.0000   1.0000   1.0000

          k = 0.6061-0.4041-0.1010 (   743 PWs)   bands (ev):

    -2.4314  -0.7560   2.0203   3.2075

     occupation numbers 
     1.0000   1.0000   1.0000   1.0000

          k = 0.5556-0.3536-0.0505 (   746 PWs)   bands (ev):

    -2.5643  -0.6054   1.9311   3.3528

     occupation numbers 
     1.0000   1.0000   1.0000   1.0000

          k = 0.5051-0.3030-0.0000 (   745 PWs)   bands (ev):

    -3.0655  -0.0641   2.0907   3.6482

     occupation numbers 
     1.0000   1.0000   1.0000   1.0000

          k = 0.7071-0.5051-0.1010 (   744 PWs)   bands (ev):

    -2.5253  -0.6102   2.5007   2.9166

     occupation numbers 
     1.0000   1.0000   1.0000   1.0000

          k = 0.6566-0.4546-0.0505 (   745 PWs)   bands (ev):

    -2.0303  -1.0792   2.1172   2.8211

     occupation numbers 
     1.0000   1.0000   1.0000   1.0000

          k = 0.6061-0.4041 0.0000 (   745 PWs)   bands (ev):

    -2.0817  -1.0104   1.8474   3.0094

     occupation numbers 
     1.0000   1.0000   1.0000   1.0000

          k =-0.0000 0.2020-0.7071 (   742 PWs)   bands (ev):

    -1.5838  -1.5838   2.5816   2.5816

     occupation numbers 
     1.0000   1.0000   1.0000   1.0000

          k = 0.7071-0.4041-0.1010 (   745 PWs)   bands (ev):

    -2.3072  -0.7702   2.0437   2.8344

     occupation numbers 
     1.0000   1.0000   1.0000   1.0000

          k = 0.6566-0.3536-0.0505 (   742 PWs)   bands (ev):

    -1.9796  -1.0788   1.9869   2.6633

     occupation numbers 
     1.0000   1.0000   1.0000   1.0000

          k =-0.0000 0.3030-0.7071 (   742 PWs)   bands (ev):

    -1.5232  -1.5232   2.2830   2.2830

     occupation numbers 
     1.0000   1.0000   1.0000   1.0000

     highest occupied level (ev):     6.1438

!    total energy              =     -22.67768722 Ry
     estimated scf accuracy    <          3.2E-11 Ry

     The total energy is the sum of the following terms:
     one-electron contribution =       5.16894546 Ry
     hartree contribution      =       1.08049558 Ry
     xc contribution           =     -12.13678261 Ry
     ewald contribution        =     -16.79034566 Ry

     convergence has been achieved in  15 iterations

     Forces acting on atoms (cartesian axes, Ry/au):

     atom    1 type  1   force =     0.00000000    0.00000000    0.00000000
     atom    2 type  1   force =     0.00000000    0.00000000    0.00000000
     The non-local contrib.  to forces
     atom    1 type  1   force =     0.00000000   -0.00000000   -0.00000000
     atom    2 type  1   force =    -0.00000000    0.00000000    0.00000000
     The ionic contribution  to forces
     atom    1 type  1   force =     0.00000000    0.00000000   -0.00000000
     atom    2 type  1   force =     0.00000000   -0.00000000    0.00000000
     The local contribution  to forces
     atom    1 type  1   force =     0.00000000    0.00000000    0.00000000
     atom    2 type  1   force =     0.00000000   -0.00000000    0.00000000
     The core correction contribution to forces
     atom    1 type  1   force =     0.00000000   -0.00000000   -0.00000000
     atom    2 type  1   force =    -0.00000000    0.00000000   -0.00000000
     The Hubbard contrib.    to forces
     atom    1 type  1   force =     0.00000000    0.00000000    0.00000000
     atom    2 type  1   force =     0.00000000    0.00000000    0.00000000
     The SCF correction term to forces
     atom    1 type  1   force =    -0.00000000    0.00000000    0.00000000
     atom    2 type  1   force =     0.00000000   -0.00000000   -0.00000000

     Total force =     0.000000     Total SCF correction =     0.000000


     Computing stress (Cartesian axis) and pressure

          total   stress  (Ry/bohr**3)                   (kbar)     P=        0.01
   0.00000006  -0.00000000  -0.00000000            0.01       -0.00       -0.00
  -0.00000000   0.00000006  -0.00000000           -0.00        0.01       -0.00
  -0.00000000  -0.00000000   0.00000006           -0.00       -0.00        0.01

     kinetic stress (kbar)   2201.51      0.00      0.00
                                0.00   2201.51      0.00
                                0.00      0.00   2201.51

     local   stress (kbar)     39.93     -0.00     -0.00
                               -0.00     39.93     -0.00
                               -0.00     -0.00     39.93

     nonloc. stress (kbar)   1626.14      0.00     -0.00
                                0.00   1626.14      0.00
                                0.00      0.00   1626.14

     hartree stress (kbar)    195.85      0.00     -0.00
                                0.00    195.85      0.00
                               -0.00      0.00    195.85

     exc-cor stress (kbar)   2906.58      0.00      0.00
                                0.00   2906.58     -0.00
                                0.00     -0.00   2906.58

     corecor stress (kbar)  -3926.58      0.00      0.00
                                0.00  -3926.58      0.00
                                0.00      0.00  -3926.58

     ewald   stress (kbar)  -3043.43     -0.00      0.00
                               -0.00  -3043.43      0.00
                                0.00      0.00  -3043.43

     hubbard stress (kbar)      0.00      0.00      0.00
                                0.00      0.00      0.00
                                0.00      0.00      0.00

     DFT-D   stress (kbar)      0.00      0.00      0.00
                                0.00      0.00      0.00
                                0.00      0.00      0.00

     XDM     stress (kbar)      0.00      0.00      0.00
                                0.00      0.00      0.00
                                0.00      0.00      0.00

     dft-nl  stress (kbar)      0.00      0.00      0.00
                                0.00      0.00      0.00
                                0.00      0.00      0.00

     TS-vdW  stress (kbar)      0.00      0.00      0.00
                                0.00      0.00      0.00
                                0.00      0.00      0.00

     MDB     stress (kbar)      0.00      0.00      0.00
                                0.00      0.00      0.00
                                0.00      0.00      0.00

     3D-RISM stress (kbar)      0.00      0.00      0.00
                                0.00      0.00      0.00
                                0.00      0.00      0.00


     Writing all to output data dir tmp/si.save/

     init_run     :      0.62s CPU      0.53s WALL (       1 calls)
     electrons    :      4.51s CPU      2.43s WALL (       1 calls)
     forces       :      0.04s CPU      0.02s WALL (       1 calls)
     stress       :      0.08s CPU      0.06s WALL (       1 calls)

     Called by init_run:
     wfcinit      :      0.19s CPU      0.11s WALL (       1 calls)
     wfcinit:atom :      0.00s CPU      0.00s WALL (     104 calls)
     wfcinit:wfcr :      0.18s CPU      0.10s WALL (     104 calls)
     potinit      :      0.12s CPU      0.12s WALL (       1 calls)
     hinit0       :      0.25s CPU      0.25s WALL (       1 calls)

     Called by electrons:
     c_bands      :      3.87s CPU      2.01s WALL (      16 calls)
     sum_band     :      0.48s CPU      0.34s WALL (      16 calls)
     v_of_rho     :      0.06s CPU      0.03s WALL (      16 calls)
     v_h          :      0.00s CPU      0.00s WALL (      16 calls)
     v_xc         :      0.06s CPU      0.03s WALL (      18 calls)
     newd         :      0.12s CPU      0.09s WALL (      16 calls)
     mix_rho      :      0.01s CPU      0.01s WALL (      16 calls)

     Called by c_bands:
     init_us_2    :      0.10s CPU      0.04s WALL (    3640 calls)
     init_us_2:cp :      0.09s CPU      0.04s WALL (    3640 calls)
     cegterg      :      3.65s CPU      1.90s WALL (    1664 calls)

     Called by sum_band:
     sum_band:wei :      0.00s CPU      0.00s WALL (      16 calls)
     sum_band:loo :      0.37s CPU      0.26s WALL (      16 calls)
     sum_band:buf :      0.00s CPU      0.00s WALL (    1664 calls)
     sum_band:ini :      0.04s CPU      0.02s WALL (    1664 calls)
     sum_band:cal :      0.06s CPU      0.04s WALL (    1664 calls)
     sum_band:bec :      0.00s CPU      0.00s WALL (    1664 calls)
     addusdens    :      0.06s CPU      0.05s WALL (      16 calls)
                                        0.00s GPU  (      16 calls)
     addusd:skk   :      0.00s CPU      0.00s WALL (      16 calls)
                                        0.00s GPU  (      16 calls)

     Called by *egterg:
     cdiaghg      :      0.44s CPU      0.22s WALL (    6189 calls)
     cegterg:over :      0.26s CPU      0.14s WALL (    4629 calls)
     cegterg:upda :      0.01s CPU      0.01s WALL (    4629 calls)
     cegterg:last :      0.02s CPU      0.01s WALL (    4233 calls)
     h_psi        :      2.84s CPU      1.48s WALL (    6397 calls)
     s_psi        :      0.03s CPU      0.02s WALL (    6397 calls)
     g_psi        :      0.01s CPU      0.00s WALL (    4629 calls)

     Called by h_psi:
     h_psi:calbec :      0.29s CPU      0.15s WALL (    6397 calls)
     vloc_psi     :      2.48s CPU      1.30s WALL (    6397 calls)
     add_vuspsi   :      0.04s CPU      0.02s WALL (    6397 calls)

     General routines
     calbec       :      0.35s CPU      0.20s WALL (    8581 calls)
     fft          :      0.30s CPU      0.29s WALL (     232 calls)
     ffts         :      0.12s CPU      0.12s WALL (      32 calls)
     fftw         :      2.54s CPU      1.39s WALL (   51328 calls)
     interpolate  :      0.12s CPU      0.12s WALL (      16 calls)

     Parallel routines

     PWSCF        :      5.37s CPU      3.17s WALL


   This run was terminated on:  16:44:44  22Dec2024            

=------------------------------------------------------------------------------=
   JOB DONE.
=------------------------------------------------------------------------------=
