2000
Lattice="6.185784781162498e-07 21.898504005943565 21.89850513452501 21.898503629665413 6.954364259162086e-07 21.898505057667062 21.898503540954557 21.89850384037477 7.841472755629668e-07" Properties=species:S:1:pos:R:3:forces:R:3 energy=-15056.8251953125 free_energy=-15056.8251953125 stress="-4.828643795917742e-07 9.825892277603998e-08 -9.234023323756446e-09 9.825892277603998e-08 -6.670489938187529e-07 -4.964994104739162e-08 -9.234023323756446e-09 -4.964994104739162e-08 -6.034491661921493e-07" pbc="T T T"
Si       0.00000000       0.00000000       0.00000000       0.00000268       0.00000600       0.00000719
C        1.09492519       1.09492521       1.09492527       0.00000283       0.00000198      -0.00000191
Si       2.18985035       2.18985038       0.00000008      -0.00000385       0.00000012       0.00000931
C        3.28477555       3.28477560       1.09492535       0.00000202       0.00000252      -0.00000864
Si       4.37970071       4.37970077       0.00000016      -0.00000111      -0.00000028      -0.00000805
C        5.47462590       5.47462598       1.09492543      -0.00000191      -0.00000694       0.00000010
Si       6.56955106       6.56955115       0.00000024      -0.00000249       0.00001116      -0.00000842
C        7.66447626       7.66447637       1.09492551      -0.00000759      -0.00000137       0.00000219
Si       8.75940142       8.75940154       0.00000031       0.00000404       0.00000868       0.00000601
C        9.85432661       9.85432675       1.09492559       0.00000768      -0.00000120       0.00000397
Si      10.94925177      10.94925192       0.00000039      -0.00002388      -0.00000291       0.00001825
C       12.04417697      12.04417713       1.09492567      -0.00000119      -0.00000911       0.00001470
Si      13.13910212      13.13910230       0.00000047      -0.00000438       0.00002933      -0.00002304
C       14.23402732      14.23402752       1.09492574       0.00001487      -0.00001088       0.00000918
Si      15.32895248      15.32895269       0.00000055      -0.00001426      -0.00000983       0.00002829
C       16.42387767      16.42387790       1.09492582      -0.00000468      -0.00000073      -0.00000908
Si      17.51880283      17.51880307       0.00000063       0.00000443      -0.00000270       0.00000810
C       18.61372803      18.61372829       1.09492590       0.00000256       0.00002715      -0.00000697
Si      19.70865319      19.70865346       0.00000071       0.00001469      -0.00001361       0.00002963
C       20.80357838      20.80357867       1.09492598      -0.00003049       0.00000085      -0.00000577
Si       2.18985036       0.00000007       2.18985051      -0.00000233       0.00001471       0.00001450
C        3.28477556       1.09492528       3.28477578      -0.00000304       0.00000075       0.00000152
Si       4.37970072       2.18985045       2.18985058      -0.00000713       0.00000001       0.00001610
C        5.47462591       3.28477567       3.28477586      -0.00000328       0.00000067      -0.00000479
Si       6.56955107       4.37970084       2.18985066       0.00000312       0.00000379       0.00001295
C        7.66447627       5.47462605       3.28477594      -0.00000740      -0.00000103      -0.00000035
Si       8.75940143       6.56955122       2.18985074      -0.00000006       0.00000722       0.00000226
C        9.85432662       7.66447644       3.28477602       0.00000754       0.00000352       0.00000496
Si      10.94925178       8.75940161       2.18985082      -0.00002137       0.00001596       0.00000531
C       12.04417697       9.85432682       3.28477609      -0.00000262      -0.00000843      -0.00000210
Si      13.13910213      10.94925199       2.18985090      -0.00000401      -0.00000208       0.00000974
C       14.23402733      12.04417720       3.28477617       0.00001151      -0.00000244       0.00000195
Si      15.32895249      13.13910237       2.18985098      -0.00001723       0.00001546       0.00000080
C       16.42387768      14.23402759       3.28477625       0.00000289      -0.00001252       0.00000032
Si      17.51880284      15.32895276       2.18985105       0.00001513      -0.00001508      -0.00000200
C       18.61372804      16.42387797       3.28477633       0.00000433      -0.00000457       0.00000265
Si      19.70865320      17.51880314       2.18985113       0.00003163      -0.00000142       0.00000597
C       20.80357839      18.61372836       3.28477641      -0.00002354       0.00003155      -0.00000254
Si      21.89850355      19.70865353       2.18985121      -0.00001408      -0.00001656       0.00000906
C       22.99342874      20.80357874       3.28477649      -0.00000220       0.00000076       0.00000064
Si       4.37970073       0.00000014       4.37970101      -0.00000711      -0.00000259       0.00000034
C        5.47462592       1.09492535       5.47462629       0.00000042       0.00000379       0.00000577
Si       6.56955108       2.18985052       4.37970109       0.00000323      -0.00000037       0.00000629
C        7.66447627       3.28477574       5.47462636      -0.00000888       0.00000452      -0.00000177
Si       8.75940143       4.37970091       4.37970117       0.00000362      -0.00000997       0.00000310
C        9.85432663       5.47462612       5.47462644       0.00001528       0.00000587      -0.00000507
Si      10.94925179       6.56955129       4.37970125      -0.00001769      -0.00000296       0.00000215
C       12.04417698       7.66447650       5.47462652       0.00000188      -0.00000031       0.00000274
Si      13.13910214       8.75940168       4.37970133      -0.00000062       0.00001387       0.00000813
C       14.23402734       9.85432689       5.47462660       0.00001017      -0.00001010       0.00000233
Si      15.32895250      10.94925206       4.37970140      -0.00002099       0.00000166       0.00000608
C       16.42387769      12.04417727       5.47462668       0.00000202       0.00000619      -0.00000039
Si      17.51880285      13.13910244       4.37970148       0.00000928       0.00000137      -0.00000583
C       18.61372805      14.23402766       5.47462676       0.00000208      -0.00000448      -0.00000258
Si      19.70865320      15.32895283       4.37970156       0.00002162      -0.00000176       0.00000405
C       20.80357840      16.42387804       5.47462683      -0.00001606      -0.00000729      -0.00001066
Si      21.89850356      17.51880321       4.37970164      -0.00001192       0.00002026       0.00001490
C       22.99342875      18.61372842       5.47462691      -0.00000181       0.00002212      -0.00000729
Si      24.08835391      19.70865360       4.37970172       0.00000085      -0.00001322       0.00001109
C       25.18327911      20.80357881       5.47462699       0.00000649      -0.00000030      -0.00000510
Si       6.56955109       0.00000021       6.56955152      -0.00000408       0.00000037       0.00000795
C        7.66447628       1.09492542       7.66447679      -0.00000632       0.00000104       0.00000089
Si       8.75940144       2.18985059       6.56955160      -0.00000345       0.00000063       0.00000798
C        9.85432664       3.28477581       7.66447687       0.00001767       0.00000039       0.00000220
Si      10.94925180       4.37970098       6.56955167      -0.00001435      -0.00001108       0.00000087
C       12.04417699       5.47462619       7.66447695       0.00000224       0.00000244      -0.00000166
Si      13.13910215       6.56955136       6.56955175      -0.00000550       0.00000227      -0.00000326
C       14.23402735       7.66447657       7.66447703       0.00001498      -0.00000458       0.00000507
Si      15.32895251       8.75940174       6.56955183      -0.00001892       0.00001616      -0.00000307
C       16.42387770       9.85432696       7.66447711       0.00000411      -0.00000945       0.00000001
Si      17.51880286      10.94925213       6.56955191       0.00000848      -0.00000662       0.00000208
C       18.61372805      12.04417734       7.66447718       0.00000491       0.00001714      -0.00000126
Si      19.70865321      13.13910251       6.56955199       0.00001954      -0.00001022       0.00001368
C       20.80357841      14.23402773       7.66447726      -0.00002091      -0.00000245      -0.00000089
Si      21.89850357      15.32895290       6.56955207      -0.00000937       0.00000123       0.00001137
C       22.99342876      16.42387811       7.66447734       0.00000325      -0.00000459      -0.00000155
Si      24.08835392      17.51880328       6.56955214      -0.00001890       0.00002628       0.00002175
C       25.18327912      18.61372849       7.66447742       0.00000388       0.00001747       0.00000322
Si      26.27820428      19.70865366       6.56955222       0.00000055      -0.00001391       0.00000491
C       27.37312947      20.80357888       7.66447750       0.00000970       0.00001036      -0.00000108
Si       8.75940145       0.00000028       8.75940202      -0.00001385       0.00000883       0.00000723
C        9.85432665       1.09492549       9.85432730       0.00001293       0.00000141       0.00000214
Si      10.94925181       2.18985066       8.75940210      -0.00002478       0.00001251       0.00000925
C       12.04417700       3.28477588       9.85432738      -0.00000157      -0.00000260       0.00001271
Si      13.13910216       4.37970105       8.75940218      -0.00000423      -0.00000387       0.00000706
C       14.23402735       5.47462626       9.85432745       0.00001681       0.00000288       0.00000680
Si      15.32895251       6.56955143       8.75940226      -0.00002813       0.00001225       0.00001477
C       16.42387771       7.66447664       9.85432753       0.00000022      -0.00000357       0.00001080
Si      17.51880287       8.75940181       8.75940234       0.00000483      -0.00000418       0.00000007
C       18.61372806       9.85432703       9.85432761      -0.00000018       0.00000364       0.00001220
Si      19.70865322      10.94925220       8.75940242       0.00002556       0.00000808       0.00001443
C       20.80357842      12.04417741       9.85432769      -0.00002455       0.00001297      -0.00001311
Si      21.89850358      13.13910258       8.75940249      -0.00001825      -0.00000537       0.00002366
C       22.99342877      14.23402780       9.85432777       0.00000665      -0.00000118      -0.00001191
Si      24.08835393      15.32895297       8.75940257      -0.00001389       0.00000513       0.00001700
C       25.18327913      16.42387818       9.85432785       0.00000809      -0.00000760      -0.00001067
Si      26.27820428      17.51880335       8.75940265      -0.00000063       0.00003557       0.00002054
C       27.37312948      18.61372856       9.85432792       0.00000203      -0.00001925      -0.00000904
Si      28.46805464      19.70865373       8.75940273       0.00001766       0.00000077       0.00002112
C       29.56297983      20.80357895       9.85432800      -0.00002399      -0.00000217      -0.00000727
Si      10.94925181       0.00000035      10.94925253      -0.00002105       0.00001558       0.00001899
C       12.04417701       1.09492556      12.04417780       0.00000094      -0.00000040      -0.00000644
Si      13.13910217       2.18985073      10.94925261      -0.00000505       0.00000352      -0.00000585
C       14.23402736       3.28477595      12.04417788       0.00002396      -0.00000965       0.00001739
Si      15.32895252       4.37970112      10.94925269      -0.00002370      -0.00000149       0.00000196
C       16.42387772       5.47462633      12.04417796       0.00000138      -0.00000981      -0.00000116
Si      17.51880288       6.56955150      10.94925276       0.00000477       0.00000932      -0.00000677
C       18.61372807       7.66447671      12.04417804       0.00000113      -0.00000022       0.00000108
Si      19.70865323       8.75940188      10.94925284       0.00001688       0.00000055      -0.00000035
C       20.80357843       9.85432710      12.04417812      -0.00001930      -0.00000684       0.00000239
Si      21.89850359      10.94925227      10.94925292      -0.00001146       0.00001089       0.00000643
C       22.99342878      12.04417748      12.04417820       0.00000324       0.00001123       0.00000740
Si      24.08835394      13.13910265      10.94925300      -0.00001484      -0.00000601       0.00000972
C       25.18327913      14.23402787      12.04417827       0.00000856      -0.00000165       0.00000604
Si      26.27820429      15.32895304      10.94925308       0.00000262      -0.00000735      -0.00000301
C       27.37312949      16.42387825      12.04417835       0.00000830      -0.00000144       0.00000948
Si      28.46805465      17.51880342      10.94925316       0.00000604       0.00005461       0.00001439
C       29.56297984      18.61372863      12.04417843      -0.00002187      -0.00003274       0.00001336
Si      30.65790500      19.70865380      10.94925323      -0.00001557       0.00000791       0.00001619
C       31.75283020      20.80357902      12.04417851       0.00000970      -0.00000086      -0.00001693
Si      13.13910218       0.00000042      13.13910303      -0.00002308       0.00001186       0.00002511
C       14.23402737       1.09492563      14.23402831      -0.00000150      -0.00001198       0.00003434
Si      15.32895253       2.18985080      13.13910311      -0.00000598       0.00003785      -0.00003129
C       16.42387773       3.28477601      14.23402839      -0.00000531      -0.00000733      -0.00000986
Si      17.51880289       4.37970119      13.13910319       0.00000444       0.00001047       0.00002406
C       18.61372808       5.47462640      14.23402847      -0.00000653      -0.00000173      -0.00001267
Si      19.70865324       6.56955157      13.13910327       0.00001751       0.00002084       0.00003783
C       20.80357843       7.66447678      14.23402854      -0.00002852       0.00000016      -0.00001723
Si      21.89850359       8.75940195      13.13910335      -0.00002305       0.00000689       0.00003116
C       22.99342879       9.85432717      14.23402862       0.00000332       0.00000024      -0.00000481
Si      24.08835395      10.94925234      13.13910343      -0.00000373       0.00000455      -0.00000117
C       25.18327914      12.04417755      14.23402870       0.00000138      -0.00000732      -0.00000474
Si      26.27820430      13.13910272      13.13910351       0.00000876      -0.00001217      -0.00000512
C       27.37312950      14.23402794      14.23402878      -0.00000231       0.00000597      -0.00000178
Si      28.46805466      15.32895311      13.13910358       0.00002203      -0.00000940      -0.00000364
C       29.56297985      16.42387832      14.23402886      -0.00001714       0.00000095      -0.00000606
Si      30.65790501      17.51880349      13.13910366      -0.00002711       0.00005703       0.00000931
C       31.75283021      18.61372870      14.23402894       0.00000487      -0.00002493      -0.00000010
Si      32.84775536      19.70865387      13.13910374      -0.00000703       0.00000240       0.00001039
C       33.94268056      20.80357909      14.23402901       0.00000918       0.00000343       0.00000358
Si      15.32895254       0.00000049      15.32895354      -0.00001741       0.00001250       0.00000660
C       16.42387774       1.09492570      16.42387881      -0.00001160       0.00000014      -0.00001150
Si      17.51880289       2.18985087      15.32895362       0.00002197      -0.00000868      -0.00000161
C       18.61372809       3.28477608      16.42387889      -0.00000316      -0.00000247      -0.00000551
Si      19.70865325       4.37970125      15.32895370       0.00003299       0.00000847       0.00001355
C       20.80357844       5.47462647      16.42387897      -0.00002969      -0.00000561      -0.00000858
Si      21.89850360       6.56955164      15.32895378      -0.00000606       0.00000601       0.00001739
C       22.99342880       7.66447685      16.42387905      -0.00000095       0.00000175      -0.00001227
Si      24.08835396       8.75940202      15.32895385      -0.00000307      -0.00000655       0.00001428
C       25.18327915       9.85432724      16.42387913      -0.00000193       0.00000169      -0.00001094
Si      26.27820431      10.94925241      15.32895393       0.00001299       0.00000371       0.00001004
C       27.37312951      12.04417762      16.42387921       0.00000525      -0.00001088      -0.00001475
Si      28.46805467      13.13910279      15.32895401       0.00002520      -0.00000957       0.00001862
C       29.56297986      14.23402800      16.42387929      -0.00002037       0.00000591      -0.00001343
Si      30.65790502      15.32895318      15.32895409      -0.00000474      -0.00001005       0.00001434
C       31.75283021      16.42387839      16.42387936       0.00000051       0.00000105      -0.00001047
Si      32.84775537      17.51880356      15.32895417      -0.00001515       0.00004993       0.00002680
C       33.94268057      18.61372877      16.42387944      -0.00000224      -0.00001483      -0.00000843
Si      35.03760573      19.70865394      15.32895425      -0.00000970       0.00000393      -0.00000126
C       36.13253092      20.80357916      16.42387952       0.00000978       0.00000286      -0.00000323
Si      17.51880290       0.00000056      17.51880405       0.00003589      -0.00000509      -0.00000429
C       18.61372810       1.09492577      18.61372932      -0.00001047      -0.00000896       0.00000265
Si      19.70865326       2.18985094      17.51880412       0.00003289      -0.00000316      -0.00000734
C       20.80357845       3.28477615      18.61372940      -0.00002263      -0.00001026      -0.00000134
Si      21.89850361       4.37970132      17.51880420      -0.00000269       0.00000609      -0.00000464
C       22.99342881       5.47462654      18.61372948      -0.00000106      -0.00000113       0.00000315
Si      24.08835397       6.56955171      17.51880428      -0.00000190       0.00000099      -0.00000156
C       25.18327916       7.66447692      18.61372956       0.00000356       0.00000243      -0.00000209
Si      26.27820432       8.75940209      17.51880436       0.00001162      -0.00001280      -0.00000346
C       27.37312951       9.85432731      18.61372963      -0.00000178       0.00000238      -0.00000312
Si      28.46805467      10.94925248      17.51880444       0.00002554       0.00001063      -0.00000132
C       29.56297987      12.04417769      18.61372971      -0.00002149      -0.00001384      -0.00000141
Si      30.65790503      13.13910286      17.51880452      -0.00000864      -0.00000478       0.00000107
C       31.75283022      14.23402807      18.61372979       0.00000388       0.00000206      -0.00000462
Si      32.84775538      15.32895324      17.51880460       0.00000153      -0.00000712       0.00000194
C       33.94268058      16.42387846      18.61372987      -0.00000296       0.00002904      -0.00000112
Si      35.03760574      17.51880363      17.51880467      -0.00000986      -0.00000789      -0.00000175
C       36.13253093      18.61372884      18.61372995       0.00000012      -0.00000024       0.00000401
Si      37.22745609      19.70865401      17.51880475      -0.00000249      -0.00000328      -0.00000433
C       38.32238129      20.80357923      18.61373003       0.00000727      -0.00000348      -0.00000295
Si      19.70865327       0.00000063      19.70865455       0.00001568       0.00000544       0.00000405
C       20.80357846       1.09492584      20.80357983      -0.00002402      -0.00001679       0.00000625
Si      21.89850362       2.18985101      19.70865463       0.00000166      -0.00000054      -0.00000822
C       22.99342882       3.28477622      20.80357990       0.00000344      -0.00000192       0.00000229
Si      24.08835397       4.37970139      19.70865471       0.00000330       0.00000301      -0.00000302
C       25.18327917       5.47462661      20.80357998       0.00000589      -0.00000476       0.00001700
Si      26.27820433       6.56955178      19.70865479       0.00001030      -0.00000493      -0.00000243
C       27.37312952       7.66447699      20.80358006       0.00000497       0.00000571       0.00002053
Si      28.46805468       8.75940216      19.70865487       0.00002066      -0.00000702       0.00000366
C       29.56297988       9.85432738      20.80358014      -0.00002558       0.00000595       0.00001422
Si      30.65790504      10.94925255      19.70865494      -0.00000937       0.00001130       0.00000556
C       31.75283023      12.04417776      20.80358022      -0.00000183      -0.00000595       0.00000632
Si      32.84775539      13.13910293      19.70865502       0.00000364       0.00000898       0.00002048
C       33.94268059      14.23402814      20.80358030       0.00001235      -0.00000560      -0.00002688
Si      35.03760575      15.32895331      19.70865510      -0.00000422      -0.00002267       0.00003063
C       36.13253094      16.42387853      20.80358038       0.00000996       0.00003850      -0.00003733
Si      37.22745610      17.51880370      19.70865518      -0.00000661      -0.00001514       0.00002435
C       38.32238129      18.61372891      20.80358045       0.00001617      -0.00001599      -0.00002446
Si      39.41730645      19.70865408      19.70865526       0.00001360      -0.00000857       0.00000754
C       40.51223165      20.80357930      20.80358053       0.00001484       0.00000389      -0.00002521
Si       0.00000006       2.18985040       2.18985051       0.00001377      -0.00000335       0.00001536
C        1.09492526       3.28477561       3.28477579       0.00000183      -0.00000068       0.00000370
Si       2.18985042       4.37970078       2.18985059       0.00000333      -0.00000321       0.00001866
C        3.28477561       5.47462600       3.28477587       0.00000474      -0.00000167      -0.00000021
Si       4.37970077       6.56955117       2.18985067      -0.00000123       0.00000421       0.00001607
C        5.47462596       7.66447638       3.28477594      -0.00000250      -0.00000379      -0.00000392
Si       6.56955112       8.75940155       2.18985075       0.00000307       0.00000678       0.00000276
C        7.66447632       9.85432677       3.28477602      -0.00000998      -0.00001421       0.00000299
Si       8.75940148      10.94925194       2.18985083       0.00000580      -0.00000590      -0.00001350
C        9.85432667      12.04417715       3.28477610       0.00001544      -0.00000108      -0.00000223
Si      10.94925183      13.13910232       2.18985091      -0.00000879       0.00000637       0.00001126
C       12.04417703      14.23402753       3.28477618      -0.00000091      -0.00001348       0.00000319
Si      13.13910219      15.32895270       2.18985098       0.00000547      -0.00000259       0.00000708
C       14.23402738      16.42387792       3.28477626       0.00000150       0.00001327       0.00000025
Si      15.32895254      17.51880309       2.18985106      -0.00001697       0.00001060       0.00000917
C       16.42387774      18.61372830       3.28477634      -0.00000266       0.00002843      -0.00000368
Si      17.51880289      19.70865347       2.18985114      -0.00000842      -0.00002673       0.00000815
C       18.61372809      20.80357869       3.28477642      -0.00000081       0.00000236      -0.00000441
Si      19.70865325      21.89850386       2.18985122       0.00002069      -0.00000045       0.00001010
C       20.80357844      22.99342907       3.28477649      -0.00002914       0.00000138      -0.00000726
Si       2.18985042       2.18985047       4.37970102       0.00000354      -0.00000160      -0.00000804
C        3.28477562       3.28477568       5.47462629      -0.00000606      -0.00000657       0.00000491
Si       4.37970078       4.37970085       4.37970110       0.00000246       0.00000927      -0.00000234
C        5.47462597       5.47462607       5.47462637      -0.00000330       0.00000355      -0.00000153
Si       6.56955113       6.56955124       4.37970118       0.00000237      -0.00000521       0.00000239
C        7.66447633       7.66447645       5.47462645      -0.00000477       0.00000210      -0.00000973
Si       8.75940149       8.75940162       4.37970125       0.00000476       0.00001007       0.00000290
C        9.85432668       9.85432684       5.47462653       0.00001068      -0.00001350      -0.00000314
Si      10.94925184      10.94925201       4.37970133      -0.00001350      -0.00000508       0.00000369
C       12.04417704      12.04417722       5.47462661       0.00000031       0.00000613       0.00000547
Si      13.13910220      13.13910239       4.37970141       0.00000606       0.00001479      -0.00000284
C       14.23402739      14.23402760       5.47462669      -0.00001330      -0.00001017       0.00000725
Si      15.32895255      15.32895277       4.37970149      -0.00001031       0.00000369      -0.00000917
C       16.42387774      16.42387799       5.47462676       0.00000415       0.00000013       0.00000293
Si      17.51880290      17.51880316       4.37970157      -0.00000475       0.00000728       0.00000161
C       18.61372810      18.61372837       5.47462684       0.00000294       0.00001729      -0.00000517
Si      19.70865326      19.70865354       4.37970165       0.00002454      -0.00002713       0.00000253
C       20.80357845      20.80357876       5.47462692      -0.00002278      -0.00000292      -0.00000600
Si      21.89850361      21.89850393       4.37970172      -0.00000130       0.00000342       0.00000597
C       22.99342881      22.99342914       5.47462700       0.00000313       0.00000172      -0.00000081
Si       4.37970079       2.18985054       6.56955152      -0.00000109      -0.00000301       0.00000211
C        5.47462598       3.28477575       7.66447680      -0.00000650       0.00000161       0.00000225
Si       6.56955114       4.37970092       6.56955160       0.00000790      -0.00000739       0.00000534
C        7.66447634       5.47462614       7.66447688      -0.00000975       0.00000637       0.00000299
Si       8.75940150       6.56955131       6.56955168       0.00000411      -0.00000591       0.00000760
C        9.85432669       7.66447652       7.66447696       0.00000895      -0.00000560       0.00000333
Si      10.94925185       8.75940169       6.56955176      -0.00001431       0.00001469      -0.00000590
C       12.04417704       9.85432691       7.66447703       0.00000473      -0.00001118       0.00000338
Si      13.13910220      10.94925208       6.56955184       0.00001069      -0.00000102       0.00000318
C       14.23402740      12.04417729       7.66447711      -0.00001290       0.00001491      -0.00001031
Si      15.32895256      13.13910246       6.56955192      -0.00000752      -0.00001287       0.00000133
C       16.42387775      14.23402767       7.66447719       0.00000708      -0.00000233      -0.00000627
Si      17.51880291      15.32895284       6.56955200      -0.00000436       0.00000253       0.00000260
C       18.61372811      16.42387806       7.66447727      -0.00000251      -0.00000565      -0.00000155
Si      19.70865327      17.51880323       6.56955207       0.00002673       0.00001184       0.00000280
C       20.80357846      18.61372844       7.66447735      -0.00002417       0.00002185      -0.00000488
Si      21.89850362      19.70865361       6.56955215      -0.00000519      -0.00002777       0.00000462
C       22.99342882      20.80357883       7.66447743       0.00000237      -0.00000058      -0.00000036
Si      24.08835397      21.89850400       6.56955223       0.00000166       0.00000284      -0.00000652
C       25.18327917      22.99342921       7.66447751       0.00000933       0.00000731      -0.00000080
Si       6.56955115       2.18985061       8.75940203      -0.00000024      -0.00000418      -0.00000783
C        7.66447635       3.28477582       9.85432731      -0.00000932      -0.00000119       0.00000569
Si       8.75940150       4.37970099       8.75940211       0.00000445      -0.00000234      -0.00000937
C        9.85432670       5.47462621       9.85432738       0.00001388       0.00000410       0.00001176
Si      10.94925186       6.56955138       8.75940219      -0.00001455      -0.00000698      -0.00000302
C       12.04417705       7.66447659       9.85432746      -0.00000416       0.00000187       0.00001215
Si      13.13910221       8.75940176       8.75940227       0.00000735       0.00001746      -0.00000505
C       14.23402741       9.85432697       9.85432754      -0.00001091      -0.00000707       0.00000831
Si      15.32895257      10.94925215       8.75940234      -0.00000575      -0.00000072      -0.00000168
C       16.42387776      12.04417736       9.85432762       0.00000729       0.00001076       0.00001440
Si      17.51880292      13.13910253       8.75940242      -0.00000311      -0.00001062       0.00000351
C       18.61372812      14.23402774       9.85432770       0.00000234      -0.00000706      -0.00001153
Si      19.70865328      15.32895291       8.75940250       0.00002865       0.00000289       0.00000981
C       20.80357847      16.42387813       9.85432778      -0.00002217      -0.00000116      -0.00001349
Si      21.89850363      17.51880330       8.75940258      -0.00000370       0.00000822       0.00000944
C       22.99342882      18.61372851       9.85432785      -0.00000102       0.00001815      -0.00001567
Si      24.08835398      19.70865368       8.75940266      -0.00000163      -0.00002647       0.00001060
C       25.18327918      20.80357890       9.85432793       0.00000441       0.00000006      -0.00001019
Si      26.27820434      21.89850407       8.75940274      -0.00000061       0.00000151       0.00000678
C       27.37312953      22.99342928       9.85432801       0.00000666       0.00000429      -0.00000838
Si       8.75940151       2.18985068      10.94925254       0.00000087      -0.00000242       0.00001327
C        9.85432671       3.28477589      12.04417781       0.00001235      -0.00000497      -0.00000407
Si      10.94925187       4.37970106      10.94925261      -0.00001441      -0.00000417      -0.00001493
C       12.04417706       5.47462628      12.04417789      -0.00000033       0.00000959       0.00000140
Si      13.13910222       6.56955145      10.94925269       0.00000936      -0.00000144      -0.00000733
C       14.23402742       7.66447666      12.04417797      -0.00001111      -0.00000593      -0.00000183
Si      15.32895258       8.75940183      10.94925277      -0.00000159      -0.00000385      -0.00001357
C       16.42387777       9.85432704      12.04417805       0.00000289      -0.00000034       0.00000076
Si      17.51880293      10.94925221      10.94925285      -0.00000554      -0.00000117      -0.00001391
C       18.61372812      12.04417743      12.04417812       0.00000149       0.00001206       0.00000685
Si      19.70865328      13.13910260      10.94925293       0.00003083      -0.00001080      -0.00000682
C       20.80357848      14.23402781      12.04417820      -0.00002124      -0.00000103       0.00001376
Si      21.89850364      15.32895298      10.94925301      -0.00000922      -0.00000079      -0.00000047
C       22.99342883      16.42387820      12.04417828       0.00000822      -0.00000100       0.00001367
Si      24.08835399      17.51880337      10.94925309       0.00000001       0.00002048       0.00000307
C       25.18327919      18.61372858      12.04417836       0.00000286      -0.00002261       0.00001324
Si      26.27820435      19.70865375      10.94925316      -0.00000288      -0.00000848      -0.00000117
C       27.37312954      20.80357896      12.04417844       0.00000017       0.00000242       0.00001046
Si      28.46805470      21.89850414      10.94925324       0.00002716       0.00000282       0.00000817
C       29.56297990      22.99342935      12.04417852      -0.00002191       0.00000383      -0.00001453
Si      10.94925188       2.18985075      13.13910304      -0.00002012      -0.00000456       0.00000030
C       12.04417707       3.28477596      14.23402832       0.00000322      -0.00000011       0.00001606
Si      13.13910223       4.37970113      13.13910312       0.00001162       0.00000434       0.00000949
C       14.23402743       5.47462635      14.23402840      -0.00001211      -0.00000888      -0.00001383
Si      15.32895258       6.56955152      13.13910320      -0.00000407       0.00000777       0.00001307
C       16.42387778       7.66447673      14.23402847       0.00000446      -0.00000348      -0.00001237
Si      17.51880294       8.75940190      13.13910328      -0.00000252      -0.00000510       0.00001079
C       18.61372813       9.85432711      14.23402855       0.00000193      -0.00000156      -0.00001026
Si      19.70865329      10.94925228      13.13910336       0.00002649       0.00000361       0.00001189
C       20.80357849      12.04417750      14.23402863      -0.00002452       0.00000824      -0.00000770
Si      21.89850365      13.13910267      13.13910343      -0.00000744      -0.00001245      -0.00001194
C       22.99342884      14.23402788      14.23402871       0.00000572       0.00000249      -0.00000323
Si      24.08835400      15.32895305      13.13910351      -0.00000690      -0.00000284      -0.00000931
C       25.18327920      16.42387827      14.23402879       0.00000498       0.00000141      -0.00000163
Si      26.27820436      17.51880344      13.13910359      -0.00000708       0.00002997      -0.00001164
C       27.37312955      18.61372865      14.23402887       0.00000281      -0.00002123      -0.00000420
Si      28.46805471      19.70865382      13.13910367       0.00002609      -0.00000862      -0.00001295
C       29.56297990      20.80357903      14.23402894      -0.00002134      -0.00000279       0.00000437
Si      30.65790506      21.89850420      13.13910375      -0.00000247       0.00000471      -0.00000234
C       31.75283026      22.99342942      14.23402902       0.00001038       0.00000724       0.00000528
Si      13.13910224       2.18985082      15.32895355       0.00000303       0.00000324       0.00000739
C       14.23402743       3.28477603      16.42387882      -0.00001840      -0.00000195      -0.00001753
Si      15.32895259       4.37970120      15.32895363      -0.00000383       0.00000570       0.00000895
C       16.42387779       5.47462642      16.42387890       0.00000422      -0.00000632      -0.00000669
Si      17.51880295       6.56955159      15.32895370      -0.00000098       0.00000578       0.00000800
C       18.61372814       7.66447680      16.42387898       0.00000407      -0.00000346      -0.00001182
Si      19.70865330       8.75940197      15.32895378       0.00003054      -0.00000801       0.00001035
C       20.80357850       9.85432718      16.42387906      -0.00002096       0.00000377      -0.00001131
Si      21.89850366      10.94925235      15.32895386      -0.00000758       0.00000639       0.00001370
C       22.99342885      12.04417757      16.42387914       0.00000221      -0.00001184      -0.00001344
Si      24.08835401      13.13910274      15.32895394      -0.00000210      -0.00000354       0.00001253
C       25.18327920      14.23402795      16.42387921       0.00000454       0.00000230      -0.00001150
Si      26.27820436      15.32895312      15.32895402      -0.00000316      -0.00000163       0.00001194
C       27.37312956      16.42387834      16.42387929       0.00000059      -0.00000157      -0.00000962
Si      28.46805472      17.51880351      15.32895410       0.00002469       0.00003005       0.00001350
C       29.56297991      18.61372872      16.42387937      -0.00001184      -0.00002340      -0.00001084
Si      30.65790507      19.70865389      15.32895418      -0.00000546      -0.00000548       0.00000567
C       31.75283027      20.80357910      16.42387945      -0.00000040      -0.00000140      -0.00000189
Si      32.84775543      21.89850427      15.32895425      -0.00000267       0.00000374      -0.00001146
C       33.94268062      22.99342949      16.42387953       0.00000910       0.00000798      -0.00000608
Si      15.32895260       2.18985089      17.51880405      -0.00001102      -0.00000613       0.00000395
C       16.42387780       3.28477610      18.61372933      -0.00000247      -0.00000788       0.00000373
Si      17.51880296       4.37970127      17.51880413      -0.00000095       0.00000871      -0.00000560
C       18.61372815       5.47462648      18.61372941      -0.00000147      -0.00000227      -0.00000120
Si      19.70865331       6.56955166      17.51880421       0.00003017       0.00000606      -0.00000352
C       20.80357851       7.66447687      18.61372949      -0.00002518      -0.00000149       0.00000159
Si      21.89850366       8.75940204      17.51880429      -0.00000451      -0.00000921      -0.00000173
C       22.99342886       9.85432725      18.61372956       0.00000399       0.00000222      -0.00000234
Si      24.08835402      10.94925242      17.51880437      -0.00000279       0.00000985       0.00000083
C       25.18327921      12.04417764      18.61372964       0.00000153      -0.00001117      -0.00000166
Si      26.27820437      13.13910281      17.51880445      -0.00000629      -0.00000091       0.00000390
C       27.37312957      14.23402802      18.61372972       0.00000239       0.00000338      -0.00000430
Si      28.46805473      15.32895319      17.51880452       0.00002013      -0.00000446       0.00000069
C       29.56297992      16.42387841      18.61372980      -0.00000490       0.00000319      -0.00000517
Si      30.65790508      17.51880358      17.51880460      -0.00000384       0.00001963      -0.00000573
C       31.75283028      18.61372879      18.61372988      -0.00000527      -0.00000876      -0.00000085
Si      32.84775544      19.70865396      17.51880468      -0.00000342      -0.00000190      -0.00000665
C       33.94268063      20.80357917      18.61372996       0.00000038      -0.00000036      -0.00000054
Si      35.03760579      21.89850434      17.51880476      -0.00000018       0.00000438      -0.00000296
C       36.13253098      22.99342956      18.61373003       0.00001592       0.00000591      -0.00000760
Si      17.51880297       2.18985096      19.70865456      -0.00001196      -0.00001724       0.00002271
C       18.61372816       3.28477617      20.80357983       0.00002003      -0.00001869       0.00002187
Si      19.70865332       4.37970134      19.70865464       0.00002518       0.00000329       0.00000334
C       20.80357851       5.47462655      20.80357991      -0.00002711      -0.00000471       0.00000943
Si      21.89850367       6.56955173      19.70865472       0.00000034       0.00000410      -0.00000481
C       22.99342887       7.66447694      20.80357999       0.00000131       0.00000268       0.00002330
Si      24.08835403       8.75940211      19.70865479      -0.00000145      -0.00000601       0.00000356
C       25.18327922       9.85432732      20.80358007       0.00000194       0.00000180       0.00001700
Si      26.27820438      10.94925249      19.70865487      -0.00000152       0.00000813       0.00000776
C       27.37312958      12.04417771      20.80358015       0.00000584      -0.00000919       0.00002047
Si      28.46805474      13.13910288      19.70865495       0.00002155      -0.00000299       0.00000882
C       29.56297993      14.23402809      20.80358023      -0.00001249       0.00000049       0.00002265
Si      30.65790509      15.32895326      19.70865503       0.00000552       0.00000290       0.00001472
C       31.75283028      16.42387847      20.80358030      -0.00000703       0.00002999      -0.00002423
Si      32.84775544      17.51880365      19.70865511      -0.00000314      -0.00002402       0.00002317
C       33.94268064      18.61372886      20.80358038       0.00000270      -0.00000542      -0.00001790
Si      35.03760580      19.70865403      19.70865519      -0.00000104       0.00000043       0.00002071
C       36.13253099      20.80357924      20.80358046       0.00000562      -0.00000143      -0.00001863
Si      37.22745615      21.89850441      19.70865527      -0.00000265       0.00000552       0.00002227
C       38.32238135      22.99342963      20.80358054       0.00001564       0.00000949      -0.00002633
Si      19.70865333       2.18985103      21.89850507      -0.00003574       0.00002507      -0.00001611
C       20.80357852       3.28477624      22.99343034      -0.00002711       0.00000692      -0.00001995
Si      21.89850368       4.37970141      21.89850514      -0.00000661       0.00000072       0.00001485
C       22.99342888       5.47462662      22.99343042      -0.00000567       0.00000549      -0.00001932
Si      24.08835404       6.56955179      21.89850522       0.00000037      -0.00000241      -0.00002433
C       25.18327923       7.66447701      22.99343050       0.00000116       0.00000077      -0.00000397
Si      26.27820439       8.75940218      21.89850530       0.00000694      -0.00000853      -0.00002634
C       27.37312959       9.85432739      22.99343058       0.00000614      -0.00000520      -0.00000007
Si      28.46805474      10.94925256      21.89850538       0.00002415       0.00001335      -0.00002731
C       29.56297994      12.04417778      22.99343065      -0.00001732      -0.00000785      -0.00000677
Si      30.65790510      13.13910295      21.89850546      -0.00000251       0.00000202      -0.00002104
C       31.75283029      14.23402816      22.99343073      -0.00000374       0.00000044      -0.00000149
Si      32.84775545      15.32895333      21.89850554       0.00000509      -0.00002047      -0.00000895
C       33.94268065      16.42387854      22.99343081      -0.00000016       0.00003339       0.00000385
Si      35.03760581      17.51880371      21.89850561      -0.00000226      -0.00001951      -0.00000188
C       36.13253100      18.61372893      22.99343089       0.00001405      -0.00001375       0.00000654
Si      37.22745616      19.70865410      21.89850569      -0.00000558       0.00000223      -0.00000132
C       38.32238136      20.80357931      22.99343097       0.00001209      -0.00000294       0.00000308
Si      39.41730652      21.89850448      21.89850577      -0.00000202       0.00001047      -0.00000311
C       40.51223171      22.99342970      22.99343105       0.00002480       0.00000869      -0.00001005
Si       0.00000012       4.37970080       4.37970103      -0.00000743      -0.00001030       0.00000235
C        1.09492532       5.47462601       5.47462630       0.00000267       0.00000146       0.00000522
Si       2.18985048       6.56955119       4.37970111       0.00000887      -0.00000647      -0.00000775
C        3.28477567       7.66447640       5.47462638      -0.00000354      -0.00000378       0.00000287
Si       4.37970083       8.75940157       4.37970118       0.00000265       0.00001261       0.00000120
C        5.47462603       9.85432678       5.47462646      -0.00000309      -0.00001483      -0.00000456
Si       6.56955119      10.94925195       4.37970126      -0.00000443      -0.00000175       0.00000192
C        7.66447638      12.04417717       5.47462654      -0.00000024       0.00000268       0.00000416
Si       8.75940154      13.13910234       4.37970134       0.00000852       0.00000905       0.00000378
C        9.85432673      14.23402755       5.47462661      -0.00000780      -0.00001526       0.00000757
Si      10.94925189      15.32895272       4.37970142      -0.00000282      -0.00000829       0.00000096
C       12.04417709      16.42387793       5.47462669      -0.00000020       0.00001106       0.00000175
Si      13.13910225      17.51880311       4.37970150       0.00001629      -0.00002940      -0.00000753
C       14.23402744      18.61372832       5.47462677      -0.00001703       0.00002943       0.00000980
Si      15.32895260      19.70865349       4.37970158       0.00002303      -0.00002130      -0.00000261
C       16.42387780      20.80357870       5.47462685      -0.00001615      -0.00000210       0.00001141
Si      17.51880296      21.89850387       4.37970165       0.00001388       0.00000784       0.00000560
C       18.61372815      22.99342909       5.47462693      -0.00001145      -0.00000056      -0.00000148
Si      19.70865331      24.08835426       4.37970173       0.00001618       0.00001162       0.00000758
C       20.80357851      25.18327947       5.47462701      -0.00002037       0.00000808      -0.00000741
Si       2.18985049       4.37970087       6.56955153      -0.00000306      -0.00000164       0.00000279
C        3.28477568       5.47462608       7.66447681      -0.00000212      -0.00000002       0.00000216
Si       4.37970084       6.56955125       6.56955161       0.00000371      -0.00000485       0.00000157
C        5.47462604       7.66447647       7.66447689      -0.00000061      -0.00000084       0.00000042
Si       6.56955119       8.75940164       6.56955169       0.00000479       0.00001638       0.00000740
C        7.66447639       9.85432685       7.66447696      -0.00000136      -0.00001224       0.00000076
Si       8.75940155      10.94925202       6.56955177       0.00000453      -0.00000500      -0.00000393
C        9.85432674      12.04417724       7.66447704      -0.00001092       0.00000199      -0.00000060
Si      10.94925190      13.13910241       6.56955185      -0.00000486       0.00001331      -0.00000398
C       12.04417710      14.23402762       7.66447712       0.00000439      -0.00000916      -0.00000971
Si      13.13910226      15.32895279       6.56955192       0.00001231      -0.00000119      -0.00000214
C       14.23402745      16.42387800       7.66447720      -0.00001259       0.00000203      -0.00000855
Si      15.32895261      17.51880317       6.56955200       0.00000133       0.00000389       0.00000519
C       16.42387781      18.61372839       7.66447728      -0.00000085       0.00002012      -0.00000275
Si      17.51880297      19.70865356       6.56955208      -0.00000331      -0.00002204       0.00000023
C       18.61372816      20.80357877       7.66447736      -0.00000038      -0.00000151      -0.00000160
Si      19.70865332      21.89850394       6.56955216       0.00002104       0.00000621      -0.00000018
C       20.80357851      22.99342916       7.66447743      -0.00001796      -0.00000392      -0.00000196
Si      21.89850367      24.08835433       6.56955224      -0.00000722       0.00000230      -0.00000648
C       22.99342887      25.18327954       7.66447751       0.00000889       0.00000899       0.00000148
Si       4.37970085       4.37970094       8.75940204      -0.00000985      -0.00002088      -0.00000409
C        5.47462604       5.47462615       9.85432731       0.00000113       0.00000580       0.00000035
Si       6.56955120       6.56955132       8.75940212       0.00001017      -0.00000608      -0.00000706
C        7.66447640       7.66447654       9.85432739      -0.00000794      -0.00000151       0.00000792
Si       8.75940156       8.75940171       8.75940220       0.00000683       0.00001565      -0.00000653
C        9.85432675       9.85432692       9.85432747      -0.00000715      -0.00001030       0.00001866
Si      10.94925191      10.94925209       8.75940227      -0.00000520      -0.00000290      -0.00000396
C       12.04417711      12.04417731       9.85432755       0.00000220       0.00001369       0.00001592
Si      13.13910227      13.13910248       8.75940235       0.00001267      -0.00001319      -0.00000462
C       14.23402746      14.23402769       9.85432763      -0.00001180      -0.00000421       0.00001333
Si      15.32895262      15.32895286       8.75940243      -0.00000001       0.00000269       0.00000576
C       16.42387781      16.42387807       9.85432770       0.00000109      -0.00000176      -0.00001037
Si      17.51880297      17.51880324       8.75940251      -0.00000091       0.00000753       0.00000796
C       18.61372817      18.61372846       9.85432778       0.00000054       0.00001746      -0.00001145
Si      19.70865333      19.70865363       8.75940259       0.00002923      -0.00002690       0.00000988
C       20.80357852      20.80357884       9.85432786      -0.00002217      -0.00000169      -0.00001120
Si      21.89850368      21.89850401       8.75940267      -0.00000673       0.00000016       0.00000823
C       22.99342888      22.99342923       9.85432794       0.00000136       0.00000223      -0.00001129
Si      24.08835404      24.08835440       8.75940274       0.00000210       0.00000445       0.00000540
C       25.18327923      25.18327961       9.85432802       0.00001111       0.00001138      -0.00000881
Si       6.56955121       4.37970101      10.94925254      -0.00000914      -0.00001803       0.00002034
C        7.66447641       5.47462622      12.04417782      -0.00000887       0.00000355      -0.00000154
Si       8.75940157       6.56955139      10.94925262       0.00000682      -0.00000941      -0.00001205
C        9.85432676       7.66447661      12.04417790      -0.00000668       0.00000512      -0.00000268
Si      10.94925192       8.75940178      10.94925270      -0.00000389       0.00001372      -0.00001185
C       12.04417712       9.85432699      12.04417798      -0.00000315      -0.00000899      -0.00000556
Si      13.13910227      10.94925216      10.94925278       0.00001044       0.00000088      -0.00001466
C       14.23402747      12.04417738      12.04417805      -0.00000879       0.00000817       0.00000061
Si      15.32895263      13.13910255      10.94925286      -0.00000294      -0.00001007      -0.00001318
C       16.42387782      14.23402776      12.04417813       0.00000301      -0.00000431       0.00000131
Si      17.51880298      15.32895293      10.94925294      -0.00000512       0.00000192      -0.00000083
C       18.61372818      16.42387814      12.04417821       0.00000524       0.00000309       0.00001560
Si      19.70865334      17.51880331      10.94925301       0.00003148       0.00002166       0.00000279
C       20.80357853      18.61372853      12.04417829      -0.00002861      -0.00002359       0.00001853
Si      21.89850369      19.70865370      10.94925309      -0.00000123      -0.00001594      -0.00000366
C       22.99342889      20.80357891      12.04417837       0.00000162       0.00000097       0.00001239
Si      24.08835405      21.89850408      10.94925317      -0.00000131      -0.00000049       0.00000064
C       25.18327924      22.99342930      12.04417845      -0.00000080      -0.00000143       0.00000992
Si      26.27820440      24.08835447      10.94925325       0.00000117       0.00000858       0.00000009
C       27.37312959      25.18327968      12.04417852       0.00001583       0.00001550      -0.00001445
Si       8.75940158       4.37970108      13.13910305      -0.00000085      -0.00001631       0.00000803
C        9.85432677       5.47462629      14.23402832      -0.00001075       0.00000059       0.00000974
Si      10.94925193       6.56955146      13.13910313       0.00000172      -0.00000086       0.00001001
C       12.04417712       7.66447668      14.23402840      -0.00000135      -0.00000466      -0.00001094
Si      13.13910228       8.75940185      13.13910321       0.00001257      -0.00000426       0.00001370
C       14.23402748       9.85432706      14.23402848      -0.00001138      -0.00000202      -0.00001122
Si      15.32895264      10.94925223      13.13910329      -0.00000348       0.00000343       0.00001017
C       16.42387783      12.04417745      14.23402856       0.00000604       0.00001050      -0.00001000
Si      17.51880299      13.13910262      13.13910336      -0.00000450      -0.00001185       0.00000911
C       18.61372819      14.23402783      14.23402864      -0.00000058      -0.00000352      -0.00000631
Si      19.70865335      15.32895300      13.13910344       0.00002558      -0.00000400      -0.00001376
C       20.80357854      16.42387821      14.23402872      -0.00001864       0.00000358      -0.00000248
Si      21.89850370      17.51880338      13.13910352      -0.00000981       0.00002886      -0.00001702
C       22.99342889      18.61372860      14.23402879       0.00000301      -0.00001873       0.00000172
Si      24.08835405      19.70865377      13.13910360      -0.00000090      -0.00000747      -0.00001143
C       25.18327925      20.80357898      14.23402887       0.00000138       0.00000155      -0.00000206
Si      26.27820441      21.89850415      13.13910368      -0.00000242      -0.00000045      -0.00001074
C       27.37312960      22.99342937      14.23402895      -0.00000039       0.00000138       0.00000224
Si      28.46805476      24.08835454      13.13910376       0.00002386       0.00000789      -0.00000346
C       29.56297996      25.18327975      14.23402903      -0.00000964       0.00001752       0.00000756
Si      10.94925194       4.37970115      15.32895356      -0.00000601      -0.00000312      -0.00000073
C       12.04417713       5.47462636      16.42387883      -0.00000260      -0.00000890      -0.00000657
Si      13.13910229       6.56955153      15.32895363       0.00001730       0.00000908       0.00001055
C       14.23402749       7.66447675      16.42387891      -0.00001451      -0.00000082      -0.00000840
Si      15.32895265       8.75940192      15.32895371      -0.00000736      -0.00001013       0.00000857
C       16.42387784       9.85432713      16.42387899       0.00000696       0.00000020      -0.00000799
Si      17.51880300      10.94925230      15.32895379      -0.00000383       0.00000265       0.00000763
C       18.61372820      12.04417751      16.42387907      -0.00000241       0.00001033      -0.00000915
Si      19.70865335      13.13910269      15.32895387       0.00002898      -0.00001282       0.00001189
C       20.80357855      14.23402790      16.42387914      -0.00002061       0.00000503      -0.00001544
Si      21.89850371      15.32895307      15.32895395      -0.00000656      -0.00000647       0.00001336
C       22.99342890      16.42387828      16.42387922      -0.00000096       0.00000360      -0.00001346
Si      24.08835406      17.51880345      15.32895403       0.00000038       0.00003049       0.00001651
C       25.18327926      18.61372867      16.42387930       0.00000186      -0.00002526      -0.00001462
Si      26.27820442      19.70865384      15.32895410      -0.00000201      -0.00000403       0.00001801
C       27.37312961      20.80357905      16.42387938       0.00000999      -0.00000450      -0.00000979
Si      28.46805477      21.89850422      15.32895418       0.00002201      -0.00000010       0.00001224
C       29.56297997      22.99342943      16.42387946      -0.00001117      -0.00000340      -0.00000799
Si      30.65790513      24.08835461      15.32895426      -0.00000395       0.00000294      -0.00001012
C       31.75283032      25.18327982      16.42387954       0.00000253       0.00001970      -0.00000310
Si      13.13910230       4.37970122      17.51880406       0.00000592      -0.00000623       0.00000438
C       14.23402750       5.47462643      18.61372934      -0.00001646      -0.00000858       0.00000118
Si      15.32895266       6.56955160      17.51880414      -0.00000275       0.00000700      -0.00000623
C       16.42387785       7.66447682      18.61372941       0.00000080      -0.00000021       0.00000352
Si      17.51880301       8.75940199      17.51880422      -0.00000358      -0.00000248      -0.00000206
C       18.61372820       9.85432720      18.61372949      -0.00000279      -0.00000292       0.00000243
Si      19.70865336      10.94925237      17.51880430       0.00003263       0.00000940      -0.00000013
C       20.80357856      12.04417758      18.61372957      -0.00002461      -0.00001478       0.00000090
Si      21.89850372      13.13910275      17.51880438      -0.00000636      -0.00000308      -0.00000074
C       22.99342891      14.23402797      18.61372965       0.00000275       0.00000431      -0.00000242
Si      24.08835407      15.32895314      17.51880445      -0.00000035      -0.00000474       0.00000658
C       25.18327927      16.42387835      18.61372973       0.00000051       0.00000171      -0.00000527
Si      26.27820443      17.51880352      17.51880453      -0.00000134       0.00002766       0.00000408
C       27.37312962      18.61372874      18.61372981       0.00002561      -0.00001863       0.00000111
Si      28.46805478      19.70865391      17.51880461      -0.00002097      -0.00001064      -0.00000271
C       29.56297997      20.80357912      18.61372988       0.00000159      -0.00000020       0.00000440
Si      30.65790513      21.89850429      17.51880469      -0.00000172      -0.00000056      -0.00000589
C       31.75283033      22.99342950      18.61372996       0.00000066      -0.00000099      -0.00000003
Si      32.84775549      24.08835467      17.51880477      -0.00000158       0.00000386      -0.00000125
C       33.94268068      25.18327989      18.61373004       0.00000640       0.00002269       0.00000033
Si      15.32895266       4.37970129      19.70865457      -0.00001972      -0.00001317       0.00002143
C       16.42387786       5.47462650      20.80357984      -0.00000204      -0.00000394       0.00000462
Si      17.51880302       6.56955167      19.70865465      -0.00000027       0.00000232      -0.00000490
C       18.61372821       7.66447689      20.80357992       0.00000103       0.00000540       0.00000592
Si      19.70865337       8.75940206      19.70865472       0.00002913      -0.00000378       0.00000035
C       20.80357857       9.85432727      20.80358000      -0.00002235      -0.00000254       0.00002290
Si      21.89850373      10.94925244      19.70865480      -0.00000429       0.00001295       0.00000486
C       22.99342892      12.04417765      20.80358008      -0.00000396      -0.00001604       0.00002514
Si      24.08835408      13.13910282      19.70865488       0.00000028       0.00000040       0.00000366
C       25.18327928      14.23402804      20.80358016       0.00000414       0.00000331       0.00001754
Si      26.27820443      15.32895321      19.70865496      -0.00000223      -0.00000242       0.00001079
C       27.37312963      16.42387842      20.80358023       0.00002007       0.00002251       0.00002467
Si      28.46805479      17.51880359      19.70865504      -0.00002504       0.00002652       0.00001497
C       29.56297998      18.61372881      20.80358031      -0.00000660      -0.00001393      -0.00002173
Si      30.65790514      19.70865398      19.70865512      -0.00000126      -0.00000287       0.00001617
C       31.75283034      20.80357919      20.80358039      -0.00000099      -0.00000014      -0.00001633
Si      32.84775550      21.89850436      19.70865519       0.00000012       0.00000128       0.00002365
C       33.94268069      22.99342957      20.80358047      -0.00000020      -0.00000117      -0.00002118
Si      35.03760585      24.08835474      19.70865527      -0.00000164       0.00000875       0.00002555
C       36.13253105      25.18327996      20.80358055       0.00000731       0.00002430      -0.00002810
Si      17.51880303       4.37970136      21.89850507      -0.00000350      -0.00000071       0.00002633
C       18.61372822       5.47462657      22.99343035       0.00000486      -0.00000169      -0.00002483
Si      19.70865338       6.56955174      21.89850515       0.00002599      -0.00000506       0.00002300
C       20.80357858       7.66447696      22.99343043      -0.00002794       0.00000226      -0.00001270
Si      21.89850374       8.75940213      21.89850523      -0.00000607      -0.00000862      -0.00002294
C       22.99342893       9.85432734      22.99343050       0.00000178       0.00000180       0.00000036
Si      24.08835409      10.94925251      21.89850531      -0.00000145       0.00001435      -0.00002696
C       25.18327928      12.04417772      22.99343058       0.00000286      -0.00001350      -0.00000539
Si      26.27820444      13.13910289      21.89850539       0.00000431       0.00000163      -0.00001854
C       27.37312964      14.23402811      22.99343066       0.00002304       0.00000819      -0.00000222
Si      28.46805480      15.32895328      21.89850547      -0.00002736      -0.00002407      -0.00002668
C       29.56297999      16.42387849      22.99343074      -0.00000452       0.00003419       0.00000070
Si      30.65790515      17.51880366      21.89850554       0.00000423      -0.00001982      -0.00001145
C       31.75283035      18.61372888      22.99343082      -0.00000064      -0.00000297       0.00000823
Si      32.84775551      19.70865405      21.89850562      -0.00000087       0.00000327      -0.00000684
C       33.94268070      20.80357926      22.99343090       0.00000013      -0.00000294       0.00000607
Si      35.03760586      21.89850443      21.89850570      -0.00000036       0.00000231      -0.00000498
C       36.13253105      22.99342964      22.99343097       0.00000243      -0.00000311       0.00000865
Si      37.22745621      24.08835481      21.89850578       0.00000261       0.00001324      -0.00000315
C       38.32238141      25.18328003      22.99343105       0.00001117      -0.00001169      -0.00001057
Si      19.70865339       4.37970143      24.08835558       0.00001724      -0.00000043      -0.00000245
C       20.80357859       5.47462664      25.18328085      -0.00001597      -0.00000370      -0.00000101
Si      21.89850374       6.56955181      24.08835566      -0.00000221      -0.00000493      -0.00000217
C       22.99342894       7.66447702      25.18328093      -0.00000163       0.00000242       0.00000138
Si      24.08835410       8.75940220      24.08835574       0.00000394      -0.00000703       0.00000368
C       25.18327929       9.85432741      25.18328101       0.00000218      -0.00000148      -0.00000058
Si      26.27820445      10.94925258      24.08835581       0.00000506       0.00001295       0.00000525
C       27.37312965      12.04417779      25.18328109       0.00001250      -0.00000579      -0.00000683
Si      28.46805481      13.13910296      24.08835589      -0.00001999       0.00000237      -0.00000013
C       29.56298000      14.23402818      25.18328117      -0.00000273       0.00000502      -0.00000546
Si      30.65790516      15.32895335      24.08835597       0.00000135      -0.00002345       0.00000273
C       31.75283036      16.42387856      25.18328125       0.00000310       0.00003474       0.00000069
Si      32.84775551      17.51880373      24.08835605       0.00000117      -0.00002151      -0.00000448
C       33.94268071      18.61372894      25.18328132      -0.00000368       0.00000136       0.00000350
Si      35.03760587      19.70865412      24.08835613       0.00000203       0.00000083      -0.00000469
C       36.13253106      20.80357933      25.18328140      -0.00000423      -0.00000173       0.00000362
Si      37.22745622      21.89850450      24.08835621      -0.00000149       0.00000210      -0.00000462
C       38.32238142      22.99342971      25.18328148       0.00000226       0.00000213      -0.00000099
Si      39.41730658      24.08835488      24.08835628      -0.00000212       0.00002304      -0.00000592
C       40.51223177      25.18328010      25.18328156       0.00001718      -0.00002038       0.00000122
Si       0.00000019       6.56955120       6.56955154      -0.00000464      -0.00000116       0.00000728
C        1.09492538       7.66447642       7.66447681       0.00000645       0.00000252      -0.00000008
Si       2.18985054       8.75940159       6.56955162      -0.00000220       0.00000251       0.00001167
C        3.28477573       9.85432680       7.66447689      -0.00000638      -0.00000673       0.00000359
Si       4.37970089      10.94925197       6.56955170       0.00000003       0.00000324       0.00000061
C        5.47462609      12.04417718       7.66447697      -0.00000741       0.00000749       0.00001463
Si       6.56955125      13.13910235       6.56955178      -0.00001960       0.00000645      -0.00000816
C        7.66447644      14.23402757       7.66447705      -0.00000021      -0.00000288       0.00000307
Si       8.75940160      15.32895274       6.56955185       0.00001520      -0.00000385       0.00000233
C        9.85432680      16.42387795       7.66447713      -0.00001918       0.00001533      -0.00000006
Si      10.94925196      17.51880312       6.56955193      -0.00000375       0.00000538       0.00001169
C       12.04417715      18.61372834       7.66447721       0.00000438       0.00002634      -0.00000798
Si      13.13910231      19.70865351       6.56955201       0.00000911      -0.00003461       0.00001247
C       14.23402750      20.80357872       7.66447729      -0.00001858      -0.00001185       0.00001481
Si      15.32895266      21.89850389       6.56955209       0.00001865      -0.00000143      -0.00003748
C       16.42387786      22.99342910       7.66447736      -0.00000778      -0.00000697       0.00002016
Si      17.51880302      24.08835427       6.56955217       0.00001352       0.00001947      -0.00004011
C       18.61372821      25.18327949       7.66447744      -0.00000843       0.00001808       0.00002405
Si      19.70865337      26.27820466       6.56955225       0.00004058       0.00001202       0.00001198
C       20.80357857      27.37312987       7.66447752      -0.00002724      -0.00002506       0.00000883
Si       2.18985055       6.56955127       8.75940205      -0.00000580      -0.00000573      -0.00000846
C        3.28477574       7.66447648       9.85432732       0.00000279       0.00000313       0.00000215
Si       4.37970090       8.75940166       8.75940212      -0.00000356       0.00001647      -0.00000534
C        5.47462610       9.85432687       9.85432740       0.00000353      -0.00001437       0.00001485
Si       6.56955126      10.94925204       8.75940220      -0.00001072       0.00000000      -0.00001022
C        7.66447645      12.04417725       9.85432748       0.00000182      -0.00000223       0.00001165
Si       8.75940161      13.13910242       8.75940228       0.00001389       0.00001275      -0.00000570
C        9.85432681      14.23402764       9.85432756      -0.00001082      -0.00000518       0.00001406
Si      10.94925196      15.32895281       8.75940236      -0.00000923      -0.00000127      -0.00000100
C       12.04417716      16.42387802       9.85432763       0.00000206       0.00000205       0.00001403
Si      13.13910232      17.51880319       8.75940244       0.00001483       0.00000880       0.00000621
C       14.23402751      18.61372841       9.85432771      -0.00001488       0.00002607      -0.00001639
Si      15.32895267      19.70865358       8.75940252      -0.00000333      -0.00003299       0.00001176
C       16.42387787      20.80357879       9.85432779       0.00000424      -0.00000025      -0.00001483
Si      17.51880303      21.89850396       8.75940260      -0.00000061       0.00000214       0.00001091
C       18.61372822      22.99342917       9.85432787      -0.00000010      -0.00000646      -0.00001098
Si      19.70865338      24.08835434       8.75940267       0.00002079       0.00000687       0.00000793
C       20.80357858      25.18327956       9.85432795      -0.00002491       0.00000588      -0.00001195
Si      21.89850374      26.27820473       8.75940275      -0.00000559       0.00002726       0.00000907
C       22.99342893      27.37312994       9.85432803       0.00000301      -0.00002325      -0.00000441
Si       4.37970091       6.56955134      10.94925255      -0.00001674      -0.00001304       0.00002077
C        5.47462611       7.66447655      12.04417783       0.00000769       0.00000126      -0.00000258
Si       6.56955127       8.75940172      10.94925263      -0.00001182       0.00001454      -0.00001310
C        7.66447646       9.85432694      12.04417790       0.00000499      -0.00001204       0.00000024
Si       8.75940162      10.94925211      10.94925271       0.00001474      -0.00000153      -0.00001365
C        9.85432681      12.04417732      12.04417798      -0.00001440       0.00001008       0.00000103
Si      10.94925197      13.13910249      10.94925279      -0.00000179      -0.00001202      -0.00001444
C       12.04417717      14.23402771      12.04417806       0.00000142      -0.00000233      -0.00000036
Si      13.13910233      15.32895288      10.94925287       0.00001170       0.00000022      -0.00001181
C       14.23402752      16.42387809      12.04417814      -0.00001142      -0.00000202       0.00000197
Si      15.32895268      17.51880326      10.94925294       0.00000071       0.00001000      -0.00000029
C       16.42387788      18.61372847      12.04417822       0.00000588       0.00001789       0.00001151
Si      17.51880304      19.70865365      10.94925302      -0.00000264      -0.00002576       0.00000260
C       18.61372823      20.80357886      12.04417830      -0.00000087       0.00000438       0.00000783
Si      19.70865339      21.89850403      10.94925310       0.00002219      -0.00000034      -0.00000168
C       20.80357858      22.99342924      12.04417838      -0.00001176      -0.00000528       0.00001004
Si      21.89850374      24.08835441      10.94925318       0.00000015      -0.00000237      -0.00000307
C       22.99342894      25.18327963      12.04417845      -0.00000137      -0.00000169       0.00001296
Si      24.08835410      26.27820480      10.94925326       0.00000749       0.00003221       0.00000390
C       25.18327929      27.37313001      12.04417853       0.00000903      -0.00001898      -0.00001641
Si       6.56955127       6.56955141      13.13910306      -0.00001868      -0.00001314       0.00000205
C        7.66447647       7.66447662      14.23402833      -0.00000047       0.00000903       0.00000716
Si       8.75940163       8.75940179      13.13910314       0.00001359       0.00001394       0.00001248
C        9.85432682       9.85432701      14.23402841      -0.00002021      -0.00001160      -0.00001525
Si      10.94925198      10.94925218      13.13910321      -0.00000181       0.00000236       0.00000806
C       12.04417718      12.04417739      14.23402849       0.00000384       0.00001228      -0.00000900
Si      13.13910234      13.13910256      13.13910329       0.00001099      -0.00001221       0.00001183
C       14.23402753      14.23402778      14.23402857      -0.00001159      -0.00000227      -0.00000882
Si      15.32895269      15.32895295      13.13910337      -0.00000333       0.00000037       0.00000545
C       16.42387789      16.42387816      14.23402865       0.00000819      -0.00000041      -0.00000432
Si      17.51880304      17.51880333      13.13910345      -0.00000352       0.00001669      -0.00000987
C       18.61372824      18.61372854      14.23402872       0.00000141      -0.00001963      -0.00000534
Si      19.70865340      19.70865371      13.13910353       0.00002676      -0.00001428      -0.00001367
C       20.80357859      20.80357893      14.23402880      -0.00001135      -0.00000164      -0.00000173
Si      21.89850375      21.89850410      13.13910361       0.00000058      -0.00000212      -0.00001505
C       22.99342895      22.99342931      14.23402888      -0.00000225       0.00000133      -0.00000049
Si      24.08835411      24.08835448      13.13910368       0.00000220       0.00000020      -0.00001149
C       25.18327930      25.18327970      14.23402896      -0.00000106      -0.00000157       0.00000335
Si      26.27820446      26.27820487      13.13910376       0.00000335       0.00002629      -0.00000657
C       27.37312966      27.37313008      14.23402904       0.00001858      -0.00000841       0.00000785
Si       8.75940164       6.56955148      15.32895356       0.00002113       0.00000457       0.00000079
C        9.85432683       7.66447669      16.42387884      -0.00001570      -0.00000198      -0.00001224
Si      10.94925199       8.75940186      15.32895364      -0.00000316      -0.00000640       0.00000888
C       12.04417719       9.85432708      16.42387892       0.00000281      -0.00000449      -0.00000813
Si      13.13910235      10.94925225      15.32895372       0.00001419       0.00000565       0.00001007
C       14.23402754      12.04417746      16.42387899      -0.00001267       0.00001243      -0.00001064
Si      15.32895270      13.13910263      15.32895380      -0.00000743      -0.00001674       0.00001070
C       16.42387789      14.23402785      16.42387907       0.00000805      -0.00000118      -0.00000749
Si      17.51880305      15.32895302      15.32895388      -0.00000674      -0.00000080       0.00001045
C       18.61372825      16.42387823      16.42387915       0.00000087      -0.00000237      -0.00000949
Si      19.70865341      17.51880340      15.32895396       0.00002405       0.00002873       0.00001433
C       20.80357860      18.61372861      16.42387923      -0.00001301      -0.00002459      -0.00001223
Si      21.89850376      19.70865378      15.32895403      -0.00000023      -0.00000980       0.00000880
C       22.99342896      20.80357900      16.42387931      -0.00000133       0.00000321      -0.00001139
Si      24.08835412      21.89850417      15.32895411       0.00000155       0.00000069       0.00001455
C       25.18327931      22.99342938      16.42387939      -0.00000281      -0.00000054      -0.00001030
Si      26.27820447      24.08835455      15.32895419       0.00000339       0.00000333       0.00001353
C       27.37312966      25.18327977      16.42387947       0.00002090       0.00002409      -0.00000088
Si      28.46805482      26.27820494      15.32895427      -0.00002664      -0.00002903      -0.00001558
C       29.56298002      27.37313015      16.42387954       0.00000131       0.00000354       0.00000210
Si      10.94925200       6.56955155      17.51880407      -0.00000406       0.00000635      -0.00000441
C       12.04417720       7.66447676      18.61372934      -0.00000051      -0.00000517       0.00000646
Si      13.13910235       8.75940193      17.51880415       0.00001220      -0.00000776      -0.00000849
C       14.23402755       9.85432715      18.61372942      -0.00001128       0.00000090       0.00000812
Si      15.32895271      10.94925232      17.51880423      -0.00000101       0.00000276      -0.00000445
C       16.42387790      12.04417753      18.61372950      -0.00000107       0.00000986       0.00000254
Si      17.51880306      13.13910270      17.51880430      -0.00000176      -0.00000846       0.00000045
C       18.61372826      14.23402792      18.61372958      -0.00000178       0.00000067      -0.00000282
Si      19.70865342      15.32895309      17.51880438       0.00002183      -0.00000174      -0.00000091
C       20.80357861      16.42387830      18.61372966      -0.00000855       0.00000041      -0.00000704
Si      21.89850377      17.51880347      17.51880446      -0.00000302       0.00002219      -0.00000006
C       22.99342897      18.61372868      18.61372974      -0.00000468      -0.00002004       0.00000058
Si      24.08835412      19.70865385      17.51880454       0.00000130      -0.00000351       0.00000130
C       25.18327932      20.80357907      18.61372981      -0.00000256       0.00000475      -0.00000149
Si      26.27820448      21.89850424      17.51880462      -0.00000105      -0.00000161       0.00000050
C       27.37312967      22.99342945      18.61372989       0.00002200       0.00000199       0.00000601
Si      28.46805483      24.08835462      17.51880470      -0.00002161       0.00000214      -0.00000489
C       29.56298003      25.18327984      18.61372997       0.00000265       0.00002197      -0.00000165
Si      30.65790519      26.27820501      17.51880477       0.00000273      -0.00002362       0.00000015
C       31.75283038      27.37313022      18.61373005      -0.00000034      -0.00000014      -0.00000076
Si      13.13910236       6.56955162      19.70865457       0.00000269      -0.00000012       0.00001160
C       14.23402756       7.66447683      20.80357985      -0.00001129       0.00000035       0.00000360
Si      15.32895272       8.75940200      19.70865465      -0.00000257      -0.00000529      -0.00000417
C       16.42387791       9.85432722      20.80357993       0.00000154      -0.00000133       0.00000294
Si      17.51880307      10.94925239      19.70865473       0.00000433       0.00000667       0.00000138
C       18.61372827      12.04417760      20.80358001       0.00000598      -0.00000914       0.00002286
Si      19.70865343      13.13910277      19.70865481       0.00002446      -0.00000360       0.00000598
C       20.80357862      14.23402798      20.80358008      -0.00001374      -0.00000772       0.00001942
Si      21.89850378      15.32895316      19.70865489      -0.00000039      -0.00000563      -0.00000093
C       22.99342897      16.42387837      20.80358016       0.00000285       0.00000658       0.00002027
Si      24.08835413      17.51880354      19.70865497       0.00000018       0.00002152       0.00000619
C       25.18327933      18.61372875      20.80358024      -0.00000957      -0.00001523       0.00001950
Si      26.27820449      19.70865392      19.70865505       0.00001146       0.00000088       0.00001177
C       27.37312968      20.80357914      20.80358032       0.00002430      -0.00000936      -0.00002153
Si      28.46805484      21.89850431      19.70865512      -0.00002633       0.00000102       0.00002472
C       29.56298004      22.99342952      20.80358040      -0.00000443       0.00000262      -0.00002103
Si      30.65790520      24.08835469      19.70865520       0.00000205       0.00000615       0.00002446
C       31.75283039      25.18327990      20.80358048      -0.00000523       0.00002712      -0.00002394
Si      32.84775555      26.27820508      19.70865528      -0.00000152      -0.00002795       0.00002519
C       33.94268074      27.37313029      20.80358056       0.00000824      -0.00000222      -0.00002171
Si      15.32895273       6.56955169      21.89850508      -0.00000820       0.00000709       0.00002622
C       16.42387792       7.66447690      22.99343036      -0.00000173      -0.00000050      -0.00001955
Si      17.51880308       8.75940207      21.89850516      -0.00000121      -0.00000771       0.00002103
C       18.61372828       9.85432729      22.99343043      -0.00000546      -0.00000642      -0.00000816
Si      19.70865343      10.94925246      21.89850524       0.00002385       0.00001423      -0.00002685
C       20.80357863      12.04417767      22.99343051      -0.00001195      -0.00001358      -0.00000564
Si      21.89850379      13.13910284      21.89850532      -0.00000025      -0.00000159      -0.00002617
C       22.99342898      14.23402805      22.99343059      -0.00000628      -0.00000086      -0.00000288
Si      24.08835414      15.32895322      21.89850539       0.00000325       0.00000130      -0.00002012
C       25.18327934      16.42387844      22.99343067      -0.00000683       0.00002715      -0.00000483
Si      26.27820450      17.51880361      21.89850547       0.00000560      -0.00001842      -0.00002698
C       27.37312969      18.61372882      22.99343075       0.00001984      -0.00001009      -0.00000065
Si      28.46805485      19.70865399      21.89850555      -0.00002491       0.00000383      -0.00001318
C       29.56298005      20.80357921      22.99343083       0.00000136      -0.00000020       0.00000580
Si      30.65790521      21.89850438      21.89850563       0.00000516      -0.00000269      -0.00000354
C       31.75283040      22.99342959      22.99343090      -0.00000302      -0.00000385       0.00000765
Si      32.84775556      24.08835476      21.89850571       0.00000294       0.00000542      -0.00000470
C       33.94268075      25.18327997      22.99343098      -0.00000226       0.00001914       0.00000446
Si      35.03760591      26.27820514      21.89850579      -0.00000008      -0.00002377      -0.00000557
C       36.13253111      27.37313036      22.99343106       0.00000946       0.00000976      -0.00000934
Si      17.51880309       6.56955176      24.08835559      -0.00000546      -0.00000149      -0.00000213
C       18.61372828       7.66447697      25.18328086       0.00000479      -0.00000384       0.00000986
Si      19.70865344       8.75940214      24.08835566       0.00002203      -0.00000996      -0.00000479
C       20.80357864       9.85432736      25.18328094      -0.00000802      -0.00000166      -0.00000446
Si      21.89850380      10.94925253      24.08835574      -0.00000110       0.00000777      -0.00000055
C       22.99342899      12.04417774      25.18328102      -0.00000424      -0.00000929      -0.00000480
Si      24.08835415      13.13910291      24.08835582       0.00000172       0.00000188       0.00000906
C       25.18327935      14.23402812      25.18328110      -0.00000136       0.00000659      -0.00000353
Si      26.27820451      15.32895329      24.08835590       0.00000566      -0.00002100       0.00000050
C       27.37312970      16.42387851      25.18328117       0.00002692       0.00003865       0.00000080
Si      28.46805486      17.51880368      24.08835598      -0.00002778      -0.00002227       0.00000346
C       29.56298005      18.61372889      25.18328125       0.00000104      -0.00000334      -0.00000135
Si      30.65790521      19.70865406      24.08835606       0.00000235       0.00000224      -0.00000629
C       31.75283041      20.80357928      25.18328133      -0.00000024      -0.00000114       0.00000179
Si      32.84775557      21.89850445      24.08835614      -0.00000124       0.00000096      -0.00000762
C       33.94268076      22.99342966      25.18328141       0.00000337      -0.00000265       0.00000288
Si      35.03760592      24.08835483      24.08835621       0.00000313       0.00001387      -0.00000284
C       36.13253112      25.18328004      25.18328149      -0.00000187      -0.00001787       0.00000165
Si      37.22745628      26.27820521      24.08835629       0.00000461      -0.00000474      -0.00000528
C       38.32238147      27.37313043      25.18328157       0.00000630       0.00000851      -0.00000077
Si      19.70865345       6.56955183      26.27820609      -0.00001691      -0.00000462       0.00001102
C       20.80357865       7.66447704      27.37313137      -0.00000212       0.00000844       0.00000521
Si      21.89850381       8.75940221      26.27820617      -0.00000216      -0.00000348       0.00000229
C       22.99342900       9.85432743      27.37313145      -0.00000762       0.00001125       0.00001375
Si      24.08835416      10.94925260      26.27820625       0.00000414       0.00001161       0.00000688
C       25.18327936      12.04417781      27.37313152      -0.00000657      -0.00000566       0.00001074
Si      26.27820451      13.13910298      26.27820633       0.00000187       0.00000365       0.00000176
C       27.37312971      14.23402819      27.37313160       0.00002081       0.00001688       0.00001583
Si      28.46805487      15.32895336      26.27820641      -0.00003544      -0.00001941       0.00000530
C       29.56298006      16.42387858      27.37313168      -0.00000576       0.00003883       0.00001480
Si      30.65790522      17.51880375      26.27820648       0.00000387      -0.00001592       0.00001087
C       31.75283042      18.61372896      27.37313176      -0.00000008      -0.00000951      -0.00001994
Si      32.84775558      19.70865413      26.27820656      -0.00000066      -0.00000013       0.00001784
C       33.94268077      20.80357935      27.37313184      -0.00000076       0.00000303      -0.00002241
Si      35.03760593      21.89850452      26.27820664       0.00000386       0.00000542       0.00001715
C       36.13253113      22.99342973      27.37313192      -0.00000510       0.00000161      -0.00001773
Si      37.22745629      24.08835490      26.27820672       0.00000225       0.00002852       0.00002507
C       38.32238148      25.18328011      27.37313199       0.00000623      -0.00002323      -0.00002206
Si      39.41730664      26.27820528      26.27820680       0.00001822       0.00000636       0.00003374
C       40.51223183      27.37313050      27.37313207      -0.00005453       0.00000163      -0.00003471
Si       0.00000025       8.75940160       8.75940205       0.00001591      -0.00001252       0.00000883
C        1.09492544       9.85432682       9.85432733       0.00000092      -0.00000854      -0.00000244
Si       2.18985060      10.94925199       8.75940213       0.00000842      -0.00001968       0.00000526
C        3.28477580      12.04417720       9.85432741      -0.00000784       0.00000010       0.00002683
Si       4.37970096      13.13910237       8.75940221       0.00003377       0.00000244      -0.00003104
C        5.47462615      14.23402758       9.85432749      -0.00000415      -0.00000942       0.00002036
Si       6.56955131      15.32895275       8.75940229      -0.00000606      -0.00000959       0.00000163
C        7.66447650      16.42387797       9.85432756      -0.00000201       0.00001033       0.00001143
Si       8.75940166      17.51880314       8.75940237       0.00001063      -0.00003407      -0.00002769
C        9.85432686      18.61372835       9.85432764      -0.00000248       0.00003350       0.00002142
Si      10.94925202      19.70865352       8.75940245       0.00000570      -0.00002712       0.00001472
C       12.04417721      20.80357874       9.85432772       0.00000069      -0.00000565      -0.00001286
Si      13.13910237      21.89850391       8.75940252       0.00001184      -0.00000127       0.00002305
C       14.23402757      22.99342912       9.85432780      -0.00001175      -0.00000237      -0.00001627
Si      15.32895273      24.08835429       8.75940260      -0.00000820       0.00000926       0.00001543
C       16.42387792      25.18327950       9.85432788      -0.00000130       0.00000652      -0.00001033
Si      17.51880308      26.27820467       8.75940268       0.00002184      -0.00001744      -0.00001538
C       18.61372827      27.37312989       9.85432796       0.00000178      -0.00001261      -0.00000598
Si      19.70865343      28.46805506       8.75940276       0.00004437      -0.00001942      -0.00000190
C       20.80357863      29.56298027       9.85432803      -0.00001011      -0.00000394      -0.00000167
Si       2.18985061       8.75940167      10.94925256       0.00000130       0.00001179       0.00001115
C        3.28477581       9.85432689      12.04417783      -0.00000054      -0.00000887      -0.00000655
Si       4.37970096      10.94925206      10.94925264      -0.00000716      -0.00000812      -0.00001254
C        5.47462616      12.04417727      12.04417791       0.00000460       0.00000627       0.00000247
Si       6.56955132      13.13910244      10.94925272      -0.00001153       0.00001297      -0.00001297
C        7.66447651      14.23402765      12.04417799       0.00000187      -0.00000634       0.00000030
Si       8.75940167      15.32895282      10.94925279       0.00001389      -0.00000297      -0.00001465
C        9.85432687      16.42387804      12.04417807      -0.00001040      -0.00000080       0.00000015
Si      10.94925203      17.51880321      10.94925287       0.00000045       0.00000464      -0.00000900
C       12.04417722      18.61372842      12.04417815       0.00000264       0.00001719       0.00000419
Si      13.13910238      19.70865359      10.94925295       0.00001564      -0.00002799      -0.00000324
C       14.23402758      20.80357881      12.04417823      -0.00001437      -0.00000277       0.00001257
Si      15.32895273      21.89850398      10.94925303      -0.00000121       0.00000476       0.00000241
C       16.42387793      22.99342919      12.04417830       0.00000126      -0.00000124       0.00000751
Si      17.51880309      24.08835436      10.94925311      -0.00000048      -0.00000140       0.00000283
C       18.61372828      25.18327957      12.04417838       0.00001310       0.00000115       0.00001688
Si      19.70865344      26.27820474      10.94925319       0.00002445       0.00002408       0.00000028
C       20.80357864      27.37312996      12.04417846      -0.00001264      -0.00002866       0.00000919
Si      21.89850380      28.46805513      10.94925327      -0.00000072      -0.00000616       0.00000224
C       22.99342899      29.56298034      12.04417854      -0.00000015      -0.00000130      -0.00001203
Si       4.37970097       8.75940174      13.13910307      -0.00001410       0.00000441       0.00001085
C        5.47462617       9.85432696      14.23402834       0.00000548      -0.00000453      -0.00001145
Si       6.56955133      10.94925213      13.13910314      -0.00001084      -0.00000068       0.00001048
C        7.66447652      12.04417734      14.23402842       0.00000391       0.00000982      -0.00000956
Si       8.75940168      13.13910251      13.13910322       0.00001207      -0.00001124       0.00001012
C        9.85432688      14.23402772      14.23402850      -0.00001449      -0.00000191      -0.00000882
Si      10.94925204      15.32895289      13.13910330      -0.00000072       0.00000017       0.00000837
C       12.04417723      16.42387811      14.23402857       0.00000168      -0.00000043      -0.00001007
Si      13.13910239      17.51880328      13.13910338       0.00001195       0.00001093       0.00001029
C       14.23402758      18.61372849      14.23402865      -0.00001448       0.00001517      -0.00000937
Si      15.32895274      19.70865366      13.13910346       0.00000045      -0.00002548      -0.00000908
C       16.42387794      20.80357888      14.23402873       0.00000291      -0.00000058      -0.00000573
Si      17.51880310      21.89850405      13.13910354      -0.00000010       0.00000160      -0.00000617
C       18.61372829      22.99342926      14.23402881       0.00001679       0.00000174      -0.00000214
Si      19.70865345      24.08835443      13.13910361      -0.00002204      -0.00000228      -0.00001293
C       20.80357865      25.18327964      14.23402889       0.00000061       0.00000182      -0.00000086
Si      21.89850381      26.27820481      13.13910369      -0.00000147       0.00002845      -0.00001721
C       22.99342900      27.37313003      14.23402897      -0.00000411      -0.00002011       0.00000326
Si      24.08835416      28.46805520      13.13910377       0.00000551      -0.00000413      -0.00000506
C       25.18327935      29.56298041      14.23402905       0.00000703       0.00000696       0.00000826
Si       6.56955134       8.75940181      15.32895357      -0.00001291      -0.00000976       0.00000453
C        7.66447653       9.85432702      16.42387885       0.00000526      -0.00001123      -0.00001220
Si       8.75940169      10.94925220      15.32895365       0.00001510       0.00000717       0.00000915
C        9.85432689      12.04417741      16.42387892      -0.00001583       0.00001235      -0.00001025
Si      10.94925204      13.13910258      15.32895373      -0.00000506      -0.00001446       0.00001018
C       12.04417724      14.23402779      16.42387900       0.00000309      -0.00000279      -0.00000959
Si      13.13910240      15.32895296      15.32895381       0.00001017       0.00000024       0.00000945
C       14.23402759      16.42387818      16.42387908      -0.00000883       0.00000365      -0.00001033
Si      15.32895275      17.51880335      15.32895388      -0.00000003       0.00001944       0.00001634
C       16.42387795      18.61372856      16.42387916      -0.00000002      -0.00002253      -0.00001852
Si      17.51880311      19.70865373      15.32895396       0.00000143      -0.00000208       0.00002038
C       18.61372830      20.80357894      16.42387924       0.00002056      -0.00000007      -0.00001839
Si      19.70865346      21.89850412      15.32895404      -0.00002371      -0.00000524       0.00001441
C       20.80357866      22.99342933      16.42387932      -0.00000218       0.00000840      -0.00001059
Si      21.89850381      24.08835450      15.32895412       0.00000371      -0.00000381       0.00001029
C       22.99342901      25.18327971      16.42387939      -0.00000615       0.00000263      -0.00000863
Si      24.08835417      26.27820488      15.32895420       0.00000279       0.00002613       0.00001012
C       25.18327936      27.37313010      16.42387947      -0.00000572      -0.00001228      -0.00000633
Si      26.27820452      28.46805527      15.32895428       0.00000176      -0.00000345      -0.00001185
C       27.37312972      29.56298048      16.42387955       0.00001868       0.00000164      -0.00000594
Si       8.75940170       8.75940188      17.51880408       0.00001413      -0.00000516      -0.00000179
C        9.85432689       9.85432709      18.61372935      -0.00001223      -0.00000591       0.00001253
Si      10.94925205      10.94925226      17.51880416      -0.00000362       0.00000362      -0.00000349
C       12.04417725      12.04417748      18.61372943       0.00000107       0.00001175       0.00000688
Si      13.13910241      13.13910265      17.51880423       0.00001349      -0.00001293      -0.00000551
C       14.23402760      14.23402786      18.61372951      -0.00001031      -0.00000400       0.00000482
Si      15.32895276      15.32895303      17.51880431       0.00000419      -0.00000082       0.00000114
C       16.42387796      16.42387825      18.61372959      -0.00000147      -0.00000191      -0.00000485
Si      17.51880312      17.51880342      17.51880439       0.00000107       0.00002981       0.00000622
C       18.61372831      18.61372863      18.61372966       0.00002270      -0.00002406       0.00000056
Si      19.70865347      19.70865380      17.51880447      -0.00002104      -0.00000916       0.00000001
C       20.80357866      20.80357901      18.61372974       0.00000010       0.00000341      -0.00000228
Si      21.89850382      21.89850418      17.51880455       0.00000391      -0.00000532       0.00000365
C       22.99342902      22.99342940      18.61372982      -0.00000289       0.00000294      -0.00000342
Si      24.08835418      24.08835457      17.51880463       0.00000483      -0.00000117       0.00000180
C       25.18327937      25.18327978      18.61372990      -0.00000183       0.00002376       0.00000276
Si      26.27820453      26.27820495      17.51880470       0.00000165      -0.00002462      -0.00000353
C       27.37312973      27.37313017      18.61372998       0.00001973       0.00000212      -0.00000186
Si      28.46805489      28.46805534      17.51880478      -0.00002116      -0.00000051       0.00000048
C       29.56298008      29.56298055      18.61373006      -0.00000141      -0.00000048       0.00000031
Si      10.94925206       8.75940195      19.70865458      -0.00001147      -0.00001144       0.00000509
C       12.04417726       9.85432716      20.80357986       0.00000624       0.00000259       0.00000316
Si      13.13910242      10.94925233      19.70865466       0.00001187       0.00000753      -0.00000261
C       14.23402761      12.04417755      20.80357994      -0.00001484      -0.00001764       0.00000653
Si      15.32895277      13.13910272      19.70865474       0.00000954       0.00000209      -0.00000497
C       16.42387797      14.23402793      20.80358001      -0.00000246      -0.00000084       0.00001520
Si      17.51880312      15.32895310      19.70865482      -0.00000297      -0.00000200       0.00000361
C       18.61372832      16.42387832      20.80358009       0.00002742       0.00000831       0.00002559
Si      19.70865348      17.51880349      19.70865490      -0.00002546       0.00002920       0.00000463
C       20.80357867      18.61372870      20.80358017      -0.00000569      -0.00002856       0.00002717
Si      21.89850383      19.70865387      19.70865497       0.00000742      -0.00000233       0.00000007
C       22.99342903      20.80357908      20.80358025      -0.00000655      -0.00000159       0.00001695
Si      24.08835419      21.89850425      19.70865505       0.00000695       0.00000213       0.00001410
C       25.18327938      22.99342947      20.80358033      -0.00000374      -0.00000594      -0.00001884
Si      26.27820454      24.08835464      19.70865513       0.00000661       0.00000609       0.00002159
C       27.37312974      25.18327985      20.80358041       0.00002599       0.00002391      -0.00002537
Si      28.46805490      26.27820502      19.70865521      -0.00003003      -0.00003192       0.00002916
C       29.56298009      27.37313024      20.80358048       0.00000216       0.00000194      -0.00002019
Si      30.65790525      28.46805541      19.70865529       0.00000076       0.00000045       0.00001981
C       31.75283044      29.56298062      20.80358056       0.00000377       0.00000494      -0.00001904
Si      13.13910243       8.75940202      21.89850509       0.00000754      -0.00000875       0.00002389
C       14.23402762       9.85432723      22.99343036      -0.00000718       0.00000063      -0.00001844
Si      15.32895278      10.94925240      21.89850517       0.00000121       0.00001346       0.00002350
C       16.42387797      12.04417762      22.99343044      -0.00000196      -0.00001905      -0.00001412
Si      17.51880313      13.13910279      21.89850525       0.00000354       0.00000012      -0.00001675
C       18.61372833      14.23402800      22.99343052       0.00001732      -0.00000146      -0.00000160
Si      19.70865349      15.32895317      21.89850532      -0.00002256      -0.00000022      -0.00002616
C       20.80357868      16.42387839      22.99343060      -0.00000293       0.00000436      -0.00000232
Si      21.89850384      17.51880356      21.89850540      -0.00000162       0.00002542      -0.00002721
C       22.99342904      18.61372877      22.99343068      -0.00000266      -0.00001303      -0.00000520
Si      24.08835420      19.70865394      21.89850548       0.00000307      -0.00000134      -0.00002275
C       25.18327939      20.80357915      22.99343075      -0.00000370      -0.00000290       0.00000289
Si      26.27820455      21.89850432      21.89850556       0.00000419       0.00000726      -0.00000522
C       27.37312974      22.99342954      22.99343083       0.00002194      -0.00000452       0.00000535
Si      28.46805490      24.08835471      21.89850564      -0.00002331       0.00000684      -0.00000763
C       29.56298010      25.18327992      22.99343091      -0.00000292       0.00002220       0.00000271
Si      30.65790526      26.27820509      21.89850572       0.00000257      -0.00002745      -0.00000527
C       31.75283045      27.37313031      22.99343099      -0.00000067      -0.00000088       0.00000419
Si      32.84775561      28.46805548      21.89850579      -0.00000212       0.00000284      -0.00000351
C       33.94268081      29.56298069      22.99343107       0.00001001       0.00000918      -0.00000993
Si      15.32895279       8.75940209      24.08835559      -0.00000693      -0.00000890      -0.00000644
C       16.42387798       9.85432730      25.18328087      -0.00000489      -0.00000457       0.00000371
Si      17.51880314      10.94925247      24.08835567       0.00000266       0.00001598      -0.00000002
C       18.61372834      12.04417769      25.18328095       0.00001973      -0.00001630      -0.00000288
Si      19.70865350      13.13910286      24.08835575      -0.00002089      -0.00000064       0.00000332
C       20.80357869      14.23402807      25.18328103      -0.00000101      -0.00000023      -0.00000737
Si      21.89850385      15.32895324      24.08835583       0.00000707      -0.00000296       0.00000961
C       22.99342905      16.42387845      25.18328110      -0.00000691       0.00002822      -0.00000881
Si      24.08835420      17.51880363      24.08835591       0.00000125      -0.00001843       0.00000366
C       25.18327940      18.61372884      25.18328118      -0.00000230      -0.00000406      -0.00000422
Si      26.27820456      19.70865401      24.08835599       0.00000001       0.00000263       0.00000055
C       27.37312975      20.80357922      25.18328126       0.00002231       0.00000465       0.00000173
Si      28.46805491      21.89850439      24.08835606      -0.00002338       0.00000144      -0.00000293
C       29.56298011      22.99342961      25.18328134       0.00000263      -0.00000596       0.00000273
Si      30.65790527      24.08835478      24.08835614       0.00000317       0.00000449      -0.00000314
C       31.75283046      25.18327999      25.18328142      -0.00000091       0.00001766       0.00000251
Si      32.84775562      26.27820516      24.08835622       0.00000263      -0.00002277      -0.00000342
C       33.94268082      27.37313038      25.18328150      -0.00000155       0.00000203      -0.00000280
Si      35.03760598      28.46805555      24.08835630       0.00000289       0.00000218      -0.00000846
C       36.13253117      29.56298076      25.18328157       0.00000757       0.00000621      -0.00000157
Si      17.51880315       8.75940216      26.27820610      -0.00000487      -0.00001178       0.00001511
C       18.61372835       9.85432737      27.37313137       0.00002934      -0.00000759       0.00002068
Si      19.70865351      10.94925254      26.27820618      -0.00002098       0.00001378       0.00000274
C       20.80357870      12.04417776      27.37313145      -0.00000928      -0.00001371       0.00002408
Si      21.89850386      13.13910293      26.27820626       0.00000797       0.00000413       0.00000175
C       22.99342905      14.23402814      27.37313153      -0.00000107       0.00000963       0.00002427
Si      24.08835421      15.32895331      26.27820634      -0.00000086      -0.00002319       0.00000722
C       25.18327941      16.42387852      27.37313161       0.00000099       0.00003834       0.00002733
Si      26.27820457      17.51880369      26.27820641       0.00000283      -0.00002453       0.00000306
C       27.37312976      18.61372891      27.37313169       0.00002298       0.00000142       0.00002315
Si      28.46805492      19.70865408      26.27820649      -0.00002145       0.00000241       0.00001520
C       29.56298012      20.80357929      27.37313177      -0.00000391       0.00000206      -0.00001902
Si      30.65790528      21.89850446      26.27820657      -0.00000065       0.00000267       0.00001901
C       31.75283047      22.99342968      27.37313184      -0.00000187      -0.00000018      -0.00001555
Si      32.84775563      24.08835485      26.27820665       0.00000524       0.00002034       0.00002610
C       33.94268082      25.18328006      27.37313192       0.00000497      -0.00002675      -0.00002439
Si      35.03760598      26.27820523      26.27820673      -0.00000060      -0.00000952       0.00002563
C       36.13253118      27.37313044      27.37313200       0.00000558       0.00000005      -0.00001980
Si      37.22745634      28.46805562      26.27820681      -0.00000089      -0.00000195       0.00002174
C       38.32238153      29.56298083      27.37313208       0.00001585       0.00000489      -0.00002119
Si      19.70865351       8.75940223      28.46805661      -0.00002534       0.00000469      -0.00002680
C       20.80357871       9.85432744      29.56298188      -0.00000365       0.00001407      -0.00002055
Si      21.89850387      10.94925261      28.46805668       0.00000278      -0.00000894      -0.00003045
C       22.99342906      12.04417783      29.56298196      -0.00000280       0.00000058      -0.00000864
Si      24.08835422      13.13910300      28.46805676       0.00000597       0.00000428      -0.00002918
C       25.18327942      14.23402821      29.56298204      -0.00000625       0.00000240       0.00000129
Si      26.27820458      15.32895338      28.46805684       0.00000608      -0.00002081      -0.00003584
C       27.37312977      16.42387859      29.56298212       0.00001929       0.00003761      -0.00000626
Si      28.46805493      17.51880376      28.46805692      -0.00002435      -0.00002393      -0.00002584
C       29.56298013      18.61372898      29.56298219      -0.00000299      -0.00000258       0.00000120
Si      30.65790528      19.70865415      28.46805700       0.00000093      -0.00000533      -0.00000581
C       31.75283048      20.80357936      29.56298227      -0.00000140       0.00000353      -0.00000201
Si      32.84775564      21.89850453      28.46805708      -0.00000249       0.00000220      -0.00000701
C       33.94268083      22.99342975      29.56298235      -0.00000158       0.00000237      -0.00000326
Si      35.03760599      24.08835492      28.46805715      -0.00000263       0.00002797      -0.00001317
C       36.13253119      25.18328013      29.56298243       0.00000661      -0.00002223       0.00000093
Si      37.22745635      26.27820530      28.46805723      -0.00000601      -0.00000230      -0.00001226
C       38.32238154      27.37313051      29.56298251       0.00000490      -0.00000044       0.00000448
Si      39.41730670      28.46805568      28.46805731       0.00004085       0.00000123      -0.00000993
C       40.51223190      29.56298090      29.56298259      -0.00005553       0.00001151      -0.00000627
Si       0.00000031      10.94925200      10.94925257       0.00001045      -0.00001386       0.00002012
C        1.09492550      12.04417722      12.04417784      -0.00000056       0.00000147      -0.00000158
Si       2.18985066      13.13910239      10.94925265       0.00000899      -0.00000518       0.00000402
C        3.28477586      14.23402760      12.04417792      -0.00000207      -0.00001026      -0.00000085
Si       4.37970102      15.32895277      10.94925272       0.00000254      -0.00000852      -0.00000832
C        5.47462621      16.42387798      12.04417800      -0.00000483       0.00000719      -0.00000213
Si       6.56955137      17.51880316      10.94925280      -0.00001062       0.00001045      -0.00000706
C        7.66447657      18.61372837      12.04417808      -0.00000072       0.00001876      -0.00000089
Si       8.75940173      19.70865354      10.94925288       0.00002225      -0.00002789       0.00000076
C        9.85432692      20.80357875      12.04417816      -0.00001619       0.00000277       0.00001789
Si      10.94925208      21.89850392      10.94925296       0.00000290      -0.00000112       0.00001210
C       12.04417727      22.99342914      12.04417823      -0.00000788       0.00000806       0.00001707
Si      13.13910243      24.08835431      10.94925304       0.00000310       0.00001424       0.00000859
C       14.23402763      25.18327952      12.04417831      -0.00001667       0.00001437       0.00002610
Si      15.32895279      26.27820469      10.94925312      -0.00000757       0.00002350       0.00001689
C       16.42387798      27.37312990      12.04417839      -0.00000821      -0.00001456       0.00001924
Si      17.51880314      28.46805508      10.94925319       0.00000152      -0.00000965       0.00002292
C       18.61372834      29.56298029      12.04417847       0.00001613       0.00000219       0.00000625
Si      19.70865350      30.65790546      10.94925327      -0.00000706      -0.00000565       0.00001213
C       20.80357869      31.75283067      12.04417855       0.00000335       0.00000354      -0.00001218
Si       2.18985067      10.94925207      13.13910307       0.00001772       0.00000966       0.00001134
C        3.28477587      12.04417729      14.23402835      -0.00000862       0.00000133      -0.00001148
Si       4.37970103      13.13910246      13.13910315      -0.00000360       0.00000796       0.00001256
C        5.47462622      14.23402767      14.23402843       0.00000122      -0.00000907      -0.00001327
Si       6.56955138      15.32895284      13.13910323      -0.00000754      -0.00000385       0.00001136
C        7.66447658      16.42387805      14.23402850       0.00000463      -0.00000345      -0.00000917
Si       8.75940173      17.51880322      13.13910331       0.00001490       0.00001095       0.00001361
C        9.85432693      18.61372844      14.23402858      -0.00000942       0.00002008      -0.00001283
Si      10.94925209      19.70865361      13.13910339      -0.00000504      -0.00002639       0.00001171
C       12.04417728      20.80357882      14.23402866      -0.00000162      -0.00000187      -0.00000919
Si      13.13910244      21.89850399      13.13910347       0.00001168       0.00000193      -0.00001061
C       14.23402764      22.99342921      14.23402874      -0.00000358      -0.00000311      -0.00000321
Si      15.32895280      24.08835438      13.13910354      -0.00000615       0.00000545      -0.00001054
C       16.42387799      25.18327959      14.23402882      -0.00000302      -0.00000098       0.00000142
Si      17.51880315      26.27820476      13.13910362       0.00000135       0.00003062      -0.00001128
C       18.61372835      27.37312997      14.23402890       0.00002357      -0.00002623      -0.00000274
Si      19.70865351      28.46805514      13.13910370      -0.00002286      -0.00000689      -0.00001208
C       20.80357870      29.56298036      14.23402897       0.00000036      -0.00000066       0.00000327
Si      21.89850386      30.65790553      13.13910378       0.00000269       0.00000291      -0.00000282
C       22.99342905      31.75283074      14.23402905      -0.00000073       0.00000039       0.00000772
Si       4.37970104      10.94925214      15.32895358      -0.00000728       0.00000164       0.00000957
C        5.47462623      12.04417736      16.42387885       0.00000057       0.00000541      -0.00000470
Si       6.56955139      13.13910253      15.32895366      -0.00001300      -0.00001159       0.00000869
C        7.66447658      14.23402774      16.42387893       0.00000623      -0.00000213      -0.00000639
Si       8.75940174      15.32895291      15.32895374       0.00001140       0.00000270       0.00000968
C        9.85432694      16.42387812      16.42387901      -0.00000945      -0.00000380      -0.00001392
Si      10.94925210      17.51880329      15.32895381      -0.00000026       0.00001295       0.00000927
C       12.04417729      18.61372851      16.42387909       0.00000194       0.00001605      -0.00001011
Si      13.13910245      19.70865368      15.32895389       0.00001202      -0.00003046       0.00001480
C       14.23402765      20.80357889      16.42387917      -0.00000686       0.00000351      -0.00001468
Si      15.32895281      21.89850406      15.32895397      -0.00000189      -0.00000038       0.00001328
C       16.42387800      22.99342928      16.42387925      -0.00000144       0.00000126      -0.00001323
Si      17.51880316      24.08835445      15.32895405       0.00000557      -0.00000039       0.00001137
C       18.61372835      25.18327966      16.42387932       0.00002212       0.00000324      -0.00001250
Si      19.70865351      26.27820483      15.32895413      -0.00002810       0.00002735       0.00001446
C       20.80357871      27.37313004      16.42387940      -0.00000138      -0.00001928      -0.00000664
Si      21.89850387      28.46805521      15.32895421       0.00000187      -0.00000786       0.00000628
C       22.99342906      29.56298043      16.42387948      -0.00000116       0.00000015      -0.00000303
Si      24.08835422      30.65790560      15.32895428       0.00000483       0.00000032      -0.00001137
C       25.18327942      31.75283081      16.42387956       0.00000605       0.00000595      -0.00000545
Si       6.56955140      10.94925221      17.51880408      -0.00001471       0.00001135       0.00000540
C        7.66447659      12.04417743      18.61372936      -0.00000162      -0.00000058       0.00001508
Si       8.75940175      13.13910260      17.51880416       0.00001374      -0.00001581      -0.00000495
C        9.85432695      14.23402781      18.61372944      -0.00000593      -0.00000526       0.00000262
Si      10.94925211      15.32895298      17.51880424       0.00000022       0.00000072      -0.00000059
C       12.04417730      16.42387819      18.61372952       0.00000674      -0.00000375       0.00000696
Si      13.13910246      17.51880336      17.51880432       0.00000064       0.00001931      -0.00000125
C       14.23402766      18.61372858      18.61372959      -0.00000448      -0.00001840      -0.00000006
Si      15.32895281      19.70865375      17.51880440       0.00000246      -0.00000674       0.00000444
C       16.42387801      20.80357896      18.61372967      -0.00000450       0.00000341      -0.00000504
Si      17.51880317      21.89850413      17.51880448       0.00000277      -0.00000082       0.00000291
C       18.61372836      22.99342935      18.61372975       0.00002032       0.00000487       0.00000021
Si      19.70865352      24.08835452      17.51880456      -0.00002505      -0.00000299       0.00000008
C       20.80357872      25.18327973      18.61372983       0.00000525       0.00000552      -0.00000324
Si      21.89850388      26.27820490      17.51880463       0.00000068       0.00001992      -0.00000234
C       22.99342907      27.37313011      18.61372991      -0.00000603      -0.00000906      -0.00000122
Si      24.08835423      28.46805528      17.51880471      -0.00000028      -0.00000377      -0.00000541
C       25.18327943      29.56298050      18.61372999      -0.00000524       0.00000039      -0.00000104
Si      26.27820459      30.65790567      17.51880479       0.00000225      -0.00000287      -0.00000219
C       27.37312978      31.75283088      18.61373006       0.00002303       0.00000537       0.00000380
Si       8.75940176      10.94925228      19.70865459      -0.00000402       0.00000489      -0.00002671
C        9.85432696      12.04417749      20.80357986       0.00000406       0.00000892       0.00000728
Si      10.94925212      13.13910267      19.70865467      -0.00000134      -0.00001147      -0.00000500
C       12.04417731      14.23402788      20.80357994       0.00000611       0.00000090       0.00000219
Si      13.13910247      15.32895305      19.70865475      -0.00000367       0.00000374      -0.00000355
C       14.23402766      16.42387826      20.80358002       0.00000005      -0.00000249       0.00001783
Si      15.32895282      17.51880343      19.70865483       0.00000550       0.00002678       0.00000555
C       16.42387802      18.61372865      20.80358010      -0.00000468      -0.00002660       0.00002450
Si      17.51880318      19.70865382      19.70865490       0.00000447      -0.00000810       0.00000211
C       18.61372837      20.80357903      20.80358018       0.00002665       0.00000623       0.00002483
Si      19.70865353      21.89850420      19.70865498      -0.00002293      -0.00000261       0.00000682
C       20.80357873      22.99342941      20.80358026      -0.00000403      -0.00000334       0.00001810
Si      21.89850389      24.08835459      19.70865506       0.00001012       0.00000653       0.00001692
C       22.99342908      25.18327980      20.80358034      -0.00000662       0.00002332      -0.00002055
Si      24.08835424      26.27820497      19.70865514       0.00000125      -0.00002748       0.00002424
C       25.18327943      27.37313018      20.80358041       0.00000229      -0.00000642      -0.00002055
Si      26.27820459      28.46805535      19.70865522       0.00000580       0.00000126       0.00002522
C       27.37312979      29.56298057      20.80358049       0.00002463      -0.00000701      -0.00002713
Si      28.46805495      30.65790574      19.70865530      -0.00002593       0.00000003       0.00002462
C       29.56298014      31.75283095      20.80358057      -0.00000476       0.00000215      -0.00001426
Si      10.94925212      10.94925235      21.89850510       0.00000005       0.00000533       0.00002948
C       12.04417732      12.04417756      22.99343037       0.00001270      -0.00001191      -0.00001972
Si      13.13910248      13.13910273      21.89850517      -0.00001060      -0.00000902       0.00002406
C       14.23402767      14.23402795      22.99343045      -0.00000793       0.00000009      -0.00000722
Si      15.32895283      15.32895312      21.89850525       0.00000321       0.00000161      -0.00001952
C       16.42387803      16.42387833      22.99343053      -0.00000664       0.00000083       0.00000104
Si      17.51880319      17.51880350      21.89850533       0.00000475       0.00003050      -0.00002712
C       18.61372838      18.61372872      22.99343061       0.00002652      -0.00002958      -0.00000566
Si      19.70865354      19.70865389      21.89850541      -0.00002763      -0.00000510      -0.00002791
C       20.80357874      20.80357910      22.99343068       0.00000036       0.00000258       0.00000143
Si      21.89850389      21.89850427      21.89850549       0.00000443       0.00000115      -0.00001954
C       22.99342909      22.99342948      22.99343076      -0.00000415      -0.00000249       0.00000174
Si      24.08835425      24.08835465      21.89850557       0.00000515       0.00000658      -0.00000590
C       25.18327944      25.18327987      22.99343084      -0.00000382       0.00002252       0.00000731
Si      26.27820460      26.27820504      21.89850564       0.00000492      -0.00002189      -0.00000498
C       27.37312980      27.37313025      22.99343092       0.00001965      -0.00000774      -0.00000022
Si      28.46805496      28.46805542      21.89850572      -0.00002382       0.00000313      -0.00000438
C       29.56298015      29.56298064      22.99343100       0.00000209      -0.00000107       0.00000464
Si      30.65790531      30.65790581      21.89850580       0.00000112      -0.00000482      -0.00000088
C       31.75283051      31.75283102      22.99343108       0.00000569       0.00000979      -0.00001041
Si      13.13910249      10.94925242      24.08835560      -0.00001650       0.00000868      -0.00001246
C       14.23402768      12.04417763      25.18328088      -0.00000601      -0.00001346       0.00000858
Si      15.32895284      13.13910280      24.08835568       0.00000252      -0.00000001      -0.00000250
C       16.42387804      14.23402802      25.18328095      -0.00000603      -0.00000023      -0.00000189
Si      17.51880320      15.32895319      24.08835576       0.00000499      -0.00000242       0.00000112
C       18.61372839      16.42387840      25.18328103       0.00002076       0.00000662       0.00000021
Si      19.70865355      17.51880357      24.08835584      -0.00002623       0.00002627      -0.00000016
C       20.80357874      18.61372879      25.18328111      -0.00000313      -0.00001444      -0.00000568
Si      21.89850390      19.70865396      24.08835592       0.00000119       0.00000161       0.00000118
C       22.99342910      20.80357917      25.18328119      -0.00000266      -0.00000336      -0.00000353
Si      24.08835426      21.89850434      24.08835599       0.00000172       0.00000165       0.00000163
C       25.18327945      22.99342955      25.18328127      -0.00000078      -0.00000135      -0.00000129
Si      26.27820461      24.08835472      24.08835607      -0.00000023       0.00000196      -0.00000595
C       27.37312981      25.18327994      25.18328135       0.00002547       0.00002658       0.00000414
Si      28.46805497      26.27820511      24.08835615      -0.00002478      -0.00002574      -0.00000110
C       29.56298016      27.37313032      25.18328143       0.00000221      -0.00000159      -0.00000258
Si      30.65790532      28.46805549      24.08835623      -0.00000009       0.00000276      -0.00000509
C       31.75283051      29.56298071      25.18328150       0.00000032      -0.00000073      -0.00000190
Si      32.84775567      30.65790588      24.08835631       0.00000347       0.00000095      -0.00000674
C       33.94268087      31.75283109      25.18328158       0.00001011       0.00000761       0.00000030
Si      15.32895285      10.94925249      26.27820611      -0.00000932       0.00000030       0.00001407
C       16.42387804      12.04417770      27.37313138      -0.00000774      -0.00001084       0.00000330
Si      17.51880320      13.13910287      26.27820619       0.00001252       0.00000314       0.00000399
C       18.61372840      14.23402809      27.37313146       0.00001673       0.00000697       0.00002526
Si      19.70865356      15.32895326      26.27820626      -0.00002229      -0.00000124       0.00000904
C       20.80357875      16.42387847      27.37313154      -0.00000190       0.00002847       0.00002481
Si      21.89850391      17.51880364      26.27820634       0.00000118      -0.00001847       0.00000548
C       22.99342911      18.61372886      27.37313162      -0.00000424      -0.00000799       0.00001831
Si      24.08835427      19.70865403      26.27820642       0.00000272       0.00000254       0.00000371
C       25.18327946      20.80357924      27.37313170      -0.00000132      -0.00000134       0.00001869
Si      26.27820462      21.89850441      26.27820650       0.00000675       0.00000533       0.00001165
C       27.37312982      22.99342962      27.37313177       0.00002531      -0.00000658      -0.00002275
Si      28.46805497      24.08835479      26.27820658      -0.00002360       0.00001861       0.00002957
C       29.56298017      25.18328001      27.37313185      -0.00000076      -0.00002359      -0.00002707
Si      30.65790533      26.27820518      26.27820666       0.00000284      -0.00001490       0.00002200
C       31.75283052      27.37313039      27.37313193       0.00000401      -0.00000122      -0.00002423
Si      32.84775568      28.46805556      26.27820673      -0.00000096      -0.00000073       0.00002617
C       33.94268088      29.56298078      27.37313201       0.00000101       0.00000046      -0.00002070
Si      35.03760604      30.65790595      26.27820681      -0.00000228      -0.00000159       0.00002366
C       36.13253123      31.75283116      27.37313209       0.00001137       0.00000642      -0.00002420
Si      17.51880321      10.94925256      28.46805661       0.00000656       0.00000751       0.00002574
C       18.61372841      12.04417777      29.56298189       0.00002116      -0.00002742      -0.00000532
Si      19.70865357      13.13910294      28.46805669      -0.00002634       0.00000014      -0.00002239
C       20.80357876      14.23402816      29.56298197       0.00000232       0.00000787      -0.00000585
Si      21.89850392      15.32895333      28.46805677       0.00000015      -0.00002007      -0.00003070
C       22.99342912      16.42387854      29.56298204      -0.00000282       0.00003479      -0.00000209
Si      24.08835428      17.51880371      28.46805685       0.00000481      -0.00002195      -0.00002729
C       25.18327947      18.61372892      29.56298212      -0.00000212      -0.00000410      -0.00000211
Si      26.27820463      19.70865410      28.46805693       0.00000571       0.00000048      -0.00002275
C       27.37312982      20.80357931      29.56298220       0.00002053      -0.00000433      -0.00000185
Si      28.46805498      21.89850448      28.46805701      -0.00002331       0.00000288      -0.00000567
C       29.56298018      22.99342969      29.56298228       0.00000593      -0.00000292      -0.00000033
Si      30.65790534      24.08835486      28.46805708      -0.00000024       0.00002403      -0.00000364
C       31.75283053      25.18328008      29.56298236      -0.00000028      -0.00002664       0.00000002
Si      32.84775569      26.27820525      28.46805716      -0.00000071      -0.00000110      -0.00000266
C       33.94268089      27.37313046      29.56298244       0.00000127       0.00000148      -0.00000013
Si      35.03760605      28.46805563      28.46805724      -0.00000350      -0.00000123      -0.00000171
C       36.13253124      29.56298085      29.56298252       0.00000310      -0.00000028      -0.00000031
Si      37.22745640      30.65790602      28.46805732      -0.00000445      -0.00000144      -0.00000102
C       38.32238159      31.75283123      29.56298259       0.00001429       0.00000795      -0.00001495
Si      19.70865358      10.94925263      30.65790712      -0.00003832       0.00002383      -0.00000121
C       20.80357877      12.04417784      31.75283239      -0.00000820      -0.00000213      -0.00000754
Si      21.89850393      13.13910301      30.65790720      -0.00000381       0.00000796       0.00000339
C       22.99342912      14.23402823      31.75283247      -0.00000594       0.00000921       0.00000839
Si      24.08835428      15.32895340      30.65790728       0.00000243      -0.00001527      -0.00000073
C       25.18327948      16.42387861      31.75283255      -0.00000083       0.00003802       0.00001829
Si      26.27820464      17.51880378      30.65790735       0.00000004      -0.00001666       0.00000010
C       27.37312983      18.61372899      31.75283263       0.00001414      -0.00000558       0.00001344
Si      28.46805499      19.70865417      30.65790743      -0.00002637       0.00000328      -0.00000262
C       29.56298019      20.80357938      31.75283271      -0.00001009       0.00000082       0.00000869
Si      30.65790535      21.89850455      30.65790751      -0.00000375       0.00000660      -0.00000564
C       31.75283054      22.99342976      31.75283279      -0.00000115       0.00000741       0.00000387
Si      32.84775570      24.08835493      30.65790759      -0.00000318       0.00003271       0.00000231
C       33.94268090      25.18328015      31.75283286      -0.00000491      -0.00002337       0.00000790
Si      35.03760605      26.27820532      30.65790767      -0.00000436       0.00000537      -0.00000135
C       36.13253125      27.37313053      31.75283294       0.00000472      -0.00000790       0.00000828
Si      37.22745641      28.46805570      30.65790775      -0.00000819       0.00000530       0.00000099
C       38.32238160      29.56298091      31.75283302       0.00000329       0.00000617       0.00000049
Si      39.41730676      30.65790609      30.65790782       0.00004010       0.00001086       0.00000099
C       40.51223196      31.75283130      31.75283310      -0.00004857       0.00000643       0.00000142
Si       0.00000037      13.13910240      13.13910308       0.00001683      -0.00000703       0.00003466
C        1.09492557      14.23402762      14.23402836      -0.00000067      -0.00000717      -0.00001126
Si       2.18985073      15.32895279      13.13910316       0.00000825      -0.00001029       0.00003575
C        3.28477592      16.42387800      14.23402843      -0.00001398       0.00001508      -0.00000799
Si       4.37970108      17.51880317      13.13910324      -0.00000042       0.00000949       0.00002916
C        5.47462627      18.61372839      14.23402851      -0.00000333       0.00002748      -0.00000673
Si       6.56955143      19.70865356      13.13910332      -0.00000294      -0.00004076       0.00003641
C        7.66447663      20.80357877      14.23402859       0.00000133      -0.00000004      -0.00000458
Si       8.75940179      21.89850394      13.13910339       0.00001579      -0.00000481      -0.00001771
C        9.85432698      22.99342915      14.23402867      -0.00000944      -0.00001078       0.00000064
Si      10.94925214      24.08835432      13.13910347       0.00001179       0.00001153      -0.00002686
C       12.04417734      25.18327954      14.23402875       0.00000361       0.00001689       0.00000728
Si      13.13910250      26.27820471      13.13910355       0.00001739      -0.00002688      -0.00002534
C       14.23402769      27.37312992      14.23402883      -0.00001245      -0.00001403       0.00001326
Si      15.32895285      28.46805509      13.13910363       0.00002988      -0.00000607      -0.00002287
C       16.42387804      29.56298031      14.23402890      -0.00001252       0.00000189       0.00000357
Si      17.51880320      30.65790548      13.13910371       0.00000480      -0.00000334       0.00000370
C       18.61372840      31.75283069      14.23402898       0.00001014       0.00000472       0.00000511
Si      19.70865356      32.84775586      13.13910379      -0.00001917      -0.00000037       0.00000855
C       20.80357875      33.94268107      14.23402906       0.00000612      -0.00000296       0.00000608
Si       2.18985073      13.13910247      15.32895359      -0.00000117      -0.00001075       0.00000538
C        3.28477593      14.23402769      16.42387886       0.00000495      -0.00000441      -0.00000899
Si       4.37970109      15.32895286      15.32895366      -0.00000715       0.00000227       0.00000678
C        5.47462628      16.42387807      16.42387894       0.00000164      -0.00000048      -0.00000535
Si       6.56955144      17.51880324      15.32895374      -0.00000342       0.00001521       0.00001177
C        7.66447664      18.61372845      16.42387902      -0.00000993       0.00001643      -0.00001426
Si       8.75940180      19.70865363      15.32895382       0.00001428      -0.00002977       0.00001376
C        9.85432699      20.80357884      16.42387910      -0.00000597      -0.00000122      -0.00001736
Si      10.94925215      21.89850401      15.32895390       0.00000044       0.00000301       0.00001403
C       12.04417735      22.99342922      16.42387917       0.00000907      -0.00000214      -0.00001357
Si      13.13910250      24.08835439      15.32895398      -0.00001379       0.00000150       0.00001129
C       14.23402770      25.18327961      16.42387925      -0.00000653       0.00000747      -0.00001356
Si      15.32895286      26.27820478      15.32895406       0.00000455       0.00002548       0.00001466
C       16.42387805      27.37312999      16.42387933      -0.00000207      -0.00002502      -0.00001266
Si      17.51880321      28.46805516      15.32895414       0.00000253      -0.00000102       0.00001217
C       18.61372841      29.56298037      16.42387941       0.00002305      -0.00000064      -0.00000986
Si      19.70865357      30.65790555      15.32895421      -0.00003069       0.00000160       0.00000831
C       20.80357876      31.75283076      16.42387949      -0.00000058       0.00000166      -0.00000165
Si      21.89850392      32.84775593      15.32895429       0.00000284       0.00000610      -0.00000968
C       22.99342912      33.94268114      16.42387957       0.00000511       0.00000578      -0.00000453
Si       4.37970110      13.13910254      17.51880409      -0.00000704      -0.00001731      -0.00000560
C        5.47462629      14.23402776      18.61372937      -0.00000156      -0.00000210       0.00000374
Si       6.56955145      15.32895293      17.51880417      -0.00000070       0.00000593      -0.00000182
C        7.66447665      16.42387814      18.61372945      -0.00000345      -0.00000440       0.00000402
Si       8.75940181      17.51880331      17.51880425       0.00000290       0.00001837       0.00000085
C        9.85432700      18.61372852      18.61372952      -0.00000746      -0.00001694       0.00000249
Si      10.94925216      19.70865369      17.51880433       0.00000640      -0.00001585      -0.00000039
C       12.04417735      20.80357891      18.61372960       0.00000833       0.00000061      -0.00000319
Si      13.13910251      21.89850408      17.51880441      -0.00000827      -0.00000090      -0.00000003
C       14.23402771      22.99342929      18.61372968      -0.00000378       0.00000311      -0.00000210
Si      15.32895287      24.08835446      17.51880448       0.00000407      -0.00000498       0.00000614
C       16.42387806      25.18327968      18.61372976      -0.00000375       0.00000387      -0.00000218
Si      17.51880322      26.27820485      17.51880456       0.00000239       0.00002404       0.00000002
C       18.61372842      27.37313006      18.61372984       0.00003099      -0.00002071      -0.00000028
Si      19.70865358      28.46805523      17.51880464      -0.00002686      -0.00000834      -0.00000294
C       20.80357877      29.56298044      18.61372992       0.00000114       0.00000165       0.00000329
Si      21.89850393      30.65790561      17.51880472       0.00000204      -0.00000118      -0.00000188
C       22.99342912      31.75283083      18.61372999      -0.00000092       0.00000024      -0.00000005
Si      24.08835428      32.84775600      17.51880480       0.00000266       0.00000390      -0.00000709
C       25.18327948      33.94268121      18.61373007       0.00000635       0.00001089      -0.00000342
Si       6.56955146      13.13910261      19.70865460      -0.00001267      -0.00002469       0.00001649
C        7.66447665      14.23402783      20.80357987      -0.00000324      -0.00000360       0.00000274
Si       8.75940181      15.32895300      19.70865468      -0.00000501       0.00000100      -0.00000596
C        9.85432701      16.42387821      20.80357995       0.00000183       0.00000110       0.00000551
Si      10.94925217      17.51880338      19.70865475       0.00000600       0.00002825       0.00000121
C       12.04417736      18.61372859      20.80358003       0.00000764      -0.00002131       0.00002096
Si      13.13910252      19.70865376      19.70865483      -0.00000551      -0.00000775       0.00000747
C       14.23402772      20.80357898      20.80358011      -0.00000715      -0.00000284       0.00002010
Si      15.32895288      21.89850415      19.70865491       0.00000364      -0.00000147       0.00000134
C       16.42387807      22.99342936      20.80358019       0.00000062       0.00000580       0.00001954
Si      17.51880323      24.08835453      19.70865499       0.00000176      -0.00000453       0.00000451
C       18.61372843      25.18327975      20.80358026       0.00002080       0.00001890       0.00002665
Si      19.70865358      26.27820492      19.70865507      -0.00002856       0.00002603       0.00001643
C       20.80357878      27.37313013      20.80358034      -0.00000553      -0.00001223      -0.00002606
Si      21.89850394      28.46805530      19.70865515      -0.00000102      -0.00000266       0.00001800
C       22.99342913      29.56298051      20.80358042      -0.00000034       0.00000054      -0.00001683
Si      24.08835429      30.65790568      19.70865523       0.00000154      -0.00000098       0.00002374
C       25.18327949      31.75283090      20.80358050       0.00000027      -0.00000366      -0.00001634
Si      26.27820465      32.84775607      19.70865530       0.00000733       0.00000080       0.00002295
C       27.37312984      33.94268128      20.80358058       0.00002538       0.00000653      -0.00002404
Si       8.75940182      13.13910268      21.89850510      -0.00000777      -0.00001004       0.00002437
C        9.85432702      14.23402790      22.99343038      -0.00000192       0.00000227      -0.00001626
Si      10.94925218      15.32895307      21.89850518       0.00000100      -0.00000042       0.00001833
C       12.04417737      16.42387828      22.99343046       0.00000381      -0.00000757      -0.00000320
Si      13.13910253      17.51880345      21.89850526      -0.00001225       0.00003075      -0.00002737
C       14.23402773      18.61372866      22.99343054       0.00000094      -0.00001865       0.00000071
Si      15.32895289      19.70865383      21.89850534       0.00000475      -0.00000542      -0.00002456
C       16.42387808      20.80357905      22.99343061      -0.00000520       0.00000147      -0.00000016
Si      17.51880324      21.89850422      21.89850542       0.00000717      -0.00000278      -0.00002194
C       18.61372843      22.99342943      22.99343069       0.00002048      -0.00000510      -0.00000285
Si      19.70865359      24.08835460      21.89850550      -0.00002332       0.00000568      -0.00002201
C       20.80357879      25.18327982      22.99343077      -0.00000277       0.00002061      -0.00000175
Si      21.89850395      26.27820499      21.89850557       0.00000539      -0.00002572      -0.00000588
C       22.99342914      27.37313020      22.99343085      -0.00000044      -0.00000003       0.00000625
Si      24.08835430      28.46805537      21.89850565      -0.00000207       0.00000409      -0.00000350
C       25.18327950      29.56298058      22.99343093      -0.00000023       0.00000077       0.00000624
Si      26.27820466      30.65790575      21.89850573       0.00000984       0.00000623      -0.00000218
C       27.37312985      31.75283097      22.99343101      -0.00001655       0.00000058       0.00000271
Si      28.46805501      32.84775614      21.89850581      -0.00001495       0.00000418      -0.00000623
C       29.56298020      33.94268135      22.99343108       0.00000957       0.00001346      -0.00001183
Si      10.94925219      13.13910275      24.08835561      -0.00000450      -0.00001006      -0.00000802
C       12.04417738      14.23402796      25.18328088       0.00000581      -0.00000338       0.00000820
Si      13.13910254      15.32895314      24.08835569      -0.00000720       0.00000007      -0.00000425
C       14.23402773      16.42387835      25.18328096      -0.00000631      -0.00000125      -0.00000256
Si      15.32895289      17.51880352      24.08835577       0.00000597       0.00002559       0.00000047
C       16.42387809      18.61372873      25.18328104      -0.00000417      -0.00002160      -0.00000629
Si      17.51880325      19.70865390      24.08835584       0.00000045      -0.00000188       0.00000631
C       18.61372844      20.80357912      25.18328112       0.00002117       0.00000072      -0.00000535
Si      19.70865360      21.89850429      24.08835592      -0.00002230       0.00000121       0.00000189
C       20.80357880      22.99342950      25.18328120      -0.00000051      -0.00000212      -0.00000362
Si      21.89850396      24.08835467      24.08835600       0.00000206       0.00000151       0.00000249
C       22.99342915      25.18327989      25.18328128       0.00000246       0.00002290      -0.00000160
Si      24.08835431      26.27820506      24.08835608      -0.00000110      -0.00002608      -0.00000520
C       25.18327951      27.37313027      25.18328135      -0.00000276       0.00000439       0.00000266
Si      26.27820466      28.46805544      24.08835616       0.00001038       0.00000612       0.00000063
C       27.37312986      29.56298065      25.18328143      -0.00001856      -0.00000548       0.00000318
Si      28.46805502      30.65790582      24.08835624      -0.00000352       0.00000130      -0.00000254
C       29.56298021      31.75283104      25.18328151       0.00000406       0.00000033      -0.00000169
Si      30.65790537      32.84775621      24.08835632       0.00000223       0.00000243      -0.00000523
C       31.75283057      33.94268142      25.18328159       0.00000228       0.00001136       0.00000922
Si      13.13910255      13.13910282      26.27820612      -0.00001377      -0.00001117       0.00000825
C       14.23402774      14.23402803      27.37313139      -0.00000578      -0.00000030       0.00000372
Si      15.32895290      15.32895320      26.27820619       0.00000820       0.00000367       0.00000047
C       16.42387810      16.42387842      27.37313147      -0.00000905       0.00001933       0.00002721
Si      17.51880326      17.51880359      26.27820627       0.00000421       0.00001745       0.00000235
C       18.61372845      18.61372880      27.37313155       0.00002307      -0.00001087       0.00002075
Si      19.70865361      19.70865397      26.27820635      -0.00002321      -0.00000161       0.00000612
C       20.80357881      20.80357919      27.37313162      -0.00000383      -0.00000743       0.00001988
Si      21.89850397      21.89850436      26.27820643       0.00000227       0.00000526       0.00000332
C       22.99342916      22.99342957      27.37313170       0.00000036      -0.00000263       0.00001816
Si      24.08835432      24.08835474      26.27820651       0.00000420       0.00000715       0.00001204
C       25.18327951      25.18327995      27.37313178      -0.00000412       0.00002358      -0.00002041
Si      26.27820467      26.27820513      26.27820659       0.00001850      -0.00002574       0.00002975
C       27.37312987      27.37313034      27.37313186      -0.00002501       0.00000387      -0.00002889
Si      28.46805503      28.46805551      26.27820666      -0.00000807      -0.00000100       0.00002544
C       29.56298022      29.56298072      27.37313194       0.00000029       0.00000338      -0.00002325
Si      30.65790538      30.65790589      26.27820674      -0.00000241       0.00000052       0.00002497
C       31.75283058      31.75283111      27.37313202       0.00000071       0.00000184      -0.00002029
Si      32.84775574      32.84775628      26.27820682      -0.00000087      -0.00000158       0.00002173
C       33.94268093      33.94268149      27.37313210       0.00000687       0.00001244      -0.00002501
Si      15.32895291      13.13910289      28.46805662      -0.00000100      -0.00000646       0.00002386
C       16.42387811      14.23402810      29.56298190      -0.00000964       0.00000054      -0.00000884
Si      17.51880327      15.32895327      28.46805670       0.00000839      -0.00002152      -0.00003031
C       18.61372846      16.42387849      29.56298197       0.00002750       0.00003423      -0.00000139
Si      19.70865362      17.51880366      28.46805678      -0.00002934      -0.00002366      -0.00003005
C       20.80357881      18.61372887      29.56298205       0.00000257      -0.00000434      -0.00000142
Si      21.89850397      19.70865404      28.46805686       0.00000112       0.00000437      -0.00002195
C       22.99342917      20.80357926      29.56298213      -0.00000114      -0.00000407      -0.00000103
Si      24.08835433      21.89850443      28.46805693       0.00000207       0.00000203      -0.00002357
C       25.18327952      22.99342964      29.56298221      -0.00000103      -0.00000159       0.00000380
Si      26.27820468      24.08835481      28.46805701       0.00002131       0.00002501       0.00000386
C       27.37312988      25.18328002      29.56298229      -0.00002617      -0.00002822      -0.00000086
Si      28.46805504      26.27820519      28.46805709      -0.00000304      -0.00000608       0.00000140
C       29.56298023      27.37313041      29.56298237       0.00000497       0.00000275      -0.00000058
Si      30.65790539      28.46805558      28.46805717      -0.00000381      -0.00000237       0.00000065
C       31.75283059      29.56298079      29.56298244       0.00000109       0.00000085      -0.00000062
Si      32.84775574      30.65790596      28.46805725      -0.00000073      -0.00000117      -0.00000360
C       33.94268094      31.75283118      29.56298252       0.00000113       0.00000153      -0.00000157
Si      35.03760610      32.84775635      28.46805733      -0.00000074      -0.00000194      -0.00000171
C       36.13253129      33.94268156      29.56298260       0.00001261       0.00001166      -0.00001650
Si      17.51880327      13.13910296      30.65790713      -0.00000099      -0.00000508       0.00000773
C       18.61372847      14.23402817      31.75283240       0.00002939      -0.00000212       0.00003132
Si      19.70865363      15.32895334      30.65790721      -0.00003364      -0.00002249       0.00001017
C       20.80357882      16.42387856      31.75283248       0.00000180       0.00003730       0.00002526
Si      21.89850398      17.51880373      30.65790728       0.00000151      -0.00001631       0.00000737
C       22.99342918      18.61372894      31.75283256      -0.00000281      -0.00000684       0.00001451
Si      24.08835434      19.70865411      30.65790736       0.00000113       0.00000166       0.00000428
C       25.18327953      20.80357933      31.75283264       0.00000123       0.00000565       0.00002217
Si      26.27820469      21.89850450      30.65790744       0.00000975       0.00000639       0.00000720
C       27.37312989      22.99342971      31.75283271      -0.00002122      -0.00000377       0.00002313
Si      28.46805505      24.08835488      30.65790752      -0.00000268       0.00003222       0.00000393
C       29.56298024      25.18328009      31.75283279      -0.00000144      -0.00003308       0.00002359
Si      30.65790540      26.27820526      30.65790760      -0.00000072       0.00000010       0.00000144
C       31.75283059      27.37313048      31.75283287      -0.00000043      -0.00000110       0.00002044
Si      32.84775575      28.46805565      30.65790768       0.00000078      -0.00000007       0.00000199
C       33.94268095      29.56298086      31.75283295       0.00000183      -0.00000067       0.00001998
Si      35.03760611      30.65790603      30.65790775      -0.00000081       0.00000067       0.00000490
C       36.13253130      31.75283125      31.75283303       0.00000295      -0.00000046       0.00001607
Si      37.22745646      32.84775642      30.65790783       0.00000057       0.00000223       0.00000472
C       38.32238166      33.94268163      31.75283311       0.00001293       0.00000691       0.00001374
Si      19.70865364      13.13910303      32.84775763      -0.00003867       0.00002863      -0.00002332
C       20.80357883      14.23402824      33.94268291      -0.00000804       0.00001410      -0.00002748
Si      21.89850399      15.32895341      32.84775771      -0.00000848      -0.00001931      -0.00002884
C       22.99342919      16.42387863      33.94268299      -0.00000201       0.00003594      -0.00001186
Si      24.08835435      17.51880380      32.84775779       0.00000318      -0.00002320      -0.00002893
C       25.18327954      18.61372901      33.94268306       0.00000647      -0.00000940      -0.00000544
Si      26.27820470      19.70865418      32.84775787       0.00001443       0.00000073      -0.00002383
C       27.37312989      20.80357940      33.94268314      -0.00002809       0.00000738      -0.00001951
Si      28.46805505      21.89850457      32.84775795      -0.00000659       0.00000840      -0.00002400
C       29.56298025      22.99342978      33.94268322       0.00000248      -0.00000110      -0.00000061
Si      30.65790541      24.08835495      32.84775802      -0.00000501       0.00003205      -0.00002369
C       31.75283060      25.18328016      33.94268330       0.00000476      -0.00002169      -0.00000076
Si      32.84775576      26.27820533      32.84775810      -0.00000255      -0.00000749      -0.00002150
C       33.94268096      27.37313055      33.94268338       0.00000171       0.00000112       0.00000359
Si      35.03760612      28.46805572      32.84775818      -0.00000004      -0.00000016      -0.00002093
C       36.13253131      29.56298093      33.94268346      -0.00000097      -0.00000083      -0.00000194
Si      37.22745647      30.65790610      32.84775826      -0.00000417       0.00000460      -0.00001749
C       38.32238167      31.75283132      33.94268353       0.00000600      -0.00000354      -0.00000705
Si      39.41730682      32.84775649      32.84775834       0.00004883       0.00000480      -0.00002032
C       40.51223202      33.94268170      33.94268361      -0.00004189       0.00000164      -0.00000900
Si       0.00000043      15.32895280      15.32895359       0.00000011      -0.00003814       0.00000636
C        1.09492563      16.42387802      16.42387887      -0.00000556       0.00001300      -0.00000334
Si       2.18985079      17.51880319      15.32895367       0.00002248      -0.00003596      -0.00001365
C        3.28477598      18.61372840      16.42387895      -0.00001154       0.00003102       0.00000866
Si       4.37970114      19.70865357      15.32895375       0.00003600      -0.00002816      -0.00001303
C        5.47462634      20.80357879      16.42387903      -0.00001975       0.00000037       0.00000255
Si       6.56955150      21.89850396      15.32895383       0.00000227       0.00000171       0.00000412
C        7.66447669      22.99342917      16.42387910      -0.00000327      -0.00000647      -0.00000698
Si       8.75940185      24.08835434      15.32895391       0.00000164       0.00001815      -0.00000167
C        9.85432704      25.18327955      16.42387918      -0.00000470       0.00001441       0.00000134
Si      10.94925220      26.27820472      15.32895399       0.00000705      -0.00002134      -0.00000068
C       12.04417740      27.37312994      16.42387926       0.00000892      -0.00001902       0.00000131
Si      13.13910256      28.46805511      15.32895406       0.00001355      -0.00000399      -0.00000274
C       14.23402775      29.56298032      16.42387934      -0.00001307      -0.00000332       0.00000392
Si      15.32895291      30.65790549      15.32895414       0.00002492       0.00000088      -0.00001007
C       16.42387811      31.75283071      16.42387942      -0.00001899      -0.00000672       0.00000850
Si      17.51880327      32.84775588      15.32895422       0.00002837       0.00000170      -0.00000968
C       18.61372846      33.94268109      16.42387950       0.00003460      -0.00000966      -0.00000839
Si      19.70865362      35.03760626      15.32895430      -0.00001374       0.00000335      -0.00000121
C       20.80357881      36.13253147      16.42387957      -0.00000614       0.00003858       0.00000482
Si       2.18985080      15.32895287      17.51880410      -0.00000631      -0.00001069       0.00000402
C        3.28477599      16.42387809      18.61372937      -0.00000082      -0.00000327       0.00000046
Si       4.37970115      17.51880326      17.51880418       0.00000877       0.00000338      -0.00000099
C        5.47462634      18.61372847      18.61372945      -0.00001286       0.00001892      -0.00000352
Si       6.56955150      19.70865364      17.51880426       0.00000861      -0.00002299      -0.00000117
C        7.66447670      20.80357886      18.61372953      -0.00000362      -0.00000324      -0.00000005
Si       8.75940186      21.89850403      17.51880434      -0.00000257       0.00000243       0.00000143
C        9.85432705      22.99342924      18.61372961      -0.00000030      -0.00000064      -0.00000085
Si      10.94925221      24.08835441      17.51880441      -0.00000456       0.00000274      -0.00000329
C       12.04417741      25.18327962      18.61372969       0.00001130       0.00000155      -0.00000021
Si      13.13910257      26.27820479      17.51880449      -0.00000901       0.00002285       0.00000065
C       14.23402776      27.37313001      18.61372977      -0.00000371      -0.00001686      -0.00000218
Si      15.32895292      28.46805518      17.51880457       0.00000161      -0.00000852      -0.00000083
C       16.42387812      29.56298039      18.61372984      -0.00000369       0.00000650       0.00000050
Si      17.51880327      30.65790556      17.51880465       0.00000096      -0.00000006      -0.00000649
C       18.61372847      31.75283078      18.61372992       0.00002200      -0.00000058       0.00000555
Si      19.70865363      32.84775595      17.51880473      -0.00002339      -0.00000014      -0.00000609
C       20.80357882      33.94268116      18.61373000       0.00000079       0.00000032      -0.00000107
Si      21.89850398      35.03760633      17.51880481      -0.00000036       0.00000785      -0.00001121
C       22.99342918      36.13253154      18.61373008       0.00000592       0.00001233      -0.00000269
Si       4.37970116      15.32895294      19.70865461      -0.00001498      -0.00001575       0.00001919
C        5.47462635      16.42387816      20.80357988      -0.00000524      -0.00000599       0.00000798
Si       6.56955151      17.51880333      19.70865468       0.00001331       0.00001986       0.00000297
C        7.66447671      18.61372854      20.80357996      -0.00000450      -0.00002512       0.00000287
Si       8.75940187      19.70865371      19.70865476       0.00000338      -0.00000303      -0.00000025
C        9.85432706      20.80357892      20.80358004      -0.00000249       0.00000075       0.00001905
Si      10.94925222      21.89850410      19.70865484      -0.00000102      -0.00000188       0.00000301
C       12.04417742      22.99342931      20.80358012       0.00001288       0.00000474       0.00002070
Si      13.13910258      24.08835448      19.70865492      -0.00001084      -0.00000439       0.00000307
C       14.23402777      25.18327969      20.80358019       0.00000187       0.00000408       0.00001979
Si      15.32895293      26.27820486      19.70865500       0.00000305       0.00002044       0.00000300
C       16.42387812      27.37313008      20.80358027      -0.00000905      -0.00001294       0.00002034
Si      17.51880328      28.46805525      19.70865508       0.00001000       0.00000122       0.00001245
C       18.61372848      29.56298046      20.80358035       0.00002147      -0.00000687      -0.00002310
Si      19.70865364      30.65790563      19.70865515      -0.00002501       0.00000023       0.00002226
C       20.80357883      31.75283085      20.80358043      -0.00000127       0.00000282      -0.00002142
Si      21.89850399      32.84775602      19.70865523       0.00000049      -0.00000111       0.00002495
C       22.99342919      33.94268123      20.80358051       0.00000210      -0.00000033      -0.00001648
Si      24.08835435      35.03760640      19.70865531       0.00000096      -0.00000043       0.00002015
C       25.18327954      36.13253161      20.80358059       0.00001560       0.00001378      -0.00002282
Si       6.56955152      15.32895301      21.89850511       0.00000193      -0.00000693       0.00002741
C        7.66447672      16.42387823      22.99343039      -0.00000212      -0.00000151      -0.00002139
Si       8.75940188      17.51880340      21.89850519      -0.00000780       0.00002847       0.00002355
C        9.85432707      18.61372861      22.99343046       0.00000008      -0.00002837      -0.00001366
Si      10.94925223      19.70865378      21.89850527       0.00000187      -0.00000938      -0.00002182
C       12.04417742      20.80357899      22.99343054       0.00000988      -0.00000156      -0.00000217
Si      13.13910258      21.89850416      21.89850535      -0.00000933       0.00000024      -0.00002548
C       14.23402778      22.99342938      22.99343062      -0.00000645       0.00000414      -0.00000107
Si      15.32895294      24.08835455      21.89850543       0.00000551       0.00000042      -0.00002028
C       16.42387813      25.18327976      22.99343070      -0.00000564       0.00002159      -0.00000005
Si      17.51880329      26.27820493      21.89850550       0.00000713      -0.00002295      -0.00002633
C       18.61372849      27.37313015      22.99343078       0.00001790      -0.00000654      -0.00000203
Si      19.70865365      28.46805532      21.89850558      -0.00002331       0.00000327      -0.00000942
C       20.80357884      29.56298053      22.99343086       0.00000236      -0.00000091       0.00000735
Si      21.89850400      30.65790570      21.89850566       0.00000235      -0.00000324      -0.00000466
C       22.99342920      31.75283091      22.99343093       0.00000094       0.00000086       0.00000638
Si      24.08835435      32.84775609      21.89850574      -0.00000378       0.00000200      -0.00000612
C       25.18327955      33.94268130      22.99343101      -0.00000051       0.00000107       0.00000889
Si      26.27820471      35.03760647      21.89850582       0.00001126       0.00000330      -0.00000594
C       27.37312990      36.13253168      22.99343109      -0.00001200       0.00001304      -0.00001159
Si       8.75940188      15.32895308      24.08835562      -0.00000729      -0.00001044      -0.00000318
C        9.85432708      16.42387830      25.18328089      -0.00000336      -0.00000591       0.00000874
Si      10.94925224      17.51880347      24.08835570       0.00000080       0.00002878      -0.00000362
C       12.04417743      18.61372868      25.18328097       0.00000759      -0.00002527       0.00000152
Si      13.13910259      19.70865385      24.08835577      -0.00000814      -0.00000379       0.00000300
C       14.23402779      20.80357906      25.18328105      -0.00000445       0.00000003      -0.00000377
Si      15.32895295      21.89850423      24.08835585       0.00000631      -0.00000124       0.00000483
C       16.42387814      22.99342945      25.18328113      -0.00000356       0.00000003      -0.00000517
Si      17.51880330      24.08835462      24.08835593       0.00000271       0.00000369       0.00000486
C       18.61372850      25.18327983      25.18328121       0.00002318       0.00002675      -0.00000138
Si      19.70865366      26.27820500      24.08835601      -0.00002543      -0.00002825       0.00000424
C       20.80357885      27.37313022      25.18328128       0.00000066       0.00000164      -0.00000124
Si      21.89850401      28.46805539      24.08835609      -0.00000023       0.00000112      -0.00000700
C       22.99342920      29.56298060      25.18328136      -0.00000001       0.00000079       0.00000015
Si      24.08835436      30.65790577      24.08835617      -0.00000336      -0.00000198      -0.00000617
C       25.18327956      31.75283098      25.18328144      -0.00000003       0.00000402       0.00000292
Si      26.27820472      32.84775615      24.08835624       0.00001994      -0.00000005      -0.00000488
C       27.37312991      33.94268137      25.18328152      -0.00001972      -0.00000126       0.00000361
Si      28.46805507      35.03760654      24.08835632       0.00000067       0.00000362      -0.00000326
C       29.56298027      36.13253175      25.18328160       0.00001002       0.00001027       0.00001803
Si      10.94925225      15.32895315      26.27820612      -0.00000981      -0.00001222       0.00000643
C       12.04417744      16.42387837      27.37313140       0.00000605      -0.00000053       0.00000959
Si      13.13910260      17.51880354      26.27820620      -0.00000501       0.00003358      -0.00000145
C       14.23402780      18.61372875      27.37313148      -0.00000945      -0.00001643       0.00001716
Si      15.32895296      19.70865392      26.27820628       0.00000499      -0.00000128       0.00000173
C       16.42387815      20.80357913      27.37313155      -0.00000361       0.00000349       0.00002251
Si      17.51880331      21.89850430      26.27820636       0.00000228      -0.00000367       0.00000362
C       18.61372850      22.99342952      27.37313163       0.00002275       0.00000481       0.00002518
Si      19.70865366      24.08835469      26.27820644      -0.00002610       0.00000538       0.00000677
C       20.80357886      25.18327990      27.37313171      -0.00000179       0.00002241       0.00002122
Si      21.89850402      26.27820507      26.27820652       0.00000129      -0.00002158       0.00001339
C       22.99342921      27.37313029      27.37313179       0.00000324      -0.00000433      -0.00001749
Si      24.08835437      28.46805546      26.27820659      -0.00000025      -0.00000047       0.00002081
C       25.18327957      29.56298067      27.37313187       0.00000372      -0.00000386      -0.00001985
Si      26.27820473      30.65790584      26.27820667       0.00002648      -0.00000032       0.00002602
C       27.37312992      31.75283105      27.37313195      -0.00002618       0.00001060      -0.00002783
Si      28.46805508      32.84775622      26.27820675      -0.00000906      -0.00000422       0.00002389
C       29.56298028      33.94268144      27.37313202      -0.00000309       0.00000592      -0.00001284
Si      30.65790543      35.03760661      26.27820683      -0.00000323      -0.00000385      -0.00001729
C       31.75283063      36.13253182      27.37313210       0.00000554       0.00001970      -0.00001381
Si      13.13910261      15.32895322      28.46805663      -0.00000820      -0.00000799       0.00002431
C       14.23402781      16.42387843      29.56298190      -0.00001367       0.00002095      -0.00001094
Si      15.32895296      17.51880361      28.46805671       0.00000417      -0.00001823      -0.00002845
C       16.42387816      18.61372882      29.56298198      -0.00000608      -0.00000638       0.00000077
Si      17.51880332      19.70865399      28.46805679       0.00000674      -0.00000010      -0.00002621
C       18.61372851      20.80357920      29.56298206       0.00002057      -0.00000507      -0.00000336
Si      19.70865367      21.89850437      28.46805686      -0.00002386       0.00000372      -0.00002493
C       20.80357887      22.99342959      29.56298214       0.00000085      -0.00000303      -0.00000199
Si      21.89850403      24.08835476      28.46805694      -0.00000148       0.00000582      -0.00002102
C       22.99342922      25.18327997      29.56298222      -0.00000019       0.00001901      -0.00000072
Si      24.08835438      26.27820514      28.46805702       0.00000070      -0.00002285      -0.00000419
C       25.18327958      27.37313036      29.56298230      -0.00000382       0.00000256       0.00000060
Si      26.27820474      28.46805553      28.46805710       0.00002362      -0.00000096      -0.00000434
C       27.37312993      29.56298074      29.56298237      -0.00002422      -0.00000039       0.00000025
Si      28.46805509      30.65790591      28.46805718       0.00000013      -0.00000422      -0.00000058
C       29.56298028      31.75283112      29.56298245       0.00000270       0.00000258      -0.00000071
Si      30.65790544      32.84775629      28.46805726       0.00000116      -0.00000718       0.00000236
C       31.75283064      33.94268151      29.56298253      -0.00000277       0.00000493      -0.00000762
Si      32.84775580      35.03760668      28.46805733       0.00000203      -0.00000379       0.00000708
C       33.94268099      36.13253189      29.56298261       0.00000405       0.00004268      -0.00000841
Si      15.32895297      15.32895329      30.65790713      -0.00001839      -0.00004613       0.00001621
C       16.42387817      16.42387850      31.75283241      -0.00000770       0.00004628       0.00003387
Si      17.51880333      17.51880368      30.65790721       0.00000355      -0.00002053       0.00000580
C       18.61372852      18.61372889      31.75283249       0.00002194      -0.00000306       0.00002573
Si      19.70865368      19.70865406      30.65790729      -0.00002161       0.00000395       0.00000749
C       20.80357888      20.80357927      31.75283257      -0.00000201      -0.00000704       0.00001756
Si      21.89850404      21.89850444      30.65790737      -0.00000135       0.00000311       0.00000285
C       22.99342923      22.99342966      31.75283264       0.00000652       0.00000019       0.00002041
Si      24.08835439      24.08835483      30.65790745       0.00000177       0.00001268       0.00000647
C       25.18327958      25.18328004      31.75283272       0.00000058      -0.00002438       0.00002415
Si      26.27820474      26.27820521      30.65790753       0.00002888      -0.00000403       0.00000477
C       27.37312994      27.37313042      31.75283280      -0.00002739      -0.00000351       0.00002610
Si      28.46805510      28.46805560      30.65790761       0.00000004       0.00000186       0.00000214
C       29.56298029      29.56298081      31.75283288       0.00000012      -0.00000180       0.00002123
Si      30.65790545      30.65790598      30.65790768      -0.00000061       0.00000117       0.00000252
C       31.75283065      31.75283119      31.75283296       0.00000028       0.00000056       0.00001877
Si      32.84775581      32.84775636      30.65790776       0.00000151      -0.00000185       0.00000733
C       33.94268100      33.94268158      31.75283304      -0.00000136      -0.00000140       0.00001658
Si      35.03760616      35.03760675      30.65790784       0.00000187       0.00001049       0.00001123
C       36.13253136      36.13253196      31.75283311       0.00000778       0.00004660       0.00001967
Si      17.51880334      15.32895336      32.84775764       0.00000462      -0.00004092      -0.00001919
C       18.61372853      16.42387857      33.94268291      -0.00003097       0.00003399       0.00000411
Si      19.70865369      17.51880374      32.84775772      -0.00001603      -0.00002068      -0.00003293
C       20.80357889      18.61372896      33.94268299       0.00000448      -0.00000684      -0.00000161
Si      21.89850404      19.70865413      32.84775780      -0.00000157       0.00000316      -0.00002182
C       22.99342924      20.80357934      33.94268307       0.00000390      -0.00000127       0.00000113
Si      24.08835440      21.89850451      32.84775788      -0.00000232      -0.00000079      -0.00002467
C       25.18327959      22.99342973      33.94268315      -0.00000030      -0.00000318       0.00000229
Si      26.27820475      24.08835490      32.84775795       0.00002689       0.00003127      -0.00002763
C       27.37312995      25.18328011      33.94268323      -0.00002500      -0.00002482       0.00000007
Si      28.46805511      26.27820528      32.84775803      -0.00000424      -0.00000499      -0.00002732
C       29.56298030      27.37313049      33.94268331       0.00000538       0.00000522       0.00000235
Si      30.65790546      28.46805566      32.84775811      -0.00000359      -0.00000129      -0.00002362
C       31.75283066      29.56298088      33.94268339       0.00000181      -0.00000088       0.00000075
Si      32.84775582      30.65790605      32.84775819      -0.00000073       0.00000017      -0.00002452
C       33.94268101      31.75283126      33.94268346      -0.00000005      -0.00000111       0.00000081
Si      35.03760617      32.84775643      32.84775827      -0.00000041       0.00000136      -0.00002259
C       36.13253136      33.94268165      33.94268354       0.00000098      -0.00000364      -0.00000059
Si      37.22745652      35.03760682      32.84775835      -0.00000244       0.00001338      -0.00002280
C       38.32238172      36.13253203      33.94268362       0.00000843       0.00004673      -0.00000099
Si      19.70865370      15.32895343      35.03760815      -0.00001644      -0.00004354       0.00001199
C       20.80357889      16.42387864      36.13253342       0.00000019       0.00003661      -0.00000023
Si      21.89850405      17.51880381      35.03760822      -0.00000229      -0.00001954       0.00000553
C       22.99342925      18.61372903      36.13253350       0.00000013      -0.00000610      -0.00000181
Si      24.08835441      19.70865420      35.03760830      -0.00000009       0.00000010       0.00000462
C       25.18327960      20.80357941      36.13253358       0.00000230      -0.00000079      -0.00000372
Si      26.27820476      21.89850458      35.03760838       0.00001899       0.00000130       0.00000547
C       27.37312996      22.99342980      36.13253366      -0.00001865       0.00000258      -0.00000760
Si      28.46805512      24.08835497      35.03760846      -0.00000548       0.00002500       0.00000325
C       29.56298031      25.18328018      36.13253373       0.00000315      -0.00002108      -0.00000197
Si      30.65790547      26.27820535      35.03760854      -0.00000636      -0.00000419       0.00000228
C       31.75283066      27.37313056      36.13253381       0.00000184       0.00000040      -0.00000184
Si      32.84775582      28.46805573      35.03760862       0.00000030       0.00000117       0.00000367
C       33.94268102      29.56298095      36.13253389       0.00000047      -0.00000159      -0.00000134
Si      35.03760618      30.65790612      35.03760869       0.00000050       0.00000145       0.00000451
C       36.13253137      31.75283133      36.13253397      -0.00000140      -0.00000032      -0.00000286
Si      37.22745653      32.84775650      35.03760877      -0.00000144       0.00000389       0.00000574
C       38.32238173      33.94268172      36.13253405       0.00000024      -0.00000223      -0.00000240
Si      39.41730689      35.03760689      35.03760885       0.00004443       0.00001252       0.00000646
C       40.51223208      36.13253210      36.13253413      -0.00002690       0.00003824      -0.00000893
Si       0.00000049      17.51880320      17.51880411       0.00000117       0.00000917      -0.00000384
C        1.09492569      18.61372842      18.61372938      -0.00000638       0.00001698       0.00000325
Si       2.18985085      19.70865359      17.51880419      -0.00000957      -0.00001898      -0.00000276
C        3.28477604      20.80357880      18.61372946      -0.00000775      -0.00000484      -0.00000067
Si       4.37970120      21.89850397      17.51880426       0.00003189       0.00000460      -0.00000186
C        5.47462640      22.99342919      18.61372954      -0.00001763      -0.00000673      -0.00000735
Si       6.56955156      24.08835436      17.51880434      -0.00000264       0.00001846      -0.00000710
C        7.66447675      25.18327957      18.61372962       0.00000238       0.00000649      -0.00000220
Si       8.75940191      26.27820474      17.51880442       0.00000511      -0.00001794      -0.00000176
C        9.85432711      27.37312995      18.61372970       0.00000126      -0.00001147       0.00000244
Si      10.94925227      28.46805512      17.51880450      -0.00000425      -0.00000231       0.00000609
C       12.04417746      29.56298034      18.61372977       0.00001155       0.00000456      -0.00000284
Si      13.13910262      30.65790551      17.51880458      -0.00001113      -0.00000593       0.00000216
C       14.23402781      31.75283072      18.61372985      -0.00001063      -0.00000395       0.00000665
Si      15.32895297      32.84775589      17.51880466       0.00002711       0.00001224      -0.00001114
C       16.42387817      33.94268111      18.61372993      -0.00000107       0.00000183       0.00000409
Si      17.51880333      35.03760628      17.51880473      -0.00006911       0.00000861      -0.00001646
C       18.61372852      36.13253149      18.61373001       0.00004527       0.00004152      -0.00000547
Si      19.70865368      37.22745666      17.51880481      -0.00002255      -0.00008306      -0.00000246
C       20.80357888      38.32238187      18.61373009       0.00000236       0.00005281       0.00001584
Si       2.18985086      17.51880327      19.70865461      -0.00001492      -0.00001232       0.00002362
C        3.28477605      18.61372849      20.80357989      -0.00001233       0.00003679       0.00001553
Si       4.37970121      19.70865366      19.70865469       0.00000252      -0.00002578       0.00000486
C        5.47462641      20.80357887      20.80357997      -0.00000879      -0.00000416       0.00000153
Si       6.56955157      21.89850404      19.70865477       0.00001000       0.00000688      -0.00000126
C        7.66447676      22.99342926      20.80358004      -0.00000274      -0.00000141       0.00002276
Si       8.75940192      24.08835443      19.70865485      -0.00000774      -0.00000087      -0.00000044
C        9.85432711      25.18327964      20.80358012       0.00000441       0.00000512       0.00002202
Si      10.94925227      26.27820481      19.70865493       0.00000100       0.00002479       0.00000489
C       12.04417747      27.37313002      20.80358020       0.00000667      -0.00002171       0.00002621
Si      13.13910263      28.46805519      19.70865501      -0.00000597      -0.00000815       0.00000412
C       14.23402782      29.56298041      20.80358028      -0.00000818       0.00000049       0.00001700
Si      15.32895298      30.65790558      19.70865508       0.00000813      -0.00000049       0.00001170
C       16.42387818      31.75283079      20.80358036      -0.00000413      -0.00000049      -0.00001387
Si      17.51880334      32.84775596      19.70865516       0.00001028       0.00000888       0.00002128
C       18.61372853      33.94268118      20.80358044      -0.00002270       0.00000346      -0.00002244
Si      19.70865369      35.03760635      19.70865524      -0.00001279       0.00000274       0.00002256
C       20.80357889      36.13253156      20.80358052      -0.00000403       0.00000773      -0.00002537
Si      21.89850404      37.22745673      19.70865532       0.00000353       0.00000144       0.00002944
C       22.99342924      38.32238194      20.80358059       0.00000216       0.00003239      -0.00002426
Si       4.37970122      17.51880334      21.89850512       0.00000023       0.00002840       0.00003052
C        5.47462642      18.61372856      22.99343039      -0.00000173      -0.00002447      -0.00002948
Si       6.56955157      19.70865373      21.89850520       0.00000480      -0.00000792       0.00002622
C        7.66447677      20.80357894      22.99343047      -0.00000435       0.00000017      -0.00001476
Si       8.75940193      21.89850411      21.89850528      -0.00000686      -0.00000070      -0.00002389
C        9.85432712      22.99342933      22.99343055      -0.00000115       0.00000177       0.00000037
Si      10.94925228      24.08835450      21.89850535       0.00000063      -0.00000185      -0.00002345
C       12.04417748      25.18327971      22.99343063       0.00000633      -0.00000125      -0.00000011
Si      13.13910264      26.27820488      21.89850543      -0.00001273       0.00002685      -0.00002977
C       14.23402783      27.37313009      22.99343071      -0.00000126      -0.00000841      -0.00000317
Si      15.32895299      28.46805526      21.89850551       0.00000261      -0.00000467      -0.00002466
C       16.42387819      29.56298048      22.99343079      -0.00000145       0.00000046       0.00000596
Si      17.51880335      30.65790565      21.89850559       0.00001581       0.00000515      -0.00000326
C       18.61372854      31.75283086      22.99343086      -0.00002002       0.00000147       0.00000342
Si      19.70865370      32.84775603      21.89850567      -0.00000329      -0.00000008      -0.00000533
C       20.80357889      33.94268125      22.99343094       0.00000479      -0.00000075       0.00000847
Si      21.89850405      35.03760642      21.89850575      -0.00000123      -0.00000492      -0.00000432
C       22.99342925      36.13253163      22.99343102       0.00000642       0.00000149       0.00001199
Si      24.08835441      37.22745680      21.89850582       0.00000316       0.00003077       0.00000339
C       25.18327960      38.32238201      22.99343110       0.00000463      -0.00005201      -0.00001077
Si       6.56955158      17.51880341      24.08835562       0.00000587       0.00003935      -0.00000606
C        7.66447678      18.61372863      25.18328090       0.00000330      -0.00002488       0.00000141
Si       8.75940194      19.70865380      24.08835570      -0.00001057      -0.00000708       0.00000115
C        9.85432713      20.80357901      25.18328098      -0.00000192       0.00000114      -0.00000165
Si      10.94925229      21.89850418      24.08835578       0.00000074       0.00000078       0.00000452
C       12.04417749      22.99342940      25.18328106       0.00000669       0.00000193      -0.00000633
Si      13.13910265      24.08835457      24.08835586      -0.00000308       0.00000066       0.00000757
C       14.23402784      25.18327978      25.18328113      -0.00000122       0.00001927      -0.00000699
Si      15.32895300      26.27820495      24.08835594       0.00000115      -0.00002363       0.00000127
C       16.42387819      27.37313016      25.18328121      -0.00000156       0.00000364      -0.00000181
Si      17.51880335      28.46805533      24.08835602       0.00001009       0.00000379       0.00000388
C       18.61372855      29.56298055      25.18328129      -0.00001652      -0.00000354       0.00000036
Si      19.70865371      30.65790572      24.08835610      -0.00000243       0.00000074      -0.00000474
C       20.80357890      31.75283093      25.18328137       0.00000159      -0.00000231       0.00000101
Si      21.89850406      32.84775610      24.08835617      -0.00000309       0.00000033      -0.00000726
C       22.99342926      33.94268132      25.18328145       0.00000238       0.00000244       0.00000252
Si      24.08835442      35.03760649      24.08835625      -0.00000732      -0.00000609      -0.00001234
C       25.18327961      36.13253170      25.18328153       0.00000473       0.00001029       0.00000675
Si      26.27820477      37.22745687      24.08835633       0.00002705       0.00005474       0.00000222
C       27.37312997      38.32238208      25.18328161      -0.00003132      -0.00006676       0.00003377
Si       8.75940195      17.51880348      26.27820613      -0.00000836       0.00003608       0.00000032
C        9.85432714      18.61372870      27.37313141       0.00000087      -0.00002146       0.00000231
Si      10.94925230      19.70865387      26.27820621       0.00000574      -0.00000188       0.00000057
C       12.04417750      20.80357908      27.37313148       0.00000871       0.00000176       0.00002269
Si      13.13910265      21.89850425      26.27820629      -0.00000710      -0.00000013       0.00000441
C       14.23402785      22.99342946      27.37313156      -0.00000022      -0.00000314       0.00001892
Si      15.32895301      24.08835464      26.27820637      -0.00000000       0.00000098       0.00000035
C       16.42387820      25.18327985      27.37313164       0.00000309       0.00003242       0.00003008
Si      17.51880336      26.27820502      26.27820644       0.00001671      -0.00002617       0.00000776
C       18.61372856      27.37313023      27.37313172      -0.00002801      -0.00000912       0.00002317
Si      19.70865372      28.46805540      26.27820652       0.00000082       0.00000608       0.00001115
C       20.80357891      29.56298062      27.37313180      -0.00000312       0.00000165      -0.00002031
Si      21.89850407      30.65790579      26.27820660      -0.00000041       0.00000010       0.00002216
C       22.99342927      31.75283100      27.37313188       0.00000139       0.00000235      -0.00001635
Si      24.08835443      32.84775617      26.27820668      -0.00000191      -0.00000282       0.00001977
C       25.18327962      33.94268138      27.37313195       0.00000540       0.00000090      -0.00001873
Si      26.27820478      35.03760656      26.27820676       0.00002433      -0.00000533       0.00002190
C       27.37312997      36.13253177      27.37313203      -0.00002849       0.00001158      -0.00001577
Si      28.46805513      37.22745694      26.27820684      -0.00001467       0.00004765      -0.00002042
C       29.56298033      38.32238215      27.37313211       0.00000569      -0.00005416       0.00000122
Si      10.94925231      17.51880355      28.46805664       0.00000423       0.00004173       0.00001084
C       12.04417750      18.61372877      29.56298191       0.00000379      -0.00001896      -0.00001774
Si      13.13910266      19.70865394      28.46805671      -0.00001165      -0.00000271      -0.00002649
C       14.23402786      20.80357915      29.56298199      -0.00000032      -0.00000110      -0.00000179
Si      15.32895302      21.89850432      28.46805679       0.00000308       0.00000094      -0.00002416
C       16.42387821      22.99342953      29.56298207      -0.00000422      -0.00000087       0.00000029
Si      17.51880337      24.08835470      28.46805687       0.00001751       0.00000523      -0.00002333
C       18.61372857      25.18327992      29.56298215      -0.00002849       0.00002582      -0.00000480
Si      19.70865373      26.27820509      28.46805695      -0.00000045      -0.00002580      -0.00002570
C       20.80357892      27.37313030      29.56298222       0.00000230      -0.00000129       0.00000007
Si      21.89850408      28.46805547      28.46805703       0.00000127       0.00000002      -0.00000190
C       22.99342927      29.56298069      29.56298230       0.00000100      -0.00000010       0.00000035
Si      24.08835443      30.65790586      28.46805711      -0.00000477       0.00000249      -0.00000280
C       25.18327963      31.75283107      29.56298238      -0.00000238       0.00000346      -0.00000056
Si      26.27820479      32.84775624      28.46805719       0.00002451      -0.00000557      -0.00000506
C       27.37312998      33.94268145      29.56298246      -0.00002469       0.00000642      -0.00000082
Si      28.46805514      35.03760662      28.46805726      -0.00000102      -0.00001221       0.00000180
C       29.56298034      36.13253184      29.56298254       0.00000258       0.00001326      -0.00000520
Si      30.65790550      37.22745701      28.46805734      -0.00000463       0.00004063       0.00000070
C       31.75283069      38.32238222      29.56298262      -0.00000685      -0.00003272      -0.00001025
Si      13.13910267      17.51880362      30.65790714      -0.00000541      -0.00000818      -0.00000416
C       14.23402787      18.61372884      31.75283242      -0.00000983      -0.00000616       0.00001826
Si      15.32895303      19.70865401      30.65790722       0.00000393       0.00000388      -0.00000095
C       16.42387822      20.80357922      31.75283250      -0.00000283       0.00000485       0.00002406
Si      17.51880338      21.89850439      30.65790730       0.00001287       0.00000712       0.00000829
C       18.61372858      22.99342960      31.75283257      -0.00002642      -0.00000349       0.00002505
Si      19.70865373      24.08835477      30.65790738       0.00000081       0.00000658       0.00000547
C       20.80357893      25.18327999      31.75283265      -0.00000139       0.00002213       0.00002488
Si      21.89850409      26.27820516      30.65790746      -0.00000006      -0.00002220       0.00000430
C       22.99342928      27.37313037      31.75283273      -0.00000466       0.00000090       0.00001949
Si      24.08835444      28.46805554      30.65790753      -0.00000169      -0.00000214      -0.00000218
C       25.18327964      29.56298076      31.75283281       0.00000120       0.00000658       0.00002120
Si      26.27820480      30.65790593      30.65790761       0.00002533      -0.00000073       0.00000505
C       27.37312999      31.75283114      31.75283289      -0.00002889      -0.00000271       0.00002703
Si      28.46805515      32.84775631      30.65790769       0.00000270      -0.00000136       0.00000314
C       29.56298035      33.94268152      31.75283297      -0.00000339      -0.00000116       0.00001988
Si      30.65790551      35.03760669      30.65790777       0.00000756      -0.00000012       0.00001105
C       31.75283070      36.13253191      31.75283304      -0.00000011       0.00005512       0.00002094
Si      32.84775586      37.22745708      30.65790785       0.00000047      -0.00005344       0.00000630
C       33.94268105      38.32238229      31.75283312       0.00000182      -0.00000138       0.00002075
Si      15.32895304      17.51880369      32.84775765       0.00002515      -0.00002245      -0.00002812
C       16.42387823      18.61372891      33.94268292      -0.00000397      -0.00000153      -0.00000425
Si      17.51880339      19.70865408      32.84775773       0.00001586      -0.00000157      -0.00002102
C       18.61372858      20.80357929      33.94268300      -0.00002120       0.00000047      -0.00000480
Si      19.70865374      21.89850446      32.84775780      -0.00000710       0.00000139      -0.00002179
C       20.80357894      22.99342967      33.94268308       0.00000372      -0.00000041       0.00000120
Si      21.89850410      24.08835484      32.84775788      -0.00000002       0.00001746      -0.00001996
C       22.99342929      25.18328006      33.94268316       0.00000086      -0.00001873      -0.00000387
Si      24.08835445      26.27820523      32.84775796       0.00000187      -0.00000794      -0.00002112
C       25.18327965      27.37313044      33.94268324      -0.00000328       0.00000238       0.00000044
Si      26.27820481      28.46805561      32.84775804       0.00002776      -0.00000398      -0.00002636
C       27.37313000      29.56298083      33.94268331      -0.00002067       0.00000743      -0.00000253
Si      28.46805516      30.65790600      32.84775812      -0.00000540      -0.00000065      -0.00002495
C       29.56298035      31.75283121      33.94268339       0.00000229       0.00000381       0.00000053
Si      30.65790551      32.84775638      32.84775820      -0.00000038      -0.00000144      -0.00002390
C       31.75283071      33.94268159      33.94268347      -0.00000096      -0.00000056       0.00000120
Si      32.84775587      35.03760676      32.84775828       0.00000241       0.00001034      -0.00002327
C       33.94268106      36.13253198      33.94268355      -0.00000765       0.00004990      -0.00000046
Si      35.03760622      37.22745715      32.84775835       0.00000549      -0.00006052      -0.00002963
C       36.13253142      38.32238236      33.94268363      -0.00000181      -0.00000126       0.00000083
Si      17.51880340      17.51880376      35.03760815       0.00002624      -0.00001193      -0.00000674
C       18.61372859      18.61372897      36.13253343      -0.00002329      -0.00000892       0.00000274
Si      19.70865375      19.70865415      35.03760823      -0.00000217       0.00000440       0.00000278
C       20.80357895      20.80357936      36.13253351       0.00000349      -0.00000414      -0.00000117
Si      21.89850411      21.89850453      35.03760831      -0.00000278       0.00000097       0.00000229
C       22.99342930      22.99342974      36.13253358       0.00000489       0.00000075      -0.00000185
Si      24.08835446      24.08835491      35.03760839      -0.00000252       0.00002564       0.00000378
C       25.18327966      25.18328013      36.13253366       0.00000286      -0.00002287      -0.00000624
Si      26.27820481      26.27820530      35.03760847       0.00002175      -0.00000741       0.00000060
C       27.37313001      27.37313051      36.13253374      -0.00001814       0.00000210      -0.00000047
Si      28.46805517      28.46805568      35.03760855      -0.00000125      -0.00000459       0.00000312
C       29.56298036      29.56298089      36.13253382       0.00000205      -0.00000155      -0.00000115
Si      30.65790552      30.65790607      35.03760862      -0.00000096       0.00000009       0.00000378
C       31.75283072      31.75283128      36.13253390      -0.00000102       0.00000016      -0.00000104
Si      32.84775588      32.84775645      35.03760870       0.00000112      -0.00000038       0.00000428
C       33.94268107      33.94268166      36.13253398       0.00000045      -0.00000173      -0.00000292
Si      35.03760623      35.03760683      35.03760878       0.00000347       0.00001085       0.00000517
C       36.13253143      36.13253205      36.13253406      -0.00000468       0.00004635      -0.00000315
Si      37.22745659      37.22745722      35.03760886       0.00000328      -0.00005821       0.00000539
C       38.32238178      38.32238243      36.13253413       0.00003094      -0.00000616       0.00000535
Si      19.70865376      17.51880383      37.22745866       0.00000659      -0.00000222      -0.00000788
C       20.80357896      18.61372904      38.32238393       0.00000611      -0.00002040       0.00000884
Si      21.89850412      19.70865421      37.22745874      -0.00000048       0.00000449       0.00000282
C       22.99342931      20.80357943      38.32238401       0.00001033      -0.00000850       0.00000389
Si      24.08835447      21.89850460      37.22745882      -0.00000453      -0.00000007      -0.00000036
C       25.18327966      22.99342981      38.32238409      -0.00000177      -0.00000116      -0.00000030
Si      26.27820482      24.08835498      37.22745889       0.00002542       0.00002937       0.00000265
C       27.37313002      25.18328020      38.32238417      -0.00002190      -0.00002757       0.00000236
Si      28.46805518      26.27820537      37.22745897      -0.00000479      -0.00000469      -0.00000297
C       29.56298037      27.37313058      38.32238425       0.00000368       0.00000173      -0.00000100
Si      30.65790553      28.46805575      37.22745905      -0.00000238       0.00000008       0.00000224
C       31.75283073      29.56298096      38.32238433       0.00000326      -0.00000004       0.00000011
Si      32.84775589      30.65790613      37.22745913      -0.00000062      -0.00000015       0.00000036
C       33.94268108      31.75283135      38.32238440       0.00000565      -0.00000198       0.00000099
Si      35.03760624      32.84775652      37.22745921       0.00000084       0.00000182       0.00000064
C       36.13253143      33.94268173      38.32238448      -0.00000289      -0.00000306       0.00000335
Si      37.22745659      35.03760690      37.22745929       0.00000785       0.00001842       0.00000495
C       38.32238179      36.13253212      38.32238456       0.00003927       0.00005106       0.00000084
Si      39.41730695      37.22745729      37.22745937      -0.00004480      -0.00006393      -0.00000038
C       40.51223214      38.32238250      38.32238464      -0.00000951      -0.00000031       0.00000291
Si       0.00000056      19.70865361      19.70865462       0.00000268      -0.00001523       0.00000647
C        1.09492575      20.80357882      20.80357990       0.00000585      -0.00000689       0.00000369
Si       2.18985091      21.89850399      19.70865470      -0.00000805       0.00000842      -0.00000273
C        3.28477611      22.99342920      20.80357997      -0.00000420      -0.00000155       0.00000082
Si       4.37970126      24.08835437      19.70865478      -0.00000552       0.00002278      -0.00000979
C        5.47462646      25.18327959      20.80358005      -0.00000781       0.00000657       0.00001524
Si       6.56955162      26.27820476      19.70865486       0.00000428       0.00002721      -0.00000014
C        7.66447681      27.37312997      20.80358013       0.00000125      -0.00003180       0.00001251
Si       8.75940197      28.46805514      19.70865493      -0.00000341      -0.00000373       0.00000282
C        9.85432717      29.56298036      20.80358021       0.00000226      -0.00000507       0.00001330
Si      10.94925233      30.65790553      19.70865501       0.00000056      -0.00000024       0.00000997
C       12.04417752      31.75283074      20.80358029       0.00002027      -0.00000029      -0.00003577
Si      13.13910268      32.84775591      19.70865509      -0.00000855      -0.00000442       0.00002896
C       14.23402788      33.94268112      20.80358037      -0.00001197       0.00000084      -0.00003095
Si      15.32895304      35.03760629      19.70865517       0.00001043       0.00002282       0.00000793
C       16.42387823      36.13253151      20.80358044       0.00000226       0.00000019      -0.00003621
Si      17.51880339      37.22745668      19.70865525       0.00000197       0.00002130       0.00001153
C       18.61372858      38.32238189      20.80358052      -0.00001557       0.00003745      -0.00004341
Si      19.70865374      39.41730706      19.70865533      -0.00000545      -0.00005135       0.00002965
C       20.80357894      40.51223228      20.80358060      -0.00000348       0.00000028      -0.00002558
Si       2.18985092      19.70865367      21.89850513       0.00002604      -0.00002265      -0.00002769
C        3.28477611      20.80357889      22.99343040       0.00000083      -0.00000457      -0.00002410
Si       4.37970127      21.89850406      21.89850521       0.00000541      -0.00000047       0.00001667
C        5.47462647      22.99342927      22.99343048      -0.00000389      -0.00000502      -0.00001891
Si       6.56955163      24.08835444      21.89850528       0.00000701      -0.00000075      -0.00002606
C        7.66447682      25.18327966      22.99343056      -0.00000221       0.00000428      -0.00000725
Si       8.75940198      26.27820483      21.89850536      -0.00000656       0.00002898      -0.00002828
C        9.85432718      27.37313004      22.99343064       0.00000604      -0.00002667      -0.00000390
Si      10.94925234      28.46805521      21.89850544       0.00000054      -0.00000564      -0.00002602
C       12.04417753      29.56298042      22.99343071       0.00001920      -0.00000773      -0.00000463
Si      13.13910269      30.65790560      21.89850552      -0.00000401      -0.00000330      -0.00001315
C       14.23402788      31.75283081      22.99343079       0.00000196      -0.00000184      -0.00000037
Si      15.32895304      32.84775598      21.89850560       0.00000365      -0.00000094      -0.00000427
C       16.42387824      33.94268119      22.99343087       0.00000218       0.00000161      -0.00000108
Si      17.51880340      35.03760636      21.89850568       0.00002526      -0.00000269      -0.00000783
C       18.61372859      36.13253158      22.99343095      -0.00002705       0.00001219       0.00000227
Si      19.70865375      37.22745675      21.89850575       0.00000617       0.00000019      -0.00000602
C       20.80357895      38.32238196      22.99343103      -0.00000779       0.00003634      -0.00000676
Si      21.89850411      39.41730713      21.89850583       0.00000072      -0.00004774       0.00000054
C       22.99342930      40.51223234      22.99343111       0.00000223       0.00000074      -0.00000445
Si       4.37970128      19.70865374      24.08835563      -0.00000255      -0.00001518       0.00000283
C        5.47462648      20.80357896      25.18328091      -0.00000491       0.00000492       0.00000273
Si       6.56955164      21.89850413      24.08835571       0.00000372      -0.00000637       0.00000252
C        7.66447683      22.99342934      25.18328099      -0.00000206       0.00000378      -0.00000142
Si       8.75940199      24.08835451      24.08835579      -0.00000271       0.00000024       0.00000544
C        9.85432719      25.18327973      25.18328106      -0.00000116       0.00000796      -0.00000133
Si      10.94925234      26.27820490      24.08835587       0.00000219       0.00002531       0.00000296
C       12.04417754      27.37313011      25.18328114      -0.00000788      -0.00001573      -0.00000769
Si      13.13910270      28.46805528      24.08835595      -0.00000622       0.00000101      -0.00000278
C       14.23402789      29.56298049      25.18328122       0.00000295      -0.00000164      -0.00000371
Si      15.32895305      30.65790566      24.08835602      -0.00000404      -0.00000147      -0.00000129
C       16.42387825      31.75283088      25.18328130       0.00000459       0.00000248      -0.00000270
Si      17.51880341      32.84775605      24.08835610       0.00002422      -0.00000120      -0.00000323
C       18.61372860      33.94268126      25.18328138      -0.00001869       0.00000230       0.00000725
Si      19.70865376      35.03760643      24.08835618      -0.00000263      -0.00000258      -0.00000667
C       20.80357896      36.13253165      25.18328146      -0.00000552       0.00001130       0.00001346
Si      21.89850412      37.22745682      24.08835626       0.00001018       0.00002701       0.00000340
C       22.99342931      38.32238203      25.18328153       0.00000925      -0.00006480      -0.00001058
Si      24.08835447      39.41730720      24.08835634       0.00000924      -0.00000732       0.00000064
C       25.18327966      40.51223241      25.18328161       0.00001156       0.00000498       0.00000420
Si       6.56955165      19.70865381      26.27820614       0.00000131      -0.00001250       0.00000605
C        7.66447684      20.80357903      27.37313141       0.00000155       0.00000057       0.00000460
Si       8.75940200      21.89850420      26.27820622      -0.00000209      -0.00000199      -0.00000068
C        9.85432719      22.99342941      27.37313149       0.00000439      -0.00000113       0.00001332
Si      10.94925235      24.08835458      26.27820630       0.00000919       0.00000344       0.00000527
C       12.04417755      25.18327980      27.37313157       0.00000054       0.00001178       0.00000925
Si      13.13910271      26.27820497      26.27820637       0.00000092      -0.00002396       0.00000280
C       14.23402790      27.37313018      27.37313165       0.00000345      -0.00000858       0.00001297
Si      15.32895306      28.46805535      26.27820645      -0.00000214      -0.00000186      -0.00000191
C       16.42387826      29.56298056      27.37313173       0.00000928      -0.00000495       0.00001129
Si      17.51880342      30.65790573      26.27820653       0.00003252       0.00000187       0.00001569
C       18.61372861      31.75283095      27.37313180      -0.00002403       0.00000115      -0.00002951
Si      19.70865377      32.84775612      26.27820661      -0.00000333      -0.00000122       0.00001874
C       20.80357896      33.94268133      27.37313188      -0.00000745       0.00001036      -0.00002378
Si      21.89850412      35.03760650      26.27820669      -0.00000558      -0.00000128       0.00001927
C       22.99342932      36.13253172      27.37313196       0.00000596       0.00000694      -0.00002611
Si      24.08835448      37.22745689      26.27820677       0.00000300       0.00004880       0.00001602
C       25.18327967      38.32238210      27.37313204       0.00001761      -0.00008172      -0.00003400
Si      26.27820483      39.41730727      26.27820684       0.00002769      -0.00000979      -0.00002623
C       27.37313003      40.51223248      27.37313212      -0.00001070       0.00000319      -0.00001752
Si       8.75940201      19.70865388      28.46805664      -0.00000700      -0.00000556       0.00001456
C        9.85432720      20.80357910      29.56298192       0.00000561      -0.00000720      -0.00001729
Si      10.94925236      21.89850427      28.46805672       0.00000653      -0.00000207      -0.00002572
C       12.04417756      22.99342948      29.56298200       0.00000008      -0.00000625      -0.00001101
Si      13.13910272      24.08835465      28.46805680       0.00000068       0.00000747      -0.00002836
C       14.23402791      25.18327987      29.56298208       0.00000479       0.00001732      -0.00000935
Si      15.32895307      26.27820504      28.46805688       0.00000092      -0.00003249      -0.00002996
C       16.42387827      27.37313025      29.56298215       0.00001098      -0.00000620      -0.00001248
Si      17.51880342      28.46805542      28.46805696       0.00003120      -0.00000309      -0.00002782
C       18.61372862      29.56298063      29.56298223      -0.00002239       0.00000068      -0.00000609
Si      19.70865378      30.65790580      28.46805704      -0.00000118      -0.00000241      -0.00000779
C       20.80357897      31.75283102      29.56298231      -0.00000596       0.00000335       0.00000049
Si      21.89850413      32.84775619      28.46805711      -0.00000331      -0.00000369      -0.00000522
C       22.99342933      33.94268140      29.56298239       0.00000981       0.00000490      -0.00000473
Si      24.08835449      35.03760657      28.46805719      -0.00000288      -0.00000366      -0.00000691
C       25.18327968      36.13253179      29.56298247       0.00000736       0.00000496      -0.00000326
Si      26.27820484      37.22745696      28.46805727       0.00002812       0.00004484      -0.00000752
C       27.37313004      38.32238217      29.56298255      -0.00000556      -0.00006689      -0.00001081
Si      28.46805520      39.41730734      28.46805735      -0.00000543      -0.00000662      -0.00000752
C       29.56298039      40.51223255      29.56298262       0.00000539       0.00000626      -0.00000930
Si      10.94925237      19.70865395      30.65790715       0.00000278      -0.00000504      -0.00000225
C       12.04417757      20.80357917      31.75283242       0.00000254      -0.00001554       0.00000457
Si      13.13910273      21.89850434      30.65790723       0.00000715       0.00000197       0.00000380
C       14.23402792      22.99342955      31.75283250       0.00000278      -0.00000408       0.00000784
Si      15.32895308      24.08835472      30.65790731       0.00000134      -0.00000288      -0.00000059
C       16.42387827      25.18327993      31.75283258       0.00001769       0.00001542       0.00000663
Si      17.51880343      26.27820511      30.65790739       0.00003258      -0.00003368       0.00000163
C       18.61372863      27.37313032      31.75283266      -0.00001793      -0.00000967       0.00000806
Si      19.70865379      28.46805549      30.65790746       0.00000259      -0.00000273      -0.00000084
C       20.80357898      29.56298070      31.75283274      -0.00000634      -0.00000216       0.00000986
Si      21.89850414      30.65790587      30.65790754       0.00000179      -0.00000111      -0.00000004
C       22.99342934      31.75283109      31.75283282       0.00000776      -0.00000814       0.00000624
Si      24.08835450      32.84775626      30.65790762       0.00000182      -0.00000776      -0.00000380
C       25.18327969      33.94268147      31.75283289       0.00001256       0.00000465       0.00000521
Si      26.27820485      35.03760664      30.65790770       0.00002823      -0.00000769       0.00000126
C       27.37313004      36.13253185      31.75283297      -0.00001868       0.00000453       0.00000646
Si      28.46805520      37.22745703      30.65790778       0.00000295       0.00003946      -0.00000455
C       29.56298040      38.32238224      31.75283305      -0.00000373      -0.00004378      -0.00000609
Si      30.65790556      39.41730741      30.65790786      -0.00000027       0.00000246      -0.00000546
C       31.75283075      40.51223262      31.75283313       0.00001585      -0.00001020       0.00000544
Si      13.13910273      19.70865402      32.84775766      -0.00000891      -0.00000155      -0.00002668
C       14.23402793      20.80357924      33.94268293       0.00001262      -0.00000844      -0.00001890
Si      15.32895309      21.89850441      32.84775773       0.00000215       0.00000074      -0.00002614
C       16.42387828      22.99342962      33.94268301       0.00000400      -0.00000234       0.00000192
Si      17.51880344      24.08835479      32.84775781       0.00003119       0.00001023      -0.00002710
C       18.61372864      25.18328000      33.94268309      -0.00001726      -0.00002478      -0.00001428
Si      19.70865380      26.27820517      32.84775789       0.00000585      -0.00002259      -0.00003679
C       20.80357899      27.37313039      33.94268317       0.00000125      -0.00000142      -0.00001475
Si      21.89850415      28.46805556      32.84775797       0.00000105      -0.00000461      -0.00002396
C       22.99342935      29.56298077      33.94268324       0.00000825      -0.00000420      -0.00001736
Si      24.08835450      30.65790594      32.84775805       0.00000647      -0.00000131      -0.00002415
C       25.18327970      31.75283116      33.94268332       0.00000026       0.00000107      -0.00000599
Si      26.27820486      32.84775633      32.84775813       0.00002757      -0.00000560      -0.00002375
C       27.37313005      33.94268154      33.94268340      -0.00002315       0.00001375      -0.00000474
Si      28.46805521      35.03760671      32.84775820       0.00000147      -0.00000206      -0.00002053
C       29.56298041      36.13253192      33.94268348      -0.00000335       0.00003827      -0.00000693
Si      30.65790557      37.22745709      32.84775828       0.00000119      -0.00005996      -0.00002835
C       31.75283076      38.32238231      33.94268356       0.00001511      -0.00002203      -0.00001100
Si      32.84775592      39.41730748      32.84775836       0.00000089       0.00000562      -0.00002391
C       33.94268112      40.51223269      33.94268364       0.00000878      -0.00000088      -0.00001269
Si      15.32895310      19.70865409      35.03760816      -0.00000508      -0.00000374       0.00000741
C       16.42387829      20.80357931      36.13253344       0.00000189      -0.00000212      -0.00000860
Si      17.51880345      21.89850448      35.03760824       0.00002456       0.00000203       0.00000268
C       18.61372865      22.99342969      36.13253351      -0.00002559       0.00000914       0.00000134
Si      19.70865381      24.08835486      35.03760832       0.00000065       0.00001862       0.00000610
C       20.80357900      25.18328007      36.13253359      -0.00000843      -0.00001575      -0.00000383
Si      21.89850416      26.27820524      35.03760840      -0.00000161      -0.00000547       0.00001118
C       22.99342935      27.37313046      36.13253367       0.00000408       0.00000146      -0.00001124
Si      24.08835451      28.46805563      35.03760848       0.00000023      -0.00000491       0.00000747
C       25.18327971      29.56298084      36.13253375       0.00000019       0.00000346      -0.00000504
Si      26.27820487      30.65790601      35.03760855       0.00002275      -0.00000130       0.00000275
C       27.37313006      31.75283123      36.13253383      -0.00001805       0.00000569      -0.00000416
Si      28.46805522      32.84775640      35.03760863      -0.00000227      -0.00000603       0.00000239
C       29.56298042      33.94268161      36.13253391      -0.00001316       0.00001209      -0.00000060
Si      30.65790558      35.03760678      35.03760871       0.00000440       0.00000484       0.00000196
C       31.75283077      36.13253199      36.13253398       0.00000837       0.00003144      -0.00001421
Si      32.84775593      37.22745716      35.03760879       0.00000546      -0.00006095      -0.00000170
C       33.94268112      38.32238238      36.13253406       0.00001094      -0.00001892      -0.00001410
Si      35.03760628      39.41730755      35.03760887       0.00000161       0.00000338       0.00000540
C       36.13253148      40.51223276      36.13253414       0.00000779       0.00000004      -0.00000770
Si      17.51880346      19.70865416      37.22745867       0.00002143       0.00000151       0.00000213
C       18.61372866      20.80357938      38.32238394      -0.00003579      -0.00000136       0.00001121
Si      19.70865381      21.89850455      37.22745875      -0.00000382       0.00000777       0.00000224
C       20.80357901      22.99342976      38.32238402      -0.00001542       0.00001274       0.00000452
Si      21.89850417      24.08835493      37.22745882      -0.00000507       0.00002485       0.00000526
C       22.99342936      25.18328014      38.32238410       0.00000536      -0.00002398      -0.00000124
Si      24.08835452      26.27820531      37.22745890      -0.00000408      -0.00000275       0.00000463
C       25.18327972      27.37313053      38.32238418       0.00000034       0.00000501      -0.00000361
Si      26.27820488      28.46805570      37.22745898       0.00002172      -0.00000172       0.00000202
C       27.37313007      29.56298091      38.32238426      -0.00001746       0.00000298       0.00000169
Si      28.46805523      30.65790608      37.22745906      -0.00000469      -0.00000154       0.00000039
C       29.56298043      31.75283130      38.32238433      -0.00000991       0.00000867       0.00000399
Si      30.65790559      32.84775647      37.22745914      -0.00000224       0.00000030       0.00000321
C       31.75283078      33.94268168      38.32238441       0.00000198       0.00000581       0.00000171
Si      32.84775594      35.03760685      37.22745922       0.00000670       0.00000587      -0.00000295
C       33.94268113      36.13253206      38.32238449       0.00000256       0.00002795      -0.00000901
Si      35.03760629      37.22745723      37.22745929       0.00000801      -0.00005501       0.00000332
C       36.13253149      38.32238245      38.32238457      -0.00000135      -0.00000053      -0.00000556
Si      37.22745665      39.41730762      37.22745937       0.00000126      -0.00000416       0.00000698
C       38.32238184      40.51223283      38.32238465       0.00003239      -0.00000572       0.00000656
Si      19.70865382      19.70865423      39.41730917      -0.00000034       0.00000907      -0.00000446
C       20.80357902      20.80357944      40.51223445      -0.00001662       0.00000185       0.00001238
Si      21.89850418      21.89850462      39.41730925       0.00000035       0.00000872       0.00000665
C       22.99342937      22.99342983      40.51223453       0.00000579       0.00000011       0.00000777
Si      24.08835453      24.08835500      39.41730933      -0.00000261       0.00002566       0.00000182
C       25.18327973      25.18328021      40.51223460       0.00000967      -0.00002714       0.00000825
Si      26.27820489      26.27820538      39.41730941       0.00002305      -0.00000528      -0.00000093
C       27.37313008      27.37313060      40.51223468      -0.00001313      -0.00000927       0.00000942
Si      28.46805524      28.46805577      39.41730949      -0.00000550      -0.00000073       0.00000245
C       29.56298043      29.56298098      40.51223476      -0.00000628       0.00000943       0.00000358
Si      30.65790559      30.65790615      39.41730957      -0.00000371       0.00000005       0.00000357
C       31.75283079      31.75283136      40.51223484       0.00000662       0.00000362       0.00000221
Si      32.84775595      32.84775654      39.41730964      -0.00000267      -0.00000226      -0.00000276
C       33.94268114      33.94268175      40.51223492       0.00001038       0.00000296       0.00000895
Si      35.03760630      35.03760692      39.41730972       0.00001544       0.00002955       0.00000111
C       36.13253150      36.13253213      40.51223500       0.00000123      -0.00004688       0.00000987
Si      37.22745666      37.22745730      39.41730980       0.00001773      -0.00003685      -0.00001655
C       38.32238185      38.32238252      40.51223507       0.00004601      -0.00001109       0.00000804
Si      39.41730701      39.41730769      39.41730988      -0.00004806      -0.00000483       0.00000115
C       40.51223221      40.51223290      40.51223515      -0.00002265       0.00000585       0.00001694
