250
Lattice="3.61097467832852e-07 10.949251918132346 10.949251777557585 10.949252114960482 3.6014985149406785e-07 10.9492517785052 10.949252293886445 10.949252098005925 1.81223889799278e-07" Properties=species:S:1:pos:R:3:forces:R:3 energy=-1882.07861328125 stress="-1.8608908334641493e-05 -0.00017265529740487882 2.797096063941749e-08 -0.00017265529740487882 -1.8593947490466778e-05 -2.2067998728945922e-08 2.797096063941749e-08 -2.2067998728945922e-08 1.576953811076742e-06" free_energy=-1882.07861328125 pbc="T T T"
Si       0.00000000       0.00000000       0.00000000      -0.06738673      -0.06738344      -0.16462290
C        1.09492524       1.09492522       1.09492519      -0.00105584      -0.00105769       0.72501594
Si       2.18985046       2.18985042       0.00000004       0.06986175       0.06986821      -0.16489126
C        3.28477570       3.28477564       1.09492522      -0.01532237      -0.01532509       0.01484587
Si       4.37970092       4.37970084       0.00000007      -0.00160068      -0.00159752      -0.00343893
C        5.47462616       5.47462606       1.09492526       0.00217138       0.00216546      -0.00388684
Si       6.56955138       6.56955126       0.00000011      -0.00076428      -0.00075962       0.01097742
C        7.66447661       7.66447648       1.09492530       0.00041129       0.00039975      -0.00380346
Si       8.75940184       8.75940168       0.00000014      -0.00010704      -0.00009098       0.00783582
C        9.85432707       9.85432690       1.09492533       0.01379429       0.01378504       0.01063794
Si       2.18985042       0.00000007       2.18985036      -0.05821731       0.05922838      -0.15615702
C        3.28477566       1.09492529       3.28477554      -0.02694623       0.01635537      -0.01959031
Si       4.37970088       2.18985049       2.18985039       0.00856055       0.00408705      -0.00738291
C        5.47462612       3.28477571       3.28477558      -0.00329449      -0.00084467      -0.00026980
Si       6.56955134       4.37970091       2.18985043       0.00109802      -0.00076444       0.00145986
C        7.66447658       5.47462613       3.28477562      -0.00017638       0.00126682      -0.00255757
Si       8.75940180       6.56955133       2.18985046       0.00001674      -0.00215036       0.00282833
C        9.85432704       7.66447655       3.28477565       0.00153416       0.00361680      -0.00124320
Si      10.94925226       8.75940175       2.18985050      -0.00324821      -0.00867013      -0.00500157
C       12.04417750       9.85432697       3.28477569      -0.01712304       0.02567269      -0.02024196
Si       4.37970085       0.00000014       4.37970071       0.00965086      -0.01319049       0.00563085
C        5.47462608       1.09492536       5.47462590      -0.00742976       0.00403485      -0.00227444
Si       6.56955130       2.18985056       4.37970075       0.00344081      -0.00209989       0.00072084
C        7.66447654       3.28477578       5.47462593      -0.00171930       0.00140791      -0.00143121
Si       8.75940176       4.37970098       4.37970078       0.00068741      -0.00147683       0.00163520
C        9.85432700       5.47462620       5.47462597      -0.00059521       0.00216061      -0.00219717
Si      10.94925222       6.56955140       4.37970082       0.00054844      -0.00315239       0.00164180
C       12.04417746       7.66447662       5.47462601      -0.00155824       0.00455883      -0.00345157
Si      13.13910268       8.75940182       4.37970086       0.01343499      -0.00786396       0.00604241
C       14.23402792       9.85432704       5.47462604      -0.00714951       0.00631145      -0.00380521
Si       6.56955127       0.00000022       6.56955107       0.00824758      -0.00866504      -0.00580983
C        7.66447651       1.09492543       7.66447625      -0.00476918      -0.00033032       0.00309633
Si       8.75940173       2.18985064       6.56955110       0.00269878      -0.00097336       0.00129821
C        9.85432697       3.28477585       7.66447629      -0.00273970       0.00256533      -0.00443425
Si      10.94925219       4.37970106       6.56955114       0.00031412      -0.00227305       0.00293148
C       12.04417743       5.47462627       7.66447633       0.00045189       0.00487782      -0.00280743
Si      13.13910265       6.56955147       6.56955118       0.00103195      -0.00358410       0.00074445
C       14.23402788       7.66447669       7.66447636      -0.00018279       0.00181546       0.00521062
Si      15.32895310       8.75940189       6.56955121       0.01056786      -0.00735641      -0.00579841
C       16.42387834       9.85432711       7.66447640      -0.01675508       0.01506720       0.01470564
Si       8.75940169       0.00000029       8.75940142       0.01236292       0.01943269      -0.00218831
C        9.85432693       1.09492551       9.85432661      -0.02977120      -0.01954075      -0.01779318
Si      10.94925215       2.18985071       8.75940146       0.00205106       0.00006204       0.01077134
C       12.04417739       3.28477593       9.85432665       0.01613623       0.02698526      -0.01912039
Si      13.13910261       4.37970113       8.75940150      -0.01188778      -0.00834414       0.00428812
C       14.23402785       5.47462635       9.85432668       0.00629500       0.00530638       0.00283141
Si      15.32895307       6.56955155       8.75940153      -0.00908900      -0.00655365      -0.00677420
C       16.42387831       7.66447677       9.85432672       0.02568477      -0.01506699      -0.01848344
Si      17.51880353       8.75940197       8.75940157       0.06065260      -0.05869766      -0.15552774
C       18.61372877       9.85432719       9.85432675       0.01266474      -0.02869539      -0.01717398
Si       0.00000007       2.18985038       2.18985036       0.05922649      -0.05822015      -0.15615626
C        1.09492531       3.28477560       3.28477554       0.01635304      -0.02694429      -0.01959247
Si       2.18985053       4.37970080       2.18985039       0.00408754       0.00856029      -0.00738324
C        3.28477577       5.47462602       3.28477558      -0.00084113      -0.00330387      -0.00026656
Si       4.37970099       6.56955122       2.18985043      -0.00076666       0.00110596       0.00146013
C        5.47462623       7.66447644       3.28477561       0.00126796      -0.00018685      -0.00256050
Si       6.56955145       8.75940164       2.18985046      -0.00214874       0.00004125       0.00283135
C        7.66447669       9.85432686       3.28477565       0.00360063       0.00151568      -0.00123650
Si       8.75940191      10.94925206       2.18985050      -0.00865160      -0.00323519      -0.00501691
C        9.85432715      12.04417728       3.28477569       0.02567439      -0.01712562      -0.02024230
Si       2.18985050       2.18985046       4.37970071       0.00075459       0.00074940       0.01093766
C        3.28477573       3.28477567       5.47462590      -0.00244295      -0.00245029      -0.00514546
Si       4.37970095       4.37970088       4.37970075       0.00218525       0.00219414       0.00034690
C        5.47462619       5.47462609       5.47462593      -0.00069348      -0.00069407      -0.00153868
Si       6.56955141       6.56955129       4.37970078      -0.00016587      -0.00017185       0.00130454
C        7.66447665       7.66447651       5.47462597       0.00102669       0.00102804      -0.00195800
Si       8.75940187       8.75940171       4.37970082      -0.00229688      -0.00227963       0.00157425
C        9.85432711       9.85432693       5.47462601       0.00222800       0.00221768      -0.00573832
Si      10.94925233      10.94925213       4.37970086      -0.00047897      -0.00048626       0.01160098
C       12.04417757      12.04417735       5.47462604      -0.00012831      -0.00010267      -0.00506267
Si       4.37970092       2.18985053       6.56955107       0.00297972      -0.00108513       0.00146179
C        5.47462616       3.28477575       7.66447625      -0.00193392      -0.00017117      -0.00070711
Si       6.56955138       4.37970095       6.56955110       0.00144147      -0.00032107       0.00030324
C        7.66447662       5.47462617       7.66447629      -0.00102758       0.00103962      -0.00095374
Si       8.75940184       6.56955137       6.56955114       0.00017791      -0.00120211       0.00090401
C        9.85432707       7.66447659       7.66447633       0.00023257       0.00182042      -0.00160078
Si      10.94925229       8.75940179       6.56955118       0.00042284      -0.00228334       0.00267010
C       12.04417753       9.85432701       7.66447636      -0.00014675       0.00125375      -0.00167510
Si      13.13910275      10.94925221       6.56955121       0.00211614      -0.00225323       0.00283004
C       14.23402799      12.04417742       7.66447640      -0.00154339       0.00048897      -0.00133536
Si       6.56955134       2.18985060       8.75940142       0.00354437       0.00030219      -0.00137016
C        7.66447658       3.28477582       9.85432661      -0.00348986       0.00164300       0.00167540
Si       8.75940180       4.37970102       8.75940146       0.00291680      -0.00218864      -0.00038334
C        9.85432704       5.47462624       9.85432665      -0.00244601       0.00328525       0.00091224
Si      10.94925226       6.56955144       8.75940150       0.00040323      -0.00318573       0.00001831
C       12.04417750       7.66447666       9.85432668       0.00124951       0.00102832       0.00050005
Si      13.13910272       8.75940186       8.75940153      -0.00060341      -0.00201500      -0.00046402
C       14.23402796       9.85432708       9.85432672       0.00220947      -0.00235072       0.00089118
Si      15.32895318      10.94925228       8.75940157       0.00197545      -0.00118114      -0.00180341
C       16.42387841      12.04417750       9.85432675       0.00155200      -0.00264687       0.00163348
Si       8.75940176       2.18985067      10.94925178       0.00937747      -0.00272433      -0.00794835
C        9.85432700       3.28477589      12.04417697      -0.01469968       0.01311694       0.01469102
Si      10.94925222       4.37970109      10.94925181       0.00519586      -0.00841426      -0.00795048
C       12.04417746       5.47462631      12.04417700       0.00183363      -0.00020529       0.00521027
Si      13.13910268       6.56955151      10.94925185      -0.00193136      -0.00171538      -0.00140361
C       14.23402792       7.66447673      12.04417704       0.00455719      -0.00047738      -0.00270563
Si      15.32895314       8.75940193      10.94925189      -0.00675131       0.01029687       0.00553329
C       16.42387838       9.85432715      12.04417707       0.00361245      -0.00342967      -0.00423789
Si      17.51880360      10.94925235      10.94925192      -0.00967018       0.00634591       0.00392163
C       18.61372884      12.04417757      12.04417711       0.00035090      -0.00467711       0.00320316
Si       0.00000014       4.37970077       4.37970071      -0.01318655       0.00964506       0.00562995
C        1.09492538       5.47462599       5.47462590       0.00403598      -0.00743859      -0.00227536
Si       2.18985060       6.56955119       4.37970075      -0.00209619       0.00345050       0.00072614
C        3.28477584       7.66447641       5.47462593       0.00141222      -0.00172718      -0.00143461
Si       4.37970106       8.75940161       4.37970078      -0.00148683       0.00070844       0.00163854
C        5.47462630       9.85432683       5.47462597       0.00216765      -0.00060538      -0.00219549
Si       6.56955152      10.94925203       4.37970082      -0.00315518       0.00054009       0.00164047
C        7.66447676      12.04417724       5.47462601       0.00455359      -0.00156322      -0.00344502
Si       8.75940198      13.13910245       4.37970086      -0.00785544       0.01345756       0.00603659
C        9.85432722      14.23402766       5.47462604       0.00630487      -0.00715256      -0.00380222
Si       2.18985057       4.37970084       6.56955107      -0.00108032       0.00299309       0.00146014
C        3.28477581       5.47462606       7.66447625      -0.00016831      -0.00194042      -0.00070937
Si       4.37970103       6.56955126       6.56955110      -0.00032457       0.00143847       0.00030172
C        5.47462626       7.66447648       7.66447629       0.00104186      -0.00103758      -0.00095416
Si       6.56955148       8.75940168       6.56955114      -0.00119404       0.00020303       0.00090208
C        7.66447672       9.85432690       7.66447633       0.00181930       0.00021982      -0.00160306
Si       8.75940194      10.94925210       6.56955118      -0.00230404       0.00040698       0.00267128
C        9.85432718      12.04417732       7.66447636       0.00126401      -0.00011609      -0.00167314
Si      10.94925240      13.13910252       6.56955121      -0.00224236       0.00210105       0.00282857
C       12.04417764      14.23402774       7.66447640       0.00046195      -0.00154507      -0.00133632
Si       4.37970099       4.37970091       8.75940142       0.00065279       0.00065313       0.00024960
C        5.47462623       5.47462613       9.85432661      -0.00044247      -0.00044568      -0.00042988
Si       6.56955145       6.56955133       8.75940146       0.00018100       0.00017654      -0.00003254
C        7.66447669       7.66447655       9.85432665       0.00011045       0.00011510      -0.00084668
Si       8.75940191       8.75940175       8.75940149      -0.00045314      -0.00043442       0.00062424
C        9.85432715       9.85432697       9.85432668       0.00066727       0.00065815      -0.00102918
Si      10.94925237      10.94925217       8.75940153      -0.00054248      -0.00055290       0.00146749
C       12.04417761      12.04417739       9.85432672       0.00023114       0.00026267      -0.00086095
Si      13.13910283      13.13910259       8.75940157       0.00016670       0.00015200       0.00138994
C       14.23402806      14.23402781       9.85432675      -0.00057695      -0.00057623      -0.00046606
Si       6.56955141       4.37970098      10.94925178       0.00139430       0.00008400      -0.00029271
C        7.66447665       5.47462620      12.04417696      -0.00046152      -0.00073990      -0.00137052
Si       8.75940187       6.56955140      10.94925181       0.00094915      -0.00082171       0.00003276
C        9.85432711       7.66447662      12.04417700       0.00103222       0.00011683      -0.00170783
Si      10.94925233       8.75940182      10.94925185      -0.00076307      -0.00072896       0.00092764
C       12.04417757       9.85432704      12.04417704       0.00181203       0.00011124      -0.00161880
Si      13.13910279      10.94925224      10.94925189      -0.00123995       0.00034435       0.00148470
C       14.23402803      12.04417746      12.04417707       0.00102306      -0.00101072      -0.00094880
Si      15.32895325      13.13910266      10.94925192      -0.00021331       0.00097395       0.00089399
C       16.42387849      14.23402788      12.04417711      -0.00015814      -0.00170608      -0.00071949
Si       8.75940184       4.37970106      13.13910213       0.00084629       0.00111130      -0.00000587
C        9.85432707       5.47462627      14.23402732       0.00530227      -0.00516306      -0.00400039
Si      10.94925230       6.56955147      13.13910217      -0.00106704       0.00094006       0.00134179
C       12.04417753       7.66447669      14.23402736       0.00487442      -0.00075522      -0.00353095
Si      13.13910275       8.75940189      13.13910221      -0.00236691       0.00029731       0.00217312
C       14.23402799       9.85432711      14.23402739       0.00216481      -0.00045943      -0.00218929
Si      15.32895321      10.94925231      13.13910224      -0.00219781       0.00146122       0.00218190
C       16.42387845      12.04417753      14.23402743       0.00128345      -0.00194733      -0.00143549
Si      17.51880367      13.13910273      13.13910228      -0.00102618       0.00198678       0.00078990
C       18.61372891      14.23402795      14.23402747       0.00215426      -0.00744995      -0.00239822
Si       0.00000022       6.56955115       6.56955107      -0.00866554       0.00825971      -0.00580510
C        1.09492546       7.66447637       7.66447625      -0.00033185      -0.00477633       0.00309640
Si       2.18985068       8.75940157       6.56955110      -0.00096888       0.00270152       0.00129912
C        3.28477591       9.85432679       7.66447629       0.00256822      -0.00274521      -0.00442788
Si       4.37970113      10.94925199       6.56955114      -0.00227024       0.00030786       0.00292760
C        5.47462637      12.04417721       7.66447633       0.00488379       0.00045356      -0.00280976
Si       6.56955159      13.13910241       6.56955118      -0.00362237       0.00102311       0.00074368
C        7.66447683      14.23402763       7.66447636       0.00183070      -0.00018056       0.00520850
Si       8.75940205      15.32895283       6.56955121      -0.00734474       0.01056474      -0.00580325
C        9.85432729      16.42387805       7.66447640       0.01506558      -0.01676787       0.01470439
Si       2.18985064       6.56955122       8.75940142       0.00030651       0.00356359      -0.00136935
C        3.28477588       7.66447644       9.85432661       0.00163324      -0.00348908       0.00167736
Si       4.37970110       8.75940164       8.75940146      -0.00218367       0.00294341      -0.00038497
C        5.47462634       9.85432686       9.85432665       0.00327814      -0.00245635       0.00091195
Si       6.56955156      10.94925206       8.75940149      -0.00318354       0.00039585       0.00001271
C        7.66447680      12.04417728       9.85432668       0.00103071       0.00125181       0.00050165
Si       8.75940202      13.13910248       8.75940153      -0.00201119      -0.00061322      -0.00046297
C        9.85432725      14.23402770       9.85432672      -0.00234490       0.00220892       0.00088967
Si      10.94925247      15.32895290       8.75940157      -0.00117000       0.00197391      -0.00180584
C       12.04417771      16.42387812       9.85432675      -0.00266172       0.00153171       0.00162797
Si       4.37970106       6.56955129      10.94925178       0.00007885       0.00138986      -0.00029044
C        5.47462630       7.66447651      12.04417696      -0.00073533      -0.00045601      -0.00137096
Si       6.56955152       8.75940171      10.94925181      -0.00081245       0.00096785       0.00003453
C        7.66447676       9.85432693      12.04417700       0.00010567       0.00101173      -0.00170838
Si       8.75940198      10.94925213      10.94925185      -0.00073085      -0.00077021       0.00092473
C        9.85432722      12.04417735      12.04417704       0.00011989       0.00184049      -0.00161882
Si      10.94925244      13.13910255      10.94925189       0.00035501      -0.00125665       0.00148256
C       12.04417768      14.23402777      12.04417707      -0.00103768       0.00102411      -0.00095090
Si      13.13910290      15.32895297      10.94925192       0.00099055      -0.00021266       0.00089214
C       14.23402814      16.42387819      12.04417711      -0.00169402      -0.00017515      -0.00071819
Si       6.56955149       6.56955137      13.13910213       0.00109542       0.00108987       0.00425649
C        7.66447672       7.66447659      14.23402732      -0.00025248      -0.00024258      -0.00507378
Si       8.75940194       8.75940179      13.13910217      -0.00070992      -0.00069135       0.00433473
C        9.85432718       9.85432701      14.23402736       0.00328288       0.00327471      -0.00591268
Si      10.94925240      10.94925221      13.13910221      -0.00174014      -0.00174897       0.00282971
C       12.04417764      12.04417742      14.23402739       0.00102848       0.00105002      -0.00197026
Si      13.13910286      13.13910263      13.13910224      -0.00017883      -0.00019432       0.00181860
C       14.23402810      14.23402784      14.23402743      -0.00070019      -0.00070532      -0.00155395
Si      15.32895332      15.32895305      13.13910228       0.00152136       0.00154089       0.00245210
C       16.42387856      16.42387826      14.23402747      -0.00334308      -0.00337013      -0.00534388
Si       8.75940191       6.56955144      15.32895249      -0.00145084       0.00235341       0.01354274
C        9.85432715       7.66447666      16.42387768       0.02698298       0.01416952      -0.02088656
Si      10.94925237       8.75940186      15.32895253      -0.00680171      -0.00967855       0.00708962
C       12.04417761       9.85432708      16.42387771       0.00258774       0.00160790      -0.00123693
Si      13.13910283      10.94925228      15.32895256      -0.00161609      -0.00038113       0.00284221
C       14.23402806      12.04417750      16.42387775       0.00140019      -0.00018426      -0.00257216
Si      15.32895328      13.13910270      15.32895260      -0.00067586       0.00102741       0.00252429
C       16.42387852      14.23402792      16.42387778      -0.00090561      -0.00252718      -0.00026142
Si      17.51880374      15.32895312      15.32895263       0.00943672       0.00774909       0.00706351
C       18.61372898      16.42387834      16.42387782      -0.01497610      -0.02812769      -0.02022012
Si       0.00000029       8.75940153       8.75940142       0.01942575       0.01235202      -0.00218496
C        1.09492553       9.85432675       9.85432661      -0.01954464      -0.02977209      -0.01779327
Si       2.18985075      10.94925195       8.75940146       0.00007159       0.00204172       0.01077416
C        3.28477599      12.04417717       9.85432665       0.02698093       0.01612867      -0.01911799
Si       4.37970121      13.13910237       8.75940149      -0.00833432      -0.01186731       0.00428566
C        5.47462644      14.23402759       9.85432668       0.00531575       0.00629043       0.00282242
Si       6.56955167      15.32895279       8.75940153      -0.00658743      -0.00908988      -0.00675783
C        7.66447690      16.42387801       9.85432672      -0.01506778       0.02567029      -0.01848053
Si       8.75940212      17.51880321       8.75940157      -0.05869327       0.06068810      -0.15554321
C        9.85432736      18.61372843       9.85432675      -0.02868452       0.01267868      -0.01717867
Si       2.18985071       8.75940161      10.94925178      -0.00273688       0.00933640      -0.00794360
C        3.28477595       9.85432683      12.04417696       0.01312593      -0.01469967       0.01469579
Si       4.37970117      10.94925203      10.94925181      -0.00841026       0.00518987      -0.00794872
C        5.47462641      12.04417724      12.04417700      -0.00020292       0.00183008       0.00521212
Si       6.56955163      13.13910245      10.94925185      -0.00171628      -0.00191189      -0.00140277
C        7.66447687      14.23402766      12.04417704      -0.00047407       0.00454815      -0.00270805
Si       8.75940209      15.32895287      10.94925189       0.01029165      -0.00675223       0.00553953
C        9.85432733      16.42387808      12.04417707      -0.00342993       0.00359345      -0.00423711
Si      10.94925255      17.51880328      10.94925192       0.00635497      -0.00964501       0.00392262
C       12.04417779      18.61372850      12.04417711      -0.00466780       0.00038069       0.00319060
Si       4.37970113       8.75940168      13.13910213       0.00111388       0.00086631      -0.00000516
C        5.47462637       9.85432690      14.23402732      -0.00516699       0.00529771      -0.00400170
Si       6.56955159      10.94925210      13.13910217       0.00094093      -0.00107850       0.00133479
C        7.66447683      12.04417732      14.23402736      -0.00075139       0.00490080      -0.00352683
Si       8.75940205      13.13910252      13.13910221       0.00029229      -0.00237756       0.00217142
C        9.85432729      14.23402774      14.23402739      -0.00045406       0.00215826      -0.00219260
Si      10.94925251      15.32895294      13.13910224       0.00146765      -0.00219728       0.00218251
C       12.04417775      16.42387816      14.23402743      -0.00195552       0.00126254      -0.00143029
Si      13.13910297      17.51880336      13.13910228       0.00199439      -0.00099179       0.00079345
C       14.23402821      18.61372858      14.23402747      -0.00744703       0.00212613      -0.00239933
Si       6.56955156       8.75940175      15.32895249       0.00233075      -0.00146402       0.01354909
C        7.66447680       9.85432697      16.42387768       0.01417451       0.02698452      -0.02088778
Si       8.75940202      10.94925217      15.32895253      -0.00968022      -0.00681254       0.00709177
C        9.85432726      12.04417739      16.42387771       0.00160844       0.00261119      -0.00123891
Si      10.94925248      13.13910259      15.32895256      -0.00036986      -0.00163016       0.00284310
C       12.04417771      14.23402781      16.42387775      -0.00020955       0.00139753      -0.00257125
Si      13.13910293      15.32895301      15.32895260       0.00103987      -0.00065595       0.00252223
C       14.23402817      16.42387823      16.42387778      -0.00251945      -0.00093740      -0.00026102
Si      15.32895339      17.51880343      15.32895263       0.00773257       0.00948088       0.00706928
C       16.42387863      18.61372865      16.42387782      -0.02809886      -0.01499511      -0.02022227
Si       8.75940198       8.75940182      17.51880284       0.07179603       0.07179430      -0.16201097
C        9.85432722       9.85432704      18.61372803      -0.01996881      -0.01997204       0.01048750
Si      10.94925244      10.94925224      17.51880288       0.00196194       0.00195061       0.00104933
C       12.04417768      12.04417746      18.61372807      -0.00041044      -0.00038610      -0.00380988
Si      13.13910290      13.13910266      17.51880292      -0.00109296      -0.00110574       0.00421440
C       14.23402814      14.23402788      18.61372810       0.00402255       0.00401560      -0.00405703
Si      15.32895336      15.32895308      17.51880295      -0.00280969      -0.00279048      -0.00084486
C       16.42387860      16.42387830      18.61372814       0.01742158       0.01739971       0.01486013
Si      17.51880382      17.51880350      17.51880299      -0.06987596      -0.06982445      -0.16302872
C       18.61372905      18.61372872      18.61372818      -0.00104656      -0.00106501       0.72499210
