432
Lattice="0.0 17.262317519780034 17.262317519780034 17.262317519780034 0.0 17.262317519780034 17.262317519780034 17.262317519780034 0.0" Properties=species:S:1:pos:R:3:forces:R:3 energy=-1782.001953125 stress="-6.012875246597105e-07 -3.463281609583646e-05 1.8111206372850575e-05 -3.463281609583646e-05 -5.752505239797756e-05 -1.7217700587934814e-05 1.8111206372850575e-05 -1.7217700587934814e-05 9.386582860315684e-06" free_energy=-1782.001953125 pbc="T T T"
Ga      -0.00001228      -0.00001706       0.00002268      -0.07839777      -0.07843834      -0.11052878
As       1.43853874       1.43854352       1.43850378       0.00006891       0.00021924       0.49746069
Ga       2.87704064       2.87703586       0.00002268       0.07872570       0.07865260      -0.11057772
As       4.31559166       4.31559644       1.43850378      -0.00976325      -0.00973177       0.00724281
Ga       5.75409356       5.75408878       0.00002268       0.00256495       0.00257059      -0.00626470
As       7.19264458       7.19264936       1.43850378      -0.00158877      -0.00159091       0.00093615
Ga       8.63114648       8.63114170       0.00002268       0.00029133       0.00029747      -0.00094003
As      10.06969750      10.06970228       1.43850378      -0.00009566      -0.00010631      -0.00028556
Ga      11.50819940      11.50819462       0.00002268      -0.00037661      -0.00033097       0.00154429
As      12.94675042      12.94675520       1.43850378       0.00158149       0.00157571      -0.00040455
Ga      14.38525232      14.38524754       0.00002268      -0.00279572      -0.00279639      -0.00358926
As      15.82380334      15.82380812       1.43850378       0.00977171       0.00982278       0.00677395
Ga       2.87704064      -0.00001706       2.87707560      -0.06833489       0.06861231      -0.10523060
As       4.31559166       1.43854352       4.31555670      -0.01202115       0.00958983      -0.00992406
Ga       5.75409356       2.87703586       2.87707560       0.00231539      -0.00109245      -0.00082471
As       7.19264458       4.31559644       4.31555670      -0.00121112      -0.00023054      -0.00010072
Ga       8.63114648       5.75408878       2.87707560       0.00055100      -0.00024855      -0.00042960
As      10.06969750       7.19264936       4.31555670      -0.00024369       0.00005274      -0.00023553
Ga      11.50819940       8.63114170       2.87707560      -0.00014838       0.00017175       0.00023328
As      12.94675042      10.06970228       4.31555670       0.00011583       0.00033633      -0.00006956
Ga      14.38525232      11.50819462       2.87707560      -0.00005626      -0.00057960       0.00001598
As      15.82380334      12.94675520       4.31555670       0.00033084       0.00119458      -0.00011018
Ga      17.26230524      14.38524754       2.87707560       0.00078626      -0.00205895      -0.00027149
As      18.70085626      15.82380812       4.31555670      -0.00970538       0.01183796      -0.01015696
Ga       5.75409356      -0.00001706       5.75412852       0.00255017      -0.00712789       0.00217103
As       7.19264458       1.43854352       7.19260962      -0.00212579       0.00153679      -0.00189347
Ga       8.63114648       2.87703586       5.75412852       0.00108666      -0.00006652      -0.00033088
As      10.06969750       4.31559644       7.19260962      -0.00050131       0.00036493      -0.00014369
Ga      11.50819940       5.75408878       5.75412852       0.00030830      -0.00034746       0.00017261
As      12.94675042       7.19264936       7.19260962      -0.00012889       0.00029277      -0.00035641
Ga      14.38525232       8.63114170       5.75412852       0.00006855      -0.00042262       0.00030988
As      15.82380334      10.06970228       7.19260962      -0.00002976       0.00051382      -0.00030618
Ga      17.26230524      11.50819462       5.75412852       0.00003102      -0.00104735      -0.00003002
As      18.70085626      12.94675520       7.19260962      -0.00174070       0.00213657      -0.00204311
Ga      20.13935816      14.38524754       5.75412852       0.00739078      -0.00239985       0.00233265
As      21.57790918      15.82380812       7.19260962      -0.00160671       0.00125514      -0.00064205
Ga       8.63114648      -0.00001706       8.63118144       0.00132531      -0.00141503       0.00101984
As      10.06969750       1.43854352      10.06966254      -0.00145145       0.00116364      -0.00072093
Ga      11.50819940       2.87703586       8.63118144       0.00055931      -0.00094896      -0.00020482
As      12.94675042       4.31559644      10.06966254      -0.00012586       0.00009676      -0.00023995
Ga      14.38525232       5.75408878       8.63118144       0.00021259      -0.00027025       0.00034879
As      15.82380334       7.19264936      10.06966254      -0.00007902       0.00020827      -0.00034128
Ga      17.26230524       8.63114170       8.63118144       0.00010438      -0.00048417       0.00038947
As      18.70085626      10.06970228      10.06966254      -0.00007108       0.00103808      -0.00085255
Ga      20.13935816      11.50819462       8.63118144       0.00141942      -0.00126829       0.00092551
As      21.57790918      12.94675520      10.06966254      -0.00033194       0.00039270      -0.00023252
Ga      23.01641108      14.38524754       8.63118144       0.00187900      -0.00109047       0.00001051
As      24.45496210      15.82380812      10.06966254      -0.00159541       0.00073344      -0.00020287
Ga      11.50819940      -0.00001706      11.50823436       0.00026473      -0.00096701      -0.00007009
As      12.94675042       1.43854352      12.94671546      -0.00221012      -0.00156577      -0.00165331
Ga      14.38525232       2.87703586      11.50823436      -0.00001904      -0.00028727       0.00045170
As      15.82380334       4.31559644      12.94671546       0.00007383      -0.00009368      -0.00037104
Ga      17.26230524       5.75408878      11.50823436       0.00040534       0.00024130       0.00051194
As      18.70085626       7.19264936      12.94671546       0.00153716       0.00221677      -0.00180793
Ga      20.13935816       8.63114170      11.50823436      -0.00121406      -0.00126572       0.00076213
As      21.57790918      10.06970228      12.94671546       0.00008193       0.00019314       0.00014673
Ga      23.01641108      11.50819462      11.50823436       0.00027502      -0.00062985       0.00022440
As      24.45496210      12.94675520      12.94671546      -0.00008997       0.00013365       0.00012547
Ga      25.89346400      14.38524754      11.50823436       0.00256157       0.00062575      -0.00053964
As      27.33201502      15.82380812      12.94671546      -0.00949662       0.00927068       0.00694585
Ga      14.38525232      -0.00001706      14.38528728       0.00125435       0.00936248       0.00123970
As      15.82380334       1.43854352      15.82376838      -0.01299345      -0.01086947      -0.01035472
Ga      17.26230524       2.87703586      14.38528728      -0.00011391       0.00076335       0.00217887
As      18.70085626       4.31559644      15.82376838       0.00943525       0.01236655      -0.01037258
Ga      20.13935816       5.75408878      14.38528728      -0.00717255      -0.00221257       0.00172224
As      21.57790918       7.19264936      15.82376838       0.00070244      -0.00000003       0.00021833
Ga      23.01641108       8.63114170      14.38528728      -0.00041012      -0.00010094      -0.00005527
As      24.45496210      10.06970228      15.82376838       0.00128180       0.00043082       0.00020334
Ga      25.89346400      11.50819462      14.38528728      -0.00213990       0.00090484      -0.00068271
As      27.33201502      12.94675520      15.82376838       0.01187375      -0.00959262      -0.00972688
Ga      28.77051692      14.38524754      14.38528728       0.06862235      -0.06881855      -0.10478246
As      30.20906794      15.82380812      15.82376838       0.00969362      -0.01231335      -0.00971990
Ga      -0.00001228       2.87703586       2.87707560       0.06861630      -0.06834439      -0.10515215
As       1.43853874       4.31559644       4.31555670       0.00960883      -0.01205886      -0.00998523
Ga       2.87704064       5.75408878       2.87707560      -0.00108340       0.00231260      -0.00082245
As       4.31559166       7.19264936       4.31555670      -0.00023143      -0.00121049      -0.00009348
Ga       5.75409356       8.63114170       2.87707560      -0.00024542       0.00055028      -0.00042614
As       7.19264458      10.06970228       4.31555670       0.00005470      -0.00024662      -0.00023695
Ga       8.63114648      11.50819462       2.87707560       0.00016682      -0.00014247       0.00022935
As      10.06969750      12.94675520       4.31555670       0.00033885       0.00011215      -0.00006914
Ga      11.50819940      14.38524754       2.87707560      -0.00058290      -0.00005431       0.00001526
As      12.94675042      15.82380812       4.31555670       0.00119244       0.00033311      -0.00010606
Ga      14.38525232      17.26230046       2.87707560      -0.00203107       0.00077027      -0.00025179
As      15.82380334      18.70086104       4.31555670       0.01187088      -0.00968368      -0.01020281
Ga       2.87704064       2.87703586       5.75412852      -0.00008891      -0.00007022       0.00266719
As       4.31559166       4.31559644       7.19260962       0.00010841       0.00010249      -0.00072264
Ga       5.75409356       5.75408878       5.75412852       0.00013518       0.00013956       0.00019198
As       7.19264458       7.19264936       7.19260962       0.00012946       0.00012872      -0.00019863
Ga       8.63114648       8.63114170       5.75412852       0.00003291       0.00003527       0.00024543
As      10.06969750      10.06970228       7.19260962       0.00006546       0.00006169      -0.00035075
Ga      11.50819940      11.50819462       5.75412852      -0.00012156      -0.00011785       0.00031640
As      12.94675042      12.94675520       7.19260962      -0.00001131      -0.00001551      -0.00030206
Ga      14.38525232      14.38524754       5.75412852      -0.00017141      -0.00016455       0.00050872
As      15.82380334      15.82380812       7.19260962      -0.00016221      -0.00017040      -0.00083365
Ga      17.26230524      17.26230046       5.75412852       0.00019362       0.00022004       0.00292682
As      18.70085626      18.70086104       7.19260962      -0.00013233      -0.00013455      -0.00154011
Ga       5.75409356       2.87703586       8.63118144      -0.00014975       0.00013467       0.00056960
As       7.19264458       4.31559644      10.06966254      -0.00027240       0.00023977      -0.00023526
Ga       8.63114648       5.75408878       8.63118144       0.00023258      -0.00014429       0.00000245
As      10.06969750       7.19264936      10.06966254      -0.00012450       0.00008143      -0.00015652
Ga      11.50819940       8.63114170       8.63118144       0.00009823      -0.00015365       0.00016464
As      12.94675042      10.06970228      10.06966254      -0.00000074       0.00020296      -0.00025999
Ga      14.38525232      11.50819462       8.63118144      -0.00004443      -0.00028441       0.00027898
As      15.82380334      12.94675520      10.06966254      -0.00001041       0.00015385      -0.00044297
Ga      17.26230524      14.38524754       8.63118144      -0.00010443       0.00020033       0.00074000
As      18.70085626      15.82380812      10.06966254      -0.00008307       0.00002376      -0.00017280
Ga      20.13935816      17.26230046       8.63118144       0.00017093       0.00006924       0.00044484
As      21.57790918      18.70086104      10.06966254      -0.00033641       0.00009215      -0.00006198
Ga       8.63114648       2.87703586      11.50823436       0.00034296      -0.00069050      -0.00027474
As      10.06969750       4.31559644      12.94671546      -0.00045629       0.00005034       0.00013475
Ga      11.50819940       5.75408878      11.50823436       0.00032641      -0.00018725       0.00004122
As      12.94675042       7.19264936      12.94671546       0.00000695      -0.00000991       0.00003699
Ga      14.38525232       8.63114170      11.50823436       0.00018161      -0.00026374       0.00009630
As      15.82380334      10.06970228      12.94671546      -0.00007251       0.00042546      -0.00006005
Ga      17.26230524      11.50819462      11.50823436       0.00010840      -0.00042465       0.00026416
As      18.70085626      12.94675520      12.94671546      -0.00001234       0.00016628      -0.00011196
Ga      20.13935816      14.38524754      11.50823436       0.00014858      -0.00027613       0.00033976
As      21.57790918      15.82380812      12.94671546      -0.00006721       0.00011874      -0.00002504
Ga      23.01641108      17.26230046      11.50823436       0.00081446      -0.00006289      -0.00014882
As      24.45496210      18.70086104      12.94671546      -0.00168444       0.00151838       0.00070223
Ga      11.50819940       2.87703586      14.38528728       0.00121317      -0.00016993      -0.00057450
As      12.94675042       4.31559644      15.82376838      -0.00112830       0.00039748       0.00025124
Ga      14.38525232       5.75408878      14.38528728       0.00031317      -0.00012801       0.00014386
As      15.82380334       7.19264936      15.82376838      -0.00041674       0.00107707       0.00015187
Ga      17.26230524       8.63114170      14.38528728       0.00023262      -0.00099875      -0.00048541
As      18.70085626      10.06970228      15.82376838       0.00010480       0.00002020       0.00012018
Ga      20.13935816      11.50819462      14.38528728       0.00006772      -0.00032043       0.00004959
As      21.57790918      12.94675520      15.82376838       0.00001675       0.00001645       0.00011710
Ga      23.01641108      14.38524754      14.38528728       0.00010400      -0.00036236       0.00001857
As      24.45496210      15.82380812      15.82376838      -0.00018087      -0.00037668       0.00012456
Ga      25.89346400      17.26230046      14.38528728       0.00274132      -0.00270722      -0.00574711
As      27.33201502      18.70086104      15.82376838       0.00037597       0.00010416       0.00022491
Ga      14.38525232       2.87703586      17.26234020       0.00234952       0.00184043      -0.00134567
As      15.82380334       4.31559644      18.70082130      -0.00940773       0.00893762       0.00694295
Ga      17.26230524       5.75408878      17.26234020      -0.00084256      -0.00195504      -0.00100796
As      18.70085626       7.19264936      18.70082130       0.00011926      -0.00014924       0.00012398
Ga      20.13935816       8.63114170      17.26234020      -0.00000017      -0.00003840      -0.00024019
As      21.57790918      10.06970228      18.70082130       0.00038748       0.00008147       0.00014101
Ga      23.01641108      11.50819462      17.26234020      -0.00083461      -0.00018864      -0.00050828
As      24.45496210      12.94675520      18.70082130       0.00214212      -0.00156495      -0.00171955
Ga      25.89346400      14.38524754      17.26234020      -0.00229566       0.00689718       0.00197587
As      27.33201502      15.82380812      18.70082130       0.00116059      -0.00113737      -0.00035608
Ga      28.77051692      17.26230046      17.26234020      -0.00699874       0.00205843       0.00192996
As      30.20906794      18.70086104      18.70082130       0.00158267      -0.00213351      -0.00157533
Ga      -0.00001228       5.75408878       5.75412852      -0.00713638       0.00254159       0.00218520
As       1.43853874       7.19264936       7.19260962       0.00154255      -0.00214290      -0.00190553
Ga       2.87704064       8.63114170       5.75412852      -0.00006418       0.00108695      -0.00032835
As       4.31559166      10.06970228       7.19260962       0.00036417      -0.00050251      -0.00014760
Ga       5.75409356      11.50819462       5.75412852      -0.00034510       0.00030776       0.00017938
As       7.19264458      12.94675520       7.19260962       0.00029656      -0.00013354      -0.00036038
Ga       8.63114648      14.38524754       5.75412852      -0.00042838       0.00007413       0.00031046
As      10.06969750      15.82380812       7.19260962       0.00051782      -0.00002828      -0.00031045
Ga      11.50819940      17.26230046       5.75412852      -0.00105172       0.00001642      -0.00002473
As      12.94675042      18.70086104       7.19260962       0.00214001      -0.00173173      -0.00205204
Ga      14.38525232      20.13935338       5.75412852      -0.00238361       0.00738502       0.00232719
As      15.82380334      21.57791396       7.19260962       0.00125234      -0.00159791      -0.00064703
Ga       2.87704064       5.75408878       8.63118144       0.00012218      -0.00015456       0.00057397
As       4.31559166       7.19264936      10.06966254       0.00024695      -0.00027665      -0.00023611
Ga       5.75409356       8.63114170       8.63118144      -0.00014561       0.00023503       0.00000487
As       7.19264458      10.06970228      10.06966254       0.00008540      -0.00012872      -0.00015865
Ga       8.63114648      11.50819462       8.63118144      -0.00015728       0.00010170       0.00016661
As      10.06969750      12.94675520      10.06966254       0.00020819      -0.00000527      -0.00026091
Ga      11.50819940      14.38524754       8.63118144      -0.00028865      -0.00003997       0.00028040
As      12.94675042      15.82380812      10.06966254       0.00015873      -0.00000933      -0.00044450
Ga      14.38525232      17.26230046       8.63118144       0.00019585      -0.00011417       0.00073969
As      15.82380334      18.70086104      10.06966254       0.00002208      -0.00007860      -0.00017363
Ga      17.26230524      20.13935338       8.63118144       0.00008372       0.00017596       0.00044860
As      18.70085626      21.57791396      10.06966254       0.00008773      -0.00033123      -0.00006247
Ga       5.75409356       5.75408878      11.50823436      -0.00000883      -0.00000679      -0.00009167
As       7.19264458       7.19264936      12.94671546      -0.00012002      -0.00012460      -0.00003157
Ga       8.63114648       8.63114170      11.50823436       0.00006691       0.00007064      -0.00000841
As      10.06969750      10.06970228      12.94671546       0.00000496       0.00000080      -0.00011213
Ga      11.50819940      11.50819462      11.50823436      -0.00005694      -0.00005217       0.00008546
As      12.94675042      12.94675520      12.94671546       0.00012216       0.00011771      -0.00022513
Ga      14.38525232      14.38524754      11.50823436      -0.00006529      -0.00006013       0.00033067
As      15.82380334      15.82380812      12.94671546       0.00006351       0.00006236      -0.00022537
Ga      17.26230524      17.26230046      11.50823436      -0.00002556      -0.00003696       0.00030622
As      18.70085626      18.70086104      12.94671546      -0.00001324      -0.00000783      -0.00013489
Ga      20.13935816      20.13935338      11.50823436       0.00008721       0.00009666      -0.00002786
As      21.57790918      21.57791396      12.94671546      -0.00005975      -0.00005674       0.00006881
Ga       8.63114648       5.75408878      14.38528728       0.00038429       0.00002642      -0.00015829
As      10.06969750       7.19264936      15.82376838      -0.00030957       0.00004354       0.00012632
Ga      11.50819940       8.63114170      14.38528728       0.00015387      -0.00004283      -0.00000499
As      12.94675042      10.06970228      15.82376838      -0.00011112       0.00023679       0.00002260
Ga      14.38525232      11.50819462      14.38528728       0.00001594      -0.00025961      -0.00001327
As      15.82380334      12.94675520      15.82376838       0.00007747       0.00007995      -0.00008624
Ga      17.26230524      14.38524754      14.38528728       0.00001068      -0.00016291       0.00016720
As      18.70085626      15.82380812      15.82376838       0.00005392       0.00007669      -0.00008970
Ga      20.13935816      17.26230046      14.38528728       0.00002075      -0.00019452       0.00011719
As      21.57790918      18.70086104      15.82376838      -0.00000855      -0.00006631       0.00001751
Ga      23.01641108      20.13935338      14.38528728       0.00056873      -0.00051377      -0.00089199
As      24.45496210      21.57791396      15.82376838      -0.00001877      -0.00006015       0.00012062
Ga      11.50819940       5.75408878      17.26234020       0.00077051       0.00022156      -0.00043240
As      12.94675042       7.19264936      18.70082130      -0.00151578       0.00133944       0.00070631
Ga      14.38525232       8.63114170      17.26234020       0.00002619      -0.00054227      -0.00037950
As      15.82380334      10.06970228      18.70082130       0.00003185      -0.00008229      -0.00001921
Ga      17.26230524      11.50819462      17.26234020       0.00002265      -0.00011757       0.00010429
As      18.70085626      12.94675520      18.70082130       0.00016288      -0.00000627      -0.00010873
Ga      20.13935816      14.38524754      17.26234020      -0.00014031      -0.00017719       0.00011084
As      21.57790918      15.82380812      18.70082130       0.00015889      -0.00011134      -0.00006497
Ga      23.01641108      17.26230046      17.26234020      -0.00007458      -0.00031700       0.00045278
As      24.45496210      18.70086104      18.70082130      -0.00000342       0.00000429       0.00004774
Ga      25.89346400      20.13935338      17.26234020       0.00031324       0.00001073       0.00040122
As      27.33201502      21.57791396      18.70082130       0.00013961      -0.00011930       0.00012902
Ga      14.38525232       5.75408878      20.13939312       0.00257356      -0.00220449      -0.00557119
As      15.82380334       7.19264936      21.57787422       0.00046240      -0.00002452      -0.00026130
Ga      17.26230524       8.63114170      20.13939312       0.00018055       0.00009315       0.00015430
As      18.70085626      10.06970228      21.57787422       0.00018722      -0.00009288      -0.00026659
Ga      20.13935816      11.50819462      20.13939312      -0.00024183       0.00003534       0.00022281
As      21.57790918      12.94675520      21.57787422       0.00103742      -0.00009180      -0.00087716
Ga      23.01641108      14.38524754      20.13939312      -0.00110682       0.00120371       0.00081784
As      24.45496210      15.82380812      21.57787422       0.00051513      -0.00031630      -0.00035793
Ga      25.89346400      17.26230046      20.13939312      -0.00095712       0.00076323       0.00043277
As      27.33201502      18.70086104      21.57787422       0.00034134      -0.00046886      -0.00026330
Ga      28.77051692      20.13935338      20.13939312      -0.00125255       0.00089073       0.00073239
As      30.20906794      21.57791396      21.57787422      -0.00012212      -0.00141544      -0.00077788
Ga      -0.00001228       8.63114170       8.63118144      -0.00140511       0.00132200       0.00102222
As       1.43853874      10.06970228      10.06966254       0.00116122      -0.00145568      -0.00072756
Ga       2.87704064      11.50819462       8.63118144      -0.00094427       0.00055679      -0.00019560
As       4.31559166      12.94675520      10.06966254       0.00009743      -0.00013073      -0.00024685
Ga       5.75409356      14.38524754       8.63118144      -0.00026889       0.00021240       0.00035735
As       7.19264458      15.82380812      10.06966254       0.00021744      -0.00007502      -0.00034740
Ga       8.63114648      17.26230046       8.63118144      -0.00049065       0.00009089       0.00039438
As      10.06969750      18.70086104      10.06966254       0.00104193      -0.00006403      -0.00085825
Ga      11.50819940      20.13935338       8.63118144      -0.00127254       0.00142442       0.00092780
As      12.94675042      21.57791396      10.06966254       0.00039435      -0.00032804      -0.00024062
Ga      14.38525232      23.01640630       8.63118144      -0.00108328       0.00186422       0.00001354
As      15.82380334      24.45496688      10.06966254       0.00073698      -0.00160487      -0.00020468
Ga       2.87704064       8.63114170      11.50823436      -0.00070462       0.00034068      -0.00027299
As       4.31559166      10.06970228      12.94671546       0.00006003      -0.00046053       0.00013063
Ga       5.75409356      11.50819462      11.50823436      -0.00018953       0.00033205       0.00004404
As       7.19264458      12.94675520      12.94671546      -0.00000571       0.00000262       0.00003758
Ga       8.63114648      14.38524754      11.50823436      -0.00026923       0.00018539       0.00009950
As      10.06969750      15.82380812      12.94671546       0.00042998      -0.00006972      -0.00006291
Ga      11.50819940      17.26230046      11.50823436      -0.00042961       0.00009471       0.00026702
As      12.94675042      18.70086104      12.94671546       0.00017079      -0.00000666      -0.00011327
Ga      14.38525232      20.13935338      11.50823436      -0.00027888       0.00015700       0.00034215
As      15.82380334      21.57791396      12.94671546       0.00011913      -0.00006281      -0.00002572
Ga      17.26230524      23.01640630      11.50823436      -0.00004698       0.00081477      -0.00014608
As      18.70085626      24.45496688      12.94671546       0.00151722      -0.00170196       0.00070099
Ga       5.75409356       8.63114170      14.38528728       0.00002961       0.00038980      -0.00016236
As       7.19264458      10.06970228      15.82376838       0.00005138      -0.00031517       0.00012459
Ga       8.63114648      11.50819462      14.38528728      -0.00004742       0.00016045      -0.00000320
As      10.06969750      12.94675520      15.82376838       0.00024271      -0.00011710       0.00002286
Ga      11.50819940      14.38524754      14.38528728      -0.00026538       0.00001936      -0.00001136
As      12.94675042      15.82380812      15.82376838       0.00008560       0.00007812      -0.00008813
Ga      14.38525232      17.26230046      14.38528728      -0.00016908      -0.00000307       0.00016742
As      15.82380334      18.70086104      15.82376838       0.00007579       0.00005947      -0.00008742
Ga      17.26230524      20.13935338      14.38528728      -0.00018164       0.00002984       0.00011534
As      18.70085626      21.57791396      15.82376838      -0.00007493       0.00000265       0.00001651
Ga      20.13935816      23.01640630      14.38528728      -0.00052605       0.00056844      -0.00089961
As      21.57790918      24.45496688      15.82376838      -0.00006935      -0.00002519       0.00012138
Ga       8.63114648       8.63114170      17.26234020       0.00020364       0.00020424      -0.00022444
As      10.06969750      10.06970228      18.70082130      -0.00008064      -0.00008984       0.00007407
Ga      11.50819940      11.50819462      17.26234020      -0.00000992      -0.00000207      -0.00016720
As      12.94675042      12.94675520      18.70082130       0.00000266      -0.00000307      -0.00013018
Ga      14.38525232      14.38524754      17.26234020      -0.00005132      -0.00004630       0.00016547
As      15.82380334      15.82380812      18.70082130       0.00008634       0.00008561      -0.00021862
Ga      17.26230524      17.26230046      17.26234020      -0.00011623      -0.00012953       0.00020345
As      18.70085626      18.70086104      18.70082130       0.00011452       0.00012056      -0.00022511
Ga      20.13935816      20.13935338      17.26234020      -0.00011547      -0.00010877       0.00022971
As      21.57790918      21.57791396      18.70082130       0.00000030       0.00000675      -0.00011054
Ga      23.01641108      23.01640630      17.26234020       0.00009535       0.00008890       0.00013692
As      24.45496210      24.45496688      18.70082130      -0.00012634      -0.00013346      -0.00002953
Ga      11.50819940       8.63114170      20.13939312       0.00052420      -0.00030578      -0.00065198
As      12.94675042      10.06970228      21.57787422       0.00009579      -0.00008002      -0.00008967
Ga      14.38525232      11.50819462      20.13939312       0.00010373       0.00006590       0.00025862
As      15.82380334      12.94675520      21.57787422       0.00001519      -0.00009719      -0.00019482
Ga      17.26230524      14.38524754      20.13939312      -0.00008439      -0.00001525       0.00040641
As      18.70085626      15.82380812      21.57787422       0.00041753       0.00023965      -0.00047037
Ga      20.13935816      17.26230046      20.13939312      -0.00036706      -0.00023913       0.00046145
As      21.57790918      18.70086104      21.57787422       0.00020441      -0.00000327      -0.00028169
Ga      23.01641108      20.13935338      20.13939312      -0.00010647      -0.00000554       0.00031730
As      24.45496210      21.57791396      21.57787422       0.00006526      -0.00012159      -0.00018045
Ga      25.89346400      23.01640630      20.13939312       0.00019331       0.00023465       0.00031582
As      27.33201502      24.45496688      21.57787422      -0.00023778      -0.00049922      -0.00026636
Ga      14.38525232       8.63114170      23.01644604      -0.00000815      -0.00015792       0.00107611
As      15.82380334      10.06970228      24.45492714      -0.00000349      -0.00003459      -0.00067319
Ga      17.26230524      11.50819462      23.01644604       0.00042854       0.00045168       0.00072509
As      18.70085626      12.94675520      24.45492714       0.00220998       0.00137370      -0.00214621
Ga      20.13935816      14.38524754      23.01644604      -0.00108847      -0.00114523       0.00102083
As      21.57790918      15.82380812      24.45492714       0.00021998       0.00004580      -0.00030502
Ga      23.01641108      17.26230046      23.01644604      -0.00046638       0.00018840       0.00055479
As      24.45496210      18.70086104      24.45492714       0.00029784      -0.00012674      -0.00035818
Ga      25.89346400      20.13935338      23.01644604      -0.00044200       0.00023320       0.00050465
As      27.33201502      21.57791396      24.45492714       0.00005755      -0.00025988      -0.00015118
Ga      28.77051692      23.01640630      23.01644604       0.00112322       0.00088639       0.00131605
As      30.20906794      24.45496688      24.45492714      -0.00154865      -0.00221884      -0.00199251
Ga      -0.00001228      11.50819462      11.50823436      -0.00094702       0.00027291      -0.00003238
As       1.43853874      12.94675520      12.94671546      -0.00155812      -0.00222748      -0.00167080
Ga       2.87704064      14.38524754      11.50823436      -0.00028656      -0.00001832       0.00045918
As       4.31559166      15.82380812      12.94671546      -0.00009320       0.00009086      -0.00037368
Ga       5.75409356      17.26230046      11.50823436       0.00024017       0.00037415       0.00051924
As       7.19264458      18.70086104      12.94671546       0.00221767       0.00155251      -0.00181605
Ga       8.63114648      20.13935338      11.50823436      -0.00126640      -0.00120829       0.00076578
As      10.06969750      21.57791396      12.94671546       0.00019541       0.00009052       0.00014402
Ga      11.50819940      23.01640630      11.50823436      -0.00063236       0.00026480       0.00023441
As      12.94675042      24.45496688      12.94671546       0.00014213      -0.00010083       0.00012551
Ga      14.38525232      25.89345922      11.50823436       0.00064138       0.00257772      -0.00050203
As      15.82380334      27.33201980      12.94671546       0.00923431      -0.00953175       0.00695506
Ga       2.87704064      11.50819462      14.38528728      -0.00018068       0.00123582      -0.00057257
As       4.31559166      12.94675520      15.82376838       0.00040771      -0.00113871       0.00025450
Ga       5.75409356      14.38524754      14.38528728      -0.00012399       0.00031200       0.00014095
As       7.19264458      15.82380812      15.82376838       0.00107644      -0.00040847       0.00015644
Ga       8.63114648      17.26230046      14.38528728      -0.00099695       0.00021115      -0.00047765
As      10.06969750      18.70086104      15.82376838       0.00002357       0.00011236       0.00011771
Ga      11.50819940      20.13935338      14.38528728      -0.00032523       0.00007440       0.00005156
As      12.94675042      21.57791396      15.82376838       0.00002137       0.00002415       0.00011784
Ga      14.38525232      23.01640630      14.38528728      -0.00037559       0.00010227       0.00001743
As      15.82380334      24.45496688      15.82376838      -0.00038244      -0.00017752       0.00011965
Ga      17.26230524      25.89345922      14.38528728      -0.00268530       0.00275541      -0.00577559
As      18.70085626      27.33201980      15.82376838       0.00008448       0.00035881       0.00022266
Ga       5.75409356      11.50819462      17.26234020       0.00022614       0.00080071      -0.00043641
As       7.19264458      12.94675520      18.70082130       0.00135248      -0.00153290       0.00070550
Ga       8.63114648      14.38524754      17.26234020      -0.00055203       0.00002760      -0.00037772
As      10.06969750      15.82380812      18.70082130      -0.00007455       0.00003250      -0.00002002
Ga      11.50819940      17.26230046      17.26234020      -0.00012528       0.00000874       0.00010591
As      12.94675042      18.70086104      18.70082130      -0.00000181       0.00016875      -0.00010778
Ga      14.38525232      20.13935338      17.26234020      -0.00018336      -0.00013295       0.00010858
As      15.82380334      21.57791396      18.70082130      -0.00010842       0.00016255      -0.00006182
Ga      17.26230524      23.01640630      17.26234020      -0.00030208      -0.00008597       0.00045665
As      18.70085626      24.45496688      18.70082130      -0.00000415      -0.00000738       0.00004848
Ga      20.13935816      25.89345922      17.26234020       0.00000526       0.00031922       0.00040159
As      21.57790918      27.33201980      18.70082130      -0.00012444       0.00012169       0.00013410
Ga       8.63114648      11.50819462      20.13939312      -0.00030809       0.00055187      -0.00066035
As      10.06969750      12.94675520      21.57787422      -0.00008271       0.00008598      -0.00008813
Ga      11.50819940      14.38524754      20.13939312       0.00005782       0.00010861       0.00025607
As      12.94675042      15.82380812      21.57787422      -0.00009408       0.00001900      -0.00019567
Ga      14.38525232      17.26230046      20.13939312      -0.00002087      -0.00009722       0.00040617
As      15.82380334      18.70086104      21.57787422       0.00023640       0.00042568      -0.00046856
Ga      17.26230524      20.13935338      20.13939312      -0.00022649      -0.00035906       0.00045912
As      18.70085626      21.57791396      21.57787422      -0.00001164       0.00021283      -0.00028066
Ga      20.13935816      23.01640630      20.13939312      -0.00001227      -0.00011415       0.00031653
As      21.57790918      24.45496688      21.57787422      -0.00012939       0.00006117      -0.00017800
Ga      23.01641108      25.89345922      20.13939312       0.00023957       0.00019723       0.00031203
As      24.45496210      27.33201980      21.57787422      -0.00049644      -0.00024686      -0.00026544
Ga      11.50819940      11.50819462      23.01644604      -0.00003929      -0.00002012       0.00074156
As      12.94675042      12.94675520      24.45492714      -0.00010808      -0.00013316      -0.00153959
Ga      14.38525232      14.38524754      23.01644604       0.00026598       0.00026871       0.00071234
As      15.82380334      15.82380812      24.45492714       0.00111338       0.00112366      -0.00085141
Ga      17.26230524      17.26230046      23.01644604      -0.00081503      -0.00083091       0.00069003
As      18.70085626      18.70086104      24.45492714      -0.00001716      -0.00001093      -0.00031224
Ga      20.13935816      20.13935338      23.01644604      -0.00012279      -0.00011811       0.00050786
As      21.57790918      21.57791396      24.45492714       0.00008753       0.00009421      -0.00034965
Ga      23.01641108      23.01640630      23.01644604      -0.00007571      -0.00008353       0.00045393
As      24.45496210      24.45496688      24.45492714       0.00012768       0.00012518      -0.00021224
Ga      25.89346400      25.89345922      23.01644604       0.00079266       0.00079085       0.00066422
As      27.33201502      27.33201980      24.45492714      -0.00119212      -0.00119603      -0.00074541
Ga      14.38525232      11.50819462      25.89349896       0.00032781       0.00026560       0.00308247
As      15.82380334      12.94675520      27.33198006       0.01234322       0.00912257      -0.01088125
Ga      17.26230524      14.38524754      25.89349896      -0.00220375      -0.00695566       0.00247008
As      18.70085626      15.82380812      27.33198006      -0.00007710       0.00037992      -0.00007133
Ga      20.13935816      17.26230046      25.89349896      -0.00014859       0.00027216       0.00078719
As      21.57790918      18.70086104      27.33198006       0.00009001       0.00003759      -0.00005958
Ga      23.01641108      20.13935338      25.89349896      -0.00027484       0.00004683       0.00054480
As      24.45496210      21.57791396      27.33198006       0.00035832       0.00024642      -0.00023064
Ga      25.89346400      23.01640630      25.89349896      -0.00061144      -0.00011225       0.00084661
As      27.33201502      24.45496688      27.33198006      -0.00026507       0.00008763      -0.00006129
Ga      28.77051692      25.89345922      25.89349896       0.00704470       0.00233989       0.00237541
As      30.20906794      27.33201980      27.33198006      -0.00962911      -0.01276417      -0.01066280
Ga      -0.00001228      14.38524754      14.38528728       0.00937387       0.00123278       0.00124358
As       1.43853874      15.82380812      15.82376838      -0.01085029      -0.01297382      -0.01042131
Ga       2.87704064      17.26230046      14.38528728       0.00075373      -0.00014053       0.00218391
As       4.31559166      18.70086104      15.82376838       0.01233852       0.00946355      -0.01040212
Ga       5.75409356      20.13935338      14.38528728      -0.00220785      -0.00719253       0.00172831
As       7.19264458      21.57791396      15.82376838       0.00000467       0.00071426       0.00022615
Ga       8.63114648      23.01640630      14.38528728      -0.00009973      -0.00042109      -0.00005816
As      10.06969750      24.45496688      15.82376838       0.00043267       0.00128306       0.00019553
Ga      11.50819940      25.89345922      14.38528728       0.00089806      -0.00216330      -0.00070011
As      12.94675042      27.33201980      15.82376838      -0.00960769       0.01182646      -0.00968075
Ga      14.38525232      28.77051214      14.38528728      -0.06880011       0.06863757      -0.10486099
As      15.82380334      30.20907272      15.82376838      -0.01229209       0.00968811      -0.00965293
Ga       2.87704064      14.38524754      17.26234020       0.00184885       0.00235041      -0.00130589
As       4.31559166      15.82380812      18.70082130       0.00891285      -0.00941883       0.00695061
Ga       5.75409356      17.26230046      17.26234020      -0.00194860      -0.00087260      -0.00097283
As       7.19264458      18.70086104      18.70082130      -0.00013937       0.00012656       0.00012457
Ga       8.63114648      20.13935338      17.26234020      -0.00004337       0.00000253      -0.00023526
As      10.06969750      21.57791396      18.70082130       0.00008363       0.00039818       0.00014352
Ga      11.50819940      23.01640630      17.26234020      -0.00019087      -0.00084648      -0.00051149
As      12.94675042      24.45496688      18.70082130      -0.00156176       0.00213621      -0.00171315
Ga      14.38525232      25.89345922      17.26234020       0.00690521      -0.00230908       0.00198813
As      15.82380334      27.33201980      18.70082130      -0.00114605       0.00115087      -0.00035105
Ga      17.26230524      28.77051214      17.26234020       0.00208532      -0.00697230       0.00192926
As      18.70085626      30.20907272      18.70082130      -0.00212143       0.00157375      -0.00156131
Ga       5.75409356      14.38524754      20.13939312      -0.00219955       0.00257844      -0.00560222
As       7.19264458      15.82380812      21.57787422      -0.00003057       0.00047010      -0.00025819
Ga       8.63114648      17.26230046      20.13939312       0.00008291       0.00017211       0.00014992
As      10.06969750      18.70086104      21.57787422      -0.00009422       0.00019305      -0.00025748
Ga      11.50819940      20.13935338      20.13939312       0.00003138      -0.00023534       0.00021846
As      12.94675042      21.57791396      21.57787422      -0.00009060       0.00104462      -0.00087317
Ga      14.38525232      23.01640630      20.13939312       0.00120316      -0.00111620       0.00081601
As      15.82380334      24.45496688      21.57787422      -0.00031580       0.00050974      -0.00035515
Ga      17.26230524      25.89345922      20.13939312       0.00078315      -0.00095728       0.00043529
As      18.70085626      27.33201980      21.57787422      -0.00047764       0.00033068      -0.00025631
Ga      20.13935816      28.77051214      20.13939312       0.00087331      -0.00122481       0.00072470
As      21.57790918      30.20907272      21.57787422      -0.00141898      -0.00010927      -0.00077386
Ga       8.63114648      14.38524754      23.01644604      -0.00015735      -0.00002020       0.00107794
As      10.06969750      15.82380812      24.45492714      -0.00004325       0.00000127      -0.00066465
Ga      11.50819940      17.26230046      23.01644604       0.00045779       0.00041852       0.00072181
As      12.94675042      18.70086104      24.45492714       0.00136868       0.00221999      -0.00213503
Ga      14.38525232      20.13935338      23.01644604      -0.00114598      -0.00108644       0.00101720
As      15.82380334      21.57791396      24.45492714       0.00004424       0.00022615      -0.00030121
Ga      17.26230524      23.01640630      23.01644604       0.00020372      -0.00047519       0.00055209
As      18.70085626      24.45496688      24.45492714      -0.00013271       0.00029113      -0.00035614
Ga      20.13935816      25.89345922      23.01644604       0.00022634      -0.00043970       0.00050021
As      21.57790918      27.33201980      24.45492714      -0.00026645       0.00004581      -0.00014586
Ga      23.01641108      28.77051214      23.01644604       0.00089265       0.00113227       0.00131601
As      24.45496210      30.20907272      24.45492714      -0.00220547      -0.00154435      -0.00198096
Ga      11.50819940      14.38524754      25.89349896       0.00025329       0.00033037       0.00308087
As      12.94675042      15.82380812      27.33198006       0.00911450       0.01237717      -0.01084797
Ga      14.38525232      17.26230046      25.89349896      -0.00693776      -0.00221317       0.00246798
As      15.82380334      18.70086104      27.33198006       0.00037129      -0.00007297      -0.00007702
Ga      17.26230524      20.13935338      25.89349896       0.00028501      -0.00014695       0.00078657
As      18.70085626      21.57791396      27.33198006       0.00002886       0.00010124      -0.00005882
Ga      20.13935816      23.01640630      25.89349896       0.00004033      -0.00028343       0.00054297
As      21.57790918      24.45496688      27.33198006       0.00023817       0.00035469      -0.00022989
Ga      23.01641108      25.89345922      25.89349896      -0.00010152      -0.00060784       0.00084476
As      24.45496210      27.33201980      27.33198006       0.00007824      -0.00026614      -0.00006629
Ga      25.89346400      28.77051214      25.89349896       0.00234082       0.00705592       0.00237281
As      27.33201502      30.20907272      27.33198006      -0.01275674      -0.00965011      -0.01060504
Ga      14.38525232      14.38524754      28.77055188       0.07952280       0.07944329      -0.11006460
As      15.82380334      15.82380812      30.20903298      -0.01096471      -0.01091638       0.00675381
Ga      17.26230524      17.26230046      28.77055188       0.00252829       0.00252938      -0.00569051
As      18.70085626      18.70086104      30.20903298      -0.00157627      -0.00157764      -0.00038383
Ga      20.13935816      20.13935338      28.77055188       0.00062315       0.00062630      -0.00056261
As      21.57790918      21.57791396      30.20903298       0.00119649       0.00121819      -0.00029329
Ga      23.01641108      23.01640630      28.77055188      -0.00137849      -0.00139294      -0.00063917
As      24.45496210      24.45496688      30.20903298       0.00157286       0.00157036       0.00094071
Ga      25.89346400      25.89345922      28.77055188      -0.00271125      -0.00271812      -0.00594425
As      27.33201502      27.33201980      30.20903298       0.00967679       0.00971886       0.00726816
Ga      28.77051692      28.77051214      28.77055188      -0.07854953      -0.07857021      -0.11040246
As      30.20906794      30.20907272      30.20903298       0.00006134       0.00021333       0.49746776
