1080
Lattice="35.372409153519875 0.0 0.0 0.0 35.372409153519875 0.0 0.0 0.0 35.372409153519875" Properties=species:S:1:pos:R:3 pbc="T T T"
Cs       2.94770076       2.94770076       2.94770076
Pb       0.00000000       0.00000000       0.00000000
Br       0.00000000       0.00000000       2.94770076
Br       0.00000000       2.94770076       0.00000000
Br       2.94770076       0.00000000       0.00000000
Cs       2.94770076       2.94770076       8.84310229
Pb       0.00000000       0.00000000       5.89540153
Br       0.00000000       0.00000000       8.84310229
Br       0.00000000       2.94770076       5.89540153
Br       2.94770076       0.00000000       5.89540153
Cs       2.94770076       2.94770076      14.73850381
Pb       0.00000000       0.00000000      11.79080305
Br       0.00000000       0.00000000      14.73850381
Br       0.00000000       2.94770076      11.79080305
Br       2.94770076       0.00000000      11.79080305
Cs       2.94770076       2.94770076      20.63390534
Pb       0.00000000       0.00000000      17.68620458
Br       0.00000000       0.00000000      20.63390534
Br       0.00000000       2.94770076      17.68620458
Br       2.94770076       0.00000000      17.68620458
Cs       2.94770076       2.94770076      26.52930687
Pb       0.00000000       0.00000000      23.58160610
Br       0.00000000       0.00000000      26.52930687
Br       0.00000000       2.94770076      23.58160610
Br       2.94770076       0.00000000      23.58160610
Cs       2.94770076       2.94770076      32.42470839
Pb       0.00000000       0.00000000      29.47700763
Br       0.00000000       0.00000000      32.42470839
Br       0.00000000       2.94770076      29.47700763
Br       2.94770076       0.00000000      29.47700763
Cs       2.94770076       8.84310229       2.94770076
Pb       0.00000000       5.89540153       0.00000000
Br       0.00000000       5.89540153       2.94770076
Br       0.00000000       8.84310229       0.00000000
Br       2.94770076       5.89540153       0.00000000
Cs       2.94770076       8.84310229       8.84310229
Pb       0.00000000       5.89540153       5.89540153
Br       0.00000000       5.89540153       8.84310229
Br       0.00000000       8.84310229       5.89540153
Br       2.94770076       5.89540153       5.89540153
Cs       2.94770076       8.84310229      14.73850381
Pb       0.00000000       5.89540153      11.79080305
Br       0.00000000       5.89540153      14.73850381
Br       0.00000000       8.84310229      11.79080305
Br       2.94770076       5.89540153      11.79080305
Cs       2.94770076       8.84310229      20.63390534
Pb       0.00000000       5.89540153      17.68620458
Br       0.00000000       5.89540153      20.63390534
Br       0.00000000       8.84310229      17.68620458
Br       2.94770076       5.89540153      17.68620458
Cs       2.94770076       8.84310229      26.52930687
Pb       0.00000000       5.89540153      23.58160610
Br       0.00000000       5.89540153      26.52930687
Br       0.00000000       8.84310229      23.58160610
Br       2.94770076       5.89540153      23.58160610
Cs       2.94770076       8.84310229      32.42470839
Pb       0.00000000       5.89540153      29.47700763
Br       0.00000000       5.89540153      32.42470839
Br       0.00000000       8.84310229      29.47700763
Br       2.94770076       5.89540153      29.47700763
Cs       2.94770076      14.73850381       2.94770076
Pb       0.00000000      11.79080305       0.00000000
Br       0.00000000      11.79080305       2.94770076
Br       0.00000000      14.73850381       0.00000000
Br       2.94770076      11.79080305       0.00000000
Cs       2.94770076      14.73850381       8.84310229
Pb       0.00000000      11.79080305       5.89540153
Br       0.00000000      11.79080305       8.84310229
Br       0.00000000      14.73850381       5.89540153
Br       2.94770076      11.79080305       5.89540153
Cs       2.94770076      14.73850381      14.73850381
Pb       0.00000000      11.79080305      11.79080305
Br       0.00000000      11.79080305      14.73850381
Br       0.00000000      14.73850381      11.79080305
Br       2.94770076      11.79080305      11.79080305
Cs       2.94770076      14.73850381      20.63390534
Pb       0.00000000      11.79080305      17.68620458
Br       0.00000000      11.79080305      20.63390534
Br       0.00000000      14.73850381      17.68620458
Br       2.94770076      11.79080305      17.68620458
Cs       2.94770076      14.73850381      26.52930687
Pb       0.00000000      11.79080305      23.58160610
Br       0.00000000      11.79080305      26.52930687
Br       0.00000000      14.73850381      23.58160610
Br       2.94770076      11.79080305      23.58160610
Cs       2.94770076      14.73850381      32.42470839
Pb       0.00000000      11.79080305      29.47700763
Br       0.00000000      11.79080305      32.42470839
Br       0.00000000      14.73850381      29.47700763
Br       2.94770076      11.79080305      29.47700763
Cs       2.94770076      20.63390534       2.94770076
Pb       0.00000000      17.68620458       0.00000000
Br       0.00000000      17.68620458       2.94770076
Br       0.00000000      20.63390534       0.00000000
Br       2.94770076      17.68620458       0.00000000
Cs       2.94770076      20.63390534       8.84310229
Pb       0.00000000      17.68620458       5.89540153
Br       0.00000000      17.68620458       8.84310229
Br       0.00000000      20.63390534       5.89540153
Br       2.94770076      17.68620458       5.89540153
Cs       2.94770076      20.63390534      14.73850381
Pb       0.00000000      17.68620458      11.79080305
Br       0.00000000      17.68620458      14.73850381
Br       0.00000000      20.63390534      11.79080305
Br       2.94770076      17.68620458      11.79080305
Cs       2.94770076      20.63390534      20.63390534
Pb       0.00000000      17.68620458      17.68620458
Br       0.00000000      17.68620458      20.63390534
Br       0.00000000      20.63390534      17.68620458
Br       2.94770076      17.68620458      17.68620458
Cs       2.94770076      20.63390534      26.52930687
Pb       0.00000000      17.68620458      23.58160610
Br       0.00000000      17.68620458      26.52930687
Br       0.00000000      20.63390534      23.58160610
Br       2.94770076      17.68620458      23.58160610
Cs       2.94770076      20.63390534      32.42470839
Pb       0.00000000      17.68620458      29.47700763
Br       0.00000000      17.68620458      32.42470839
Br       0.00000000      20.63390534      29.47700763
Br       2.94770076      17.68620458      29.47700763
Cs       2.94770076      26.52930687       2.94770076
Pb       0.00000000      23.58160610       0.00000000
Br       0.00000000      23.58160610       2.94770076
Br       0.00000000      26.52930687       0.00000000
Br       2.94770076      23.58160610       0.00000000
Cs       2.94770076      26.52930687       8.84310229
Pb       0.00000000      23.58160610       5.89540153
Br       0.00000000      23.58160610       8.84310229
Br       0.00000000      26.52930687       5.89540153
Br       2.94770076      23.58160610       5.89540153
Cs       2.94770076      26.52930687      14.73850381
Pb       0.00000000      23.58160610      11.79080305
Br       0.00000000      23.58160610      14.73850381
Br       0.00000000      26.52930687      11.79080305
Br       2.94770076      23.58160610      11.79080305
Cs       2.94770076      26.52930687      20.63390534
Pb       0.00000000      23.58160610      17.68620458
Br       0.00000000      23.58160610      20.63390534
Br       0.00000000      26.52930687      17.68620458
Br       2.94770076      23.58160610      17.68620458
Cs       2.94770076      26.52930687      26.52930687
Pb       0.00000000      23.58160610      23.58160610
Br       0.00000000      23.58160610      26.52930687
Br       0.00000000      26.52930687      23.58160610
Br       2.94770076      23.58160610      23.58160610
Cs       2.94770076      26.52930687      32.42470839
Pb       0.00000000      23.58160610      29.47700763
Br       0.00000000      23.58160610      32.42470839
Br       0.00000000      26.52930687      29.47700763
Br       2.94770076      23.58160610      29.47700763
Cs       2.94770076      32.42470839       2.94770076
Pb       0.00000000      29.47700763       0.00000000
Br       0.00000000      29.47700763       2.94770076
Br       0.00000000      32.42470839       0.00000000
Br       2.94770076      29.47700763       0.00000000
Cs       2.94770076      32.42470839       8.84310229
Pb       0.00000000      29.47700763       5.89540153
Br       0.00000000      29.47700763       8.84310229
Br       0.00000000      32.42470839       5.89540153
Br       2.94770076      29.47700763       5.89540153
Cs       2.94770076      32.42470839      14.73850381
Pb       0.00000000      29.47700763      11.79080305
Br       0.00000000      29.47700763      14.73850381
Br       0.00000000      32.42470839      11.79080305
Br       2.94770076      29.47700763      11.79080305
Cs       2.94770076      32.42470839      20.63390534
Pb       0.00000000      29.47700763      17.68620458
Br       0.00000000      29.47700763      20.63390534
Br       0.00000000      32.42470839      17.68620458
Br       2.94770076      29.47700763      17.68620458
Cs       2.94770076      32.42470839      26.52930687
Pb       0.00000000      29.47700763      23.58160610
Br       0.00000000      29.47700763      26.52930687
Br       0.00000000      32.42470839      23.58160610
Br       2.94770076      29.47700763      23.58160610
Cs       2.94770076      32.42470839      32.42470839
Pb       0.00000000      29.47700763      29.47700763
Br       0.00000000      29.47700763      32.42470839
Br       0.00000000      32.42470839      29.47700763
Br       2.94770076      29.47700763      29.47700763
Cs       8.84310229       2.94770076       2.94770076
Pb       5.89540153       0.00000000       0.00000000
Br       5.89540153       0.00000000       2.94770076
Br       5.89540153       2.94770076       0.00000000
Br       8.84310229       0.00000000       0.00000000
Cs       8.84310229       2.94770076       8.84310229
Pb       5.89540153       0.00000000       5.89540153
Br       5.89540153       0.00000000       8.84310229
Br       5.89540153       2.94770076       5.89540153
Br       8.84310229       0.00000000       5.89540153
Cs       8.84310229       2.94770076      14.73850381
Pb       5.89540153       0.00000000      11.79080305
Br       5.89540153       0.00000000      14.73850381
Br       5.89540153       2.94770076      11.79080305
Br       8.84310229       0.00000000      11.79080305
Cs       8.84310229       2.94770076      20.63390534
Pb       5.89540153       0.00000000      17.68620458
Br       5.89540153       0.00000000      20.63390534
Br       5.89540153       2.94770076      17.68620458
Br       8.84310229       0.00000000      17.68620458
Cs       8.84310229       2.94770076      26.52930687
Pb       5.89540153       0.00000000      23.58160610
Br       5.89540153       0.00000000      26.52930687
Br       5.89540153       2.94770076      23.58160610
Br       8.84310229       0.00000000      23.58160610
Cs       8.84310229       2.94770076      32.42470839
Pb       5.89540153       0.00000000      29.47700763
Br       5.89540153       0.00000000      32.42470839
Br       5.89540153       2.94770076      29.47700763
Br       8.84310229       0.00000000      29.47700763
Cs       8.84310229       8.84310229       2.94770076
Pb       5.89540153       5.89540153       0.00000000
Br       5.89540153       5.89540153       2.94770076
Br       5.89540153       8.84310229       0.00000000
Br       8.84310229       5.89540153       0.00000000
Cs       8.84310229       8.84310229       8.84310229
Pb       5.89540153       5.89540153       5.89540153
Br       5.89540153       5.89540153       8.84310229
Br       5.89540153       8.84310229       5.89540153
Br       8.84310229       5.89540153       5.89540153
Cs       8.84310229       8.84310229      14.73850381
Pb       5.89540153       5.89540153      11.79080305
Br       5.89540153       5.89540153      14.73850381
Br       5.89540153       8.84310229      11.79080305
Br       8.84310229       5.89540153      11.79080305
Cs       8.84310229       8.84310229      20.63390534
Pb       5.89540153       5.89540153      17.68620458
Br       5.89540153       5.89540153      20.63390534
Br       5.89540153       8.84310229      17.68620458
Br       8.84310229       5.89540153      17.68620458
Cs       8.84310229       8.84310229      26.52930687
Pb       5.89540153       5.89540153      23.58160610
Br       5.89540153       5.89540153      26.52930687
Br       5.89540153       8.84310229      23.58160610
Br       8.84310229       5.89540153      23.58160610
Cs       8.84310229       8.84310229      32.42470839
Pb       5.89540153       5.89540153      29.47700763
Br       5.89540153       5.89540153      32.42470839
Br       5.89540153       8.84310229      29.47700763
Br       8.84310229       5.89540153      29.47700763
Cs       8.84310229      14.73850381       2.94770076
Pb       5.89540153      11.79080305       0.00000000
Br       5.89540153      11.79080305       2.94770076
Br       5.89540153      14.73850381       0.00000000
Br       8.84310229      11.79080305       0.00000000
Cs       8.84310229      14.73850381       8.84310229
Pb       5.89540153      11.79080305       5.89540153
Br       5.89540153      11.79080305       8.84310229
Br       5.89540153      14.73850381       5.89540153
Br       8.84310229      11.79080305       5.89540153
Cs       8.84310229      14.73850381      14.73850381
Pb       5.89540153      11.79080305      11.79080305
Br       5.89540153      11.79080305      14.73850381
Br       5.89540153      14.73850381      11.79080305
Br       8.84310229      11.79080305      11.79080305
Cs       8.84310229      14.73850381      20.63390534
Pb       5.89540153      11.79080305      17.68620458
Br       5.89540153      11.79080305      20.63390534
Br       5.89540153      14.73850381      17.68620458
Br       8.84310229      11.79080305      17.68620458
Cs       8.84310229      14.73850381      26.52930687
Pb       5.89540153      11.79080305      23.58160610
Br       5.89540153      11.79080305      26.52930687
Br       5.89540153      14.73850381      23.58160610
Br       8.84310229      11.79080305      23.58160610
Cs       8.84310229      14.73850381      32.42470839
Pb       5.89540153      11.79080305      29.47700763
Br       5.89540153      11.79080305      32.42470839
Br       5.89540153      14.73850381      29.47700763
Br       8.84310229      11.79080305      29.47700763
Cs       8.84310229      20.63390534       2.94770076
Pb       5.89540153      17.68620458       0.00000000
Br       5.89540153      17.68620458       2.94770076
Br       5.89540153      20.63390534       0.00000000
Br       8.84310229      17.68620458       0.00000000
Cs       8.84310229      20.63390534       8.84310229
Pb       5.89540153      17.68620458       5.89540153
Br       5.89540153      17.68620458       8.84310229
Br       5.89540153      20.63390534       5.89540153
Br       8.84310229      17.68620458       5.89540153
Cs       8.84310229      20.63390534      14.73850381
Pb       5.89540153      17.68620458      11.79080305
Br       5.89540153      17.68620458      14.73850381
Br       5.89540153      20.63390534      11.79080305
Br       8.84310229      17.68620458      11.79080305
Cs       8.84310229      20.63390534      20.63390534
Pb       5.89540153      17.68620458      17.68620458
Br       5.89540153      17.68620458      20.63390534
Br       5.89540153      20.63390534      17.68620458
Br       8.84310229      17.68620458      17.68620458
Cs       8.84310229      20.63390534      26.52930687
Pb       5.89540153      17.68620458      23.58160610
Br       5.89540153      17.68620458      26.52930687
Br       5.89540153      20.63390534      23.58160610
Br       8.84310229      17.68620458      23.58160610
Cs       8.84310229      20.63390534      32.42470839
Pb       5.89540153      17.68620458      29.47700763
Br       5.89540153      17.68620458      32.42470839
Br       5.89540153      20.63390534      29.47700763
Br       8.84310229      17.68620458      29.47700763
Cs       8.84310229      26.52930687       2.94770076
Pb       5.89540153      23.58160610       0.00000000
Br       5.89540153      23.58160610       2.94770076
Br       5.89540153      26.52930687       0.00000000
Br       8.84310229      23.58160610       0.00000000
Cs       8.84310229      26.52930687       8.84310229
Pb       5.89540153      23.58160610       5.89540153
Br       5.89540153      23.58160610       8.84310229
Br       5.89540153      26.52930687       5.89540153
Br       8.84310229      23.58160610       5.89540153
Cs       8.84310229      26.52930687      14.73850381
Pb       5.89540153      23.58160610      11.79080305
Br       5.89540153      23.58160610      14.73850381
Br       5.89540153      26.52930687      11.79080305
Br       8.84310229      23.58160610      11.79080305
Cs       8.84310229      26.52930687      20.63390534
Pb       5.89540153      23.58160610      17.68620458
Br       5.89540153      23.58160610      20.63390534
Br       5.89540153      26.52930687      17.68620458
Br       8.84310229      23.58160610      17.68620458
Cs       8.84310229      26.52930687      26.52930687
Pb       5.89540153      23.58160610      23.58160610
Br       5.89540153      23.58160610      26.52930687
Br       5.89540153      26.52930687      23.58160610
Br       8.84310229      23.58160610      23.58160610
Cs       8.84310229      26.52930687      32.42470839
Pb       5.89540153      23.58160610      29.47700763
Br       5.89540153      23.58160610      32.42470839
Br       5.89540153      26.52930687      29.47700763
Br       8.84310229      23.58160610      29.47700763
Cs       8.84310229      32.42470839       2.94770076
Pb       5.89540153      29.47700763       0.00000000
Br       5.89540153      29.47700763       2.94770076
Br       5.89540153      32.42470839       0.00000000
Br       8.84310229      29.47700763       0.00000000
Cs       8.84310229      32.42470839       8.84310229
Pb       5.89540153      29.47700763       5.89540153
Br       5.89540153      29.47700763       8.84310229
Br       5.89540153      32.42470839       5.89540153
Br       8.84310229      29.47700763       5.89540153
Cs       8.84310229      32.42470839      14.73850381
Pb       5.89540153      29.47700763      11.79080305
Br       5.89540153      29.47700763      14.73850381
Br       5.89540153      32.42470839      11.79080305
Br       8.84310229      29.47700763      11.79080305
Cs       8.84310229      32.42470839      20.63390534
Pb       5.89540153      29.47700763      17.68620458
Br       5.89540153      29.47700763      20.63390534
Br       5.89540153      32.42470839      17.68620458
Br       8.84310229      29.47700763      17.68620458
Cs       8.84310229      32.42470839      26.52930687
Pb       5.89540153      29.47700763      23.58160610
Br       5.89540153      29.47700763      26.52930687
Br       5.89540153      32.42470839      23.58160610
Br       8.84310229      29.47700763      23.58160610
Cs       8.84310229      32.42470839      32.42470839
Pb       5.89540153      29.47700763      29.47700763
Br       5.89540153      29.47700763      32.42470839
Br       5.89540153      32.42470839      29.47700763
Br       8.84310229      29.47700763      29.47700763
Cs      14.73850381       2.94770076       2.94770076
Pb      11.79080305       0.00000000       0.00000000
Br      11.79080305       0.00000000       2.94770076
Br      11.79080305       2.94770076       0.00000000
Br      14.73850381       0.00000000       0.00000000
Cs      14.73850381       2.94770076       8.84310229
Pb      11.79080305       0.00000000       5.89540153
Br      11.79080305       0.00000000       8.84310229
Br      11.79080305       2.94770076       5.89540153
Br      14.73850381       0.00000000       5.89540153
Cs      14.73850381       2.94770076      14.73850381
Pb      11.79080305       0.00000000      11.79080305
Br      11.79080305       0.00000000      14.73850381
Br      11.79080305       2.94770076      11.79080305
Br      14.73850381       0.00000000      11.79080305
Cs      14.73850381       2.94770076      20.63390534
Pb      11.79080305       0.00000000      17.68620458
Br      11.79080305       0.00000000      20.63390534
Br      11.79080305       2.94770076      17.68620458
Br      14.73850381       0.00000000      17.68620458
Cs      14.73850381       2.94770076      26.52930687
Pb      11.79080305       0.00000000      23.58160610
Br      11.79080305       0.00000000      26.52930687
Br      11.79080305       2.94770076      23.58160610
Br      14.73850381       0.00000000      23.58160610
Cs      14.73850381       2.94770076      32.42470839
Pb      11.79080305       0.00000000      29.47700763
Br      11.79080305       0.00000000      32.42470839
Br      11.79080305       2.94770076      29.47700763
Br      14.73850381       0.00000000      29.47700763
Cs      14.73850381       8.84310229       2.94770076
Pb      11.79080305       5.89540153       0.00000000
Br      11.79080305       5.89540153       2.94770076
Br      11.79080305       8.84310229       0.00000000
Br      14.73850381       5.89540153       0.00000000
Cs      14.73850381       8.84310229       8.84310229
Pb      11.79080305       5.89540153       5.89540153
Br      11.79080305       5.89540153       8.84310229
Br      11.79080305       8.84310229       5.89540153
Br      14.73850381       5.89540153       5.89540153
Cs      14.73850381       8.84310229      14.73850381
Pb      11.79080305       5.89540153      11.79080305
Br      11.79080305       5.89540153      14.73850381
Br      11.79080305       8.84310229      11.79080305
Br      14.73850381       5.89540153      11.79080305
Cs      14.73850381       8.84310229      20.63390534
Pb      11.79080305       5.89540153      17.68620458
Br      11.79080305       5.89540153      20.63390534
Br      11.79080305       8.84310229      17.68620458
Br      14.73850381       5.89540153      17.68620458
Cs      14.73850381       8.84310229      26.52930687
Pb      11.79080305       5.89540153      23.58160610
Br      11.79080305       5.89540153      26.52930687
Br      11.79080305       8.84310229      23.58160610
Br      14.73850381       5.89540153      23.58160610
Cs      14.73850381       8.84310229      32.42470839
Pb      11.79080305       5.89540153      29.47700763
Br      11.79080305       5.89540153      32.42470839
Br      11.79080305       8.84310229      29.47700763
Br      14.73850381       5.89540153      29.47700763
Cs      14.73850381      14.73850381       2.94770076
Pb      11.79080305      11.79080305       0.00000000
Br      11.79080305      11.79080305       2.94770076
Br      11.79080305      14.73850381       0.00000000
Br      14.73850381      11.79080305       0.00000000
Cs      14.73850381      14.73850381       8.84310229
Pb      11.79080305      11.79080305       5.89540153
Br      11.79080305      11.79080305       8.84310229
Br      11.79080305      14.73850381       5.89540153
Br      14.73850381      11.79080305       5.89540153
Cs      14.73850381      14.73850381      14.73850381
Pb      11.79080305      11.79080305      11.79080305
Br      11.79080305      11.79080305      14.73850381
Br      11.79080305      14.73850381      11.79080305
Br      14.73850381      11.79080305      11.79080305
Cs      14.73850381      14.73850381      20.63390534
Pb      11.79080305      11.79080305      17.68620458
Br      11.79080305      11.79080305      20.63390534
Br      11.79080305      14.73850381      17.68620458
Br      14.73850381      11.79080305      17.68620458
Cs      14.73850381      14.73850381      26.52930687
Pb      11.79080305      11.79080305      23.58160610
Br      11.79080305      11.79080305      26.52930687
Br      11.79080305      14.73850381      23.58160610
Br      14.73850381      11.79080305      23.58160610
Cs      14.73850381      14.73850381      32.42470839
Pb      11.79080305      11.79080305      29.47700763
Br      11.79080305      11.79080305      32.42470839
Br      11.79080305      14.73850381      29.47700763
Br      14.73850381      11.79080305      29.47700763
Cs      14.73850381      20.63390534       2.94770076
Pb      11.79080305      17.68620458       0.00000000
Br      11.79080305      17.68620458       2.94770076
Br      11.79080305      20.63390534       0.00000000
Br      14.73850381      17.68620458       0.00000000
Cs      14.73850381      20.63390534       8.84310229
Pb      11.79080305      17.68620458       5.89540153
Br      11.79080305      17.68620458       8.84310229
Br      11.79080305      20.63390534       5.89540153
Br      14.73850381      17.68620458       5.89540153
Cs      14.73850381      20.63390534      14.73850381
Pb      11.79080305      17.68620458      11.79080305
Br      11.79080305      17.68620458      14.73850381
Br      11.79080305      20.63390534      11.79080305
Br      14.73850381      17.68620458      11.79080305
Cs      14.73850381      20.63390534      20.63390534
Pb      11.79080305      17.68620458      17.68620458
Br      11.79080305      17.68620458      20.63390534
Br      11.79080305      20.63390534      17.68620458
Br      14.73850381      17.68620458      17.68620458
Cs      14.73850381      20.63390534      26.52930687
Pb      11.79080305      17.68620458      23.58160610
Br      11.79080305      17.68620458      26.52930687
Br      11.79080305      20.63390534      23.58160610
Br      14.73850381      17.68620458      23.58160610
Cs      14.73850381      20.63390534      32.42470839
Pb      11.79080305      17.68620458      29.47700763
Br      11.79080305      17.68620458      32.42470839
Br      11.79080305      20.63390534      29.47700763
Br      14.73850381      17.68620458      29.47700763
Cs      14.73850381      26.52930687       2.94770076
Pb      11.79080305      23.58160610       0.00000000
Br      11.79080305      23.58160610       2.94770076
Br      11.79080305      26.52930687       0.00000000
Br      14.73850381      23.58160610       0.00000000
Cs      14.73850381      26.52930687       8.84310229
Pb      11.79080305      23.58160610       5.89540153
Br      11.79080305      23.58160610       8.84310229
Br      11.79080305      26.52930687       5.89540153
Br      14.73850381      23.58160610       5.89540153
Cs      14.73850381      26.52930687      14.73850381
Pb      11.79080305      23.58160610      11.79080305
Br      11.79080305      23.58160610      14.73850381
Br      11.79080305      26.52930687      11.79080305
Br      14.73850381      23.58160610      11.79080305
Cs      14.73850381      26.52930687      20.63390534
Pb      11.79080305      23.58160610      17.68620458
Br      11.79080305      23.58160610      20.63390534
Br      11.79080305      26.52930687      17.68620458
Br      14.73850381      23.58160610      17.68620458
Cs      14.73850381      26.52930687      26.52930687
Pb      11.79080305      23.58160610      23.58160610
Br      11.79080305      23.58160610      26.52930687
Br      11.79080305      26.52930687      23.58160610
Br      14.73850381      23.58160610      23.58160610
Cs      14.73850381      26.52930687      32.42470839
Pb      11.79080305      23.58160610      29.47700763
Br      11.79080305      23.58160610      32.42470839
Br      11.79080305      26.52930687      29.47700763
Br      14.73850381      23.58160610      29.47700763
Cs      14.73850381      32.42470839       2.94770076
Pb      11.79080305      29.47700763       0.00000000
Br      11.79080305      29.47700763       2.94770076
Br      11.79080305      32.42470839       0.00000000
Br      14.73850381      29.47700763       0.00000000
Cs      14.73850381      32.42470839       8.84310229
Pb      11.79080305      29.47700763       5.89540153
Br      11.79080305      29.47700763       8.84310229
Br      11.79080305      32.42470839       5.89540153
Br      14.73850381      29.47700763       5.89540153
Cs      14.73850381      32.42470839      14.73850381
Pb      11.79080305      29.47700763      11.79080305
Br      11.79080305      29.47700763      14.73850381
Br      11.79080305      32.42470839      11.79080305
Br      14.73850381      29.47700763      11.79080305
Cs      14.73850381      32.42470839      20.63390534
Pb      11.79080305      29.47700763      17.68620458
Br      11.79080305      29.47700763      20.63390534
Br      11.79080305      32.42470839      17.68620458
Br      14.73850381      29.47700763      17.68620458
Cs      14.73850381      32.42470839      26.52930687
Pb      11.79080305      29.47700763      23.58160610
Br      11.79080305      29.47700763      26.52930687
Br      11.79080305      32.42470839      23.58160610
Br      14.73850381      29.47700763      23.58160610
Cs      14.73850381      32.42470839      32.42470839
Pb      11.79080305      29.47700763      29.47700763
Br      11.79080305      29.47700763      32.42470839
Br      11.79080305      32.42470839      29.47700763
Br      14.73850381      29.47700763      29.47700763
Cs      20.63390534       2.94770076       2.94770076
Pb      17.68620458       0.00000000       0.00000000
Br      17.68620458       0.00000000       2.94770076
Br      17.68620458       2.94770076       0.00000000
Br      20.63390534       0.00000000       0.00000000
Cs      20.63390534       2.94770076       8.84310229
Pb      17.68620458       0.00000000       5.89540153
Br      17.68620458       0.00000000       8.84310229
Br      17.68620458       2.94770076       5.89540153
Br      20.63390534       0.00000000       5.89540153
Cs      20.63390534       2.94770076      14.73850381
Pb      17.68620458       0.00000000      11.79080305
Br      17.68620458       0.00000000      14.73850381
Br      17.68620458       2.94770076      11.79080305
Br      20.63390534       0.00000000      11.79080305
Cs      20.63390534       2.94770076      20.63390534
Pb      17.68620458       0.00000000      17.68620458
Br      17.68620458       0.00000000      20.63390534
Br      17.68620458       2.94770076      17.68620458
Br      20.63390534       0.00000000      17.68620458
Cs      20.63390534       2.94770076      26.52930687
Pb      17.68620458       0.00000000      23.58160610
Br      17.68620458       0.00000000      26.52930687
Br      17.68620458       2.94770076      23.58160610
Br      20.63390534       0.00000000      23.58160610
Cs      20.63390534       2.94770076      32.42470839
Pb      17.68620458       0.00000000      29.47700763
Br      17.68620458       0.00000000      32.42470839
Br      17.68620458       2.94770076      29.47700763
Br      20.63390534       0.00000000      29.47700763
Cs      20.63390534       8.84310229       2.94770076
Pb      17.68620458       5.89540153       0.00000000
Br      17.68620458       5.89540153       2.94770076
Br      17.68620458       8.84310229       0.00000000
Br      20.63390534       5.89540153       0.00000000
Cs      20.63390534       8.84310229       8.84310229
Pb      17.68620458       5.89540153       5.89540153
Br      17.68620458       5.89540153       8.84310229
Br      17.68620458       8.84310229       5.89540153
Br      20.63390534       5.89540153       5.89540153
Cs      20.63390534       8.84310229      14.73850381
Pb      17.68620458       5.89540153      11.79080305
Br      17.68620458       5.89540153      14.73850381
Br      17.68620458       8.84310229      11.79080305
Br      20.63390534       5.89540153      11.79080305
Cs      20.63390534       8.84310229      20.63390534
Pb      17.68620458       5.89540153      17.68620458
Br      17.68620458       5.89540153      20.63390534
Br      17.68620458       8.84310229      17.68620458
Br      20.63390534       5.89540153      17.68620458
Cs      20.63390534       8.84310229      26.52930687
Pb      17.68620458       5.89540153      23.58160610
Br      17.68620458       5.89540153      26.52930687
Br      17.68620458       8.84310229      23.58160610
Br      20.63390534       5.89540153      23.58160610
Cs      20.63390534       8.84310229      32.42470839
Pb      17.68620458       5.89540153      29.47700763
Br      17.68620458       5.89540153      32.42470839
Br      17.68620458       8.84310229      29.47700763
Br      20.63390534       5.89540153      29.47700763
Cs      20.63390534      14.73850381       2.94770076
Pb      17.68620458      11.79080305       0.00000000
Br      17.68620458      11.79080305       2.94770076
Br      17.68620458      14.73850381       0.00000000
Br      20.63390534      11.79080305       0.00000000
Cs      20.63390534      14.73850381       8.84310229
Pb      17.68620458      11.79080305       5.89540153
Br      17.68620458      11.79080305       8.84310229
Br      17.68620458      14.73850381       5.89540153
Br      20.63390534      11.79080305       5.89540153
Cs      20.63390534      14.73850381      14.73850381
Pb      17.68620458      11.79080305      11.79080305
Br      17.68620458      11.79080305      14.73850381
Br      17.68620458      14.73850381      11.79080305
Br      20.63390534      11.79080305      11.79080305
Cs      20.63390534      14.73850381      20.63390534
Pb      17.68620458      11.79080305      17.68620458
Br      17.68620458      11.79080305      20.63390534
Br      17.68620458      14.73850381      17.68620458
Br      20.63390534      11.79080305      17.68620458
Cs      20.63390534      14.73850381      26.52930687
Pb      17.68620458      11.79080305      23.58160610
Br      17.68620458      11.79080305      26.52930687
Br      17.68620458      14.73850381      23.58160610
Br      20.63390534      11.79080305      23.58160610
Cs      20.63390534      14.73850381      32.42470839
Pb      17.68620458      11.79080305      29.47700763
Br      17.68620458      11.79080305      32.42470839
Br      17.68620458      14.73850381      29.47700763
Br      20.63390534      11.79080305      29.47700763
Cs      20.63390534      20.63390534       2.94770076
Pb      17.68620458      17.68620458       0.00000000
Br      17.68620458      17.68620458       2.94770076
Br      17.68620458      20.63390534       0.00000000
Br      20.63390534      17.68620458       0.00000000
Cs      20.63390534      20.63390534       8.84310229
Pb      17.68620458      17.68620458       5.89540153
Br      17.68620458      17.68620458       8.84310229
Br      17.68620458      20.63390534       5.89540153
Br      20.63390534      17.68620458       5.89540153
Cs      20.63390534      20.63390534      14.73850381
Pb      17.68620458      17.68620458      11.79080305
Br      17.68620458      17.68620458      14.73850381
Br      17.68620458      20.63390534      11.79080305
Br      20.63390534      17.68620458      11.79080305
Cs      20.63390534      20.63390534      20.63390534
Pb      17.68620458      17.68620458      17.68620458
Br      17.68620458      17.68620458      20.63390534
Br      17.68620458      20.63390534      17.68620458
Br      20.63390534      17.68620458      17.68620458
Cs      20.63390534      20.63390534      26.52930687
Pb      17.68620458      17.68620458      23.58160610
Br      17.68620458      17.68620458      26.52930687
Br      17.68620458      20.63390534      23.58160610
Br      20.63390534      17.68620458      23.58160610
Cs      20.63390534      20.63390534      32.42470839
Pb      17.68620458      17.68620458      29.47700763
Br      17.68620458      17.68620458      32.42470839
Br      17.68620458      20.63390534      29.47700763
Br      20.63390534      17.68620458      29.47700763
Cs      20.63390534      26.52930687       2.94770076
Pb      17.68620458      23.58160610       0.00000000
Br      17.68620458      23.58160610       2.94770076
Br      17.68620458      26.52930687       0.00000000
Br      20.63390534      23.58160610       0.00000000
Cs      20.63390534      26.52930687       8.84310229
Pb      17.68620458      23.58160610       5.89540153
Br      17.68620458      23.58160610       8.84310229
Br      17.68620458      26.52930687       5.89540153
Br      20.63390534      23.58160610       5.89540153
Cs      20.63390534      26.52930687      14.73850381
Pb      17.68620458      23.58160610      11.79080305
Br      17.68620458      23.58160610      14.73850381
Br      17.68620458      26.52930687      11.79080305
Br      20.63390534      23.58160610      11.79080305
Cs      20.63390534      26.52930687      20.63390534
Pb      17.68620458      23.58160610      17.68620458
Br      17.68620458      23.58160610      20.63390534
Br      17.68620458      26.52930687      17.68620458
Br      20.63390534      23.58160610      17.68620458
Cs      20.63390534      26.52930687      26.52930687
Pb      17.68620458      23.58160610      23.58160610
Br      17.68620458      23.58160610      26.52930687
Br      17.68620458      26.52930687      23.58160610
Br      20.63390534      23.58160610      23.58160610
Cs      20.63390534      26.52930687      32.42470839
Pb      17.68620458      23.58160610      29.47700763
Br      17.68620458      23.58160610      32.42470839
Br      17.68620458      26.52930687      29.47700763
Br      20.63390534      23.58160610      29.47700763
Cs      20.63390534      32.42470839       2.94770076
Pb      17.68620458      29.47700763       0.00000000
Br      17.68620458      29.47700763       2.94770076
Br      17.68620458      32.42470839       0.00000000
Br      20.63390534      29.47700763       0.00000000
Cs      20.63390534      32.42470839       8.84310229
Pb      17.68620458      29.47700763       5.89540153
Br      17.68620458      29.47700763       8.84310229
Br      17.68620458      32.42470839       5.89540153
Br      20.63390534      29.47700763       5.89540153
Cs      20.63390534      32.42470839      14.73850381
Pb      17.68620458      29.47700763      11.79080305
Br      17.68620458      29.47700763      14.73850381
Br      17.68620458      32.42470839      11.79080305
Br      20.63390534      29.47700763      11.79080305
Cs      20.63390534      32.42470839      20.63390534
Pb      17.68620458      29.47700763      17.68620458
Br      17.68620458      29.47700763      20.63390534
Br      17.68620458      32.42470839      17.68620458
Br      20.63390534      29.47700763      17.68620458
Cs      20.63390534      32.42470839      26.52930687
Pb      17.68620458      29.47700763      23.58160610
Br      17.68620458      29.47700763      26.52930687
Br      17.68620458      32.42470839      23.58160610
Br      20.63390534      29.47700763      23.58160610
Cs      20.63390534      32.42470839      32.42470839
Pb      17.68620458      29.47700763      29.47700763
Br      17.68620458      29.47700763      32.42470839
Br      17.68620458      32.42470839      29.47700763
Br      20.63390534      29.47700763      29.47700763
Cs      26.52930687       2.94770076       2.94770076
Pb      23.58160610       0.00000000       0.00000000
Br      23.58160610       0.00000000       2.94770076
Br      23.58160610       2.94770076       0.00000000
Br      26.52930687       0.00000000       0.00000000
Cs      26.52930687       2.94770076       8.84310229
Pb      23.58160610       0.00000000       5.89540153
Br      23.58160610       0.00000000       8.84310229
Br      23.58160610       2.94770076       5.89540153
Br      26.52930687       0.00000000       5.89540153
Cs      26.52930687       2.94770076      14.73850381
Pb      23.58160610       0.00000000      11.79080305
Br      23.58160610       0.00000000      14.73850381
Br      23.58160610       2.94770076      11.79080305
Br      26.52930687       0.00000000      11.79080305
Cs      26.52930687       2.94770076      20.63390534
Pb      23.58160610       0.00000000      17.68620458
Br      23.58160610       0.00000000      20.63390534
Br      23.58160610       2.94770076      17.68620458
Br      26.52930687       0.00000000      17.68620458
Cs      26.52930687       2.94770076      26.52930687
Pb      23.58160610       0.00000000      23.58160610
Br      23.58160610       0.00000000      26.52930687
Br      23.58160610       2.94770076      23.58160610
Br      26.52930687       0.00000000      23.58160610
Cs      26.52930687       2.94770076      32.42470839
Pb      23.58160610       0.00000000      29.47700763
Br      23.58160610       0.00000000      32.42470839
Br      23.58160610       2.94770076      29.47700763
Br      26.52930687       0.00000000      29.47700763
Cs      26.52930687       8.84310229       2.94770076
Pb      23.58160610       5.89540153       0.00000000
Br      23.58160610       5.89540153       2.94770076
Br      23.58160610       8.84310229       0.00000000
Br      26.52930687       5.89540153       0.00000000
Cs      26.52930687       8.84310229       8.84310229
Pb      23.58160610       5.89540153       5.89540153
Br      23.58160610       5.89540153       8.84310229
Br      23.58160610       8.84310229       5.89540153
Br      26.52930687       5.89540153       5.89540153
Cs      26.52930687       8.84310229      14.73850381
Pb      23.58160610       5.89540153      11.79080305
Br      23.58160610       5.89540153      14.73850381
Br      23.58160610       8.84310229      11.79080305
Br      26.52930687       5.89540153      11.79080305
Cs      26.52930687       8.84310229      20.63390534
Pb      23.58160610       5.89540153      17.68620458
Br      23.58160610       5.89540153      20.63390534
Br      23.58160610       8.84310229      17.68620458
Br      26.52930687       5.89540153      17.68620458
Cs      26.52930687       8.84310229      26.52930687
Pb      23.58160610       5.89540153      23.58160610
Br      23.58160610       5.89540153      26.52930687
Br      23.58160610       8.84310229      23.58160610
Br      26.52930687       5.89540153      23.58160610
Cs      26.52930687       8.84310229      32.42470839
Pb      23.58160610       5.89540153      29.47700763
Br      23.58160610       5.89540153      32.42470839
Br      23.58160610       8.84310229      29.47700763
Br      26.52930687       5.89540153      29.47700763
Cs      26.52930687      14.73850381       2.94770076
Pb      23.58160610      11.79080305       0.00000000
Br      23.58160610      11.79080305       2.94770076
Br      23.58160610      14.73850381       0.00000000
Br      26.52930687      11.79080305       0.00000000
Cs      26.52930687      14.73850381       8.84310229
Pb      23.58160610      11.79080305       5.89540153
Br      23.58160610      11.79080305       8.84310229
Br      23.58160610      14.73850381       5.89540153
Br      26.52930687      11.79080305       5.89540153
Cs      26.52930687      14.73850381      14.73850381
Pb      23.58160610      11.79080305      11.79080305
Br      23.58160610      11.79080305      14.73850381
Br      23.58160610      14.73850381      11.79080305
Br      26.52930687      11.79080305      11.79080305
Cs      26.52930687      14.73850381      20.63390534
Pb      23.58160610      11.79080305      17.68620458
Br      23.58160610      11.79080305      20.63390534
Br      23.58160610      14.73850381      17.68620458
Br      26.52930687      11.79080305      17.68620458
Cs      26.52930687      14.73850381      26.52930687
Pb      23.58160610      11.79080305      23.58160610
Br      23.58160610      11.79080305      26.52930687
Br      23.58160610      14.73850381      23.58160610
Br      26.52930687      11.79080305      23.58160610
Cs      26.52930687      14.73850381      32.42470839
Pb      23.58160610      11.79080305      29.47700763
Br      23.58160610      11.79080305      32.42470839
Br      23.58160610      14.73850381      29.47700763
Br      26.52930687      11.79080305      29.47700763
Cs      26.52930687      20.63390534       2.94770076
Pb      23.58160610      17.68620458       0.00000000
Br      23.58160610      17.68620458       2.94770076
Br      23.58160610      20.63390534       0.00000000
Br      26.52930687      17.68620458       0.00000000
Cs      26.52930687      20.63390534       8.84310229
Pb      23.58160610      17.68620458       5.89540153
Br      23.58160610      17.68620458       8.84310229
Br      23.58160610      20.63390534       5.89540153
Br      26.52930687      17.68620458       5.89540153
Cs      26.52930687      20.63390534      14.73850381
Pb      23.58160610      17.68620458      11.79080305
Br      23.58160610      17.68620458      14.73850381
Br      23.58160610      20.63390534      11.79080305
Br      26.52930687      17.68620458      11.79080305
Cs      26.52930687      20.63390534      20.63390534
Pb      23.58160610      17.68620458      17.68620458
Br      23.58160610      17.68620458      20.63390534
Br      23.58160610      20.63390534      17.68620458
Br      26.52930687      17.68620458      17.68620458
Cs      26.52930687      20.63390534      26.52930687
Pb      23.58160610      17.68620458      23.58160610
Br      23.58160610      17.68620458      26.52930687
Br      23.58160610      20.63390534      23.58160610
Br      26.52930687      17.68620458      23.58160610
Cs      26.52930687      20.63390534      32.42470839
Pb      23.58160610      17.68620458      29.47700763
Br      23.58160610      17.68620458      32.42470839
Br      23.58160610      20.63390534      29.47700763
Br      26.52930687      17.68620458      29.47700763
Cs      26.52930687      26.52930687       2.94770076
Pb      23.58160610      23.58160610       0.00000000
Br      23.58160610      23.58160610       2.94770076
Br      23.58160610      26.52930687       0.00000000
Br      26.52930687      23.58160610       0.00000000
Cs      26.52930687      26.52930687       8.84310229
Pb      23.58160610      23.58160610       5.89540153
Br      23.58160610      23.58160610       8.84310229
Br      23.58160610      26.52930687       5.89540153
Br      26.52930687      23.58160610       5.89540153
Cs      26.52930687      26.52930687      14.73850381
Pb      23.58160610      23.58160610      11.79080305
Br      23.58160610      23.58160610      14.73850381
Br      23.58160610      26.52930687      11.79080305
Br      26.52930687      23.58160610      11.79080305
Cs      26.52930687      26.52930687      20.63390534
Pb      23.58160610      23.58160610      17.68620458
Br      23.58160610      23.58160610      20.63390534
Br      23.58160610      26.52930687      17.68620458
Br      26.52930687      23.58160610      17.68620458
Cs      26.52930687      26.52930687      26.52930687
Pb      23.58160610      23.58160610      23.58160610
Br      23.58160610      23.58160610      26.52930687
Br      23.58160610      26.52930687      23.58160610
Br      26.52930687      23.58160610      23.58160610
Cs      26.52930687      26.52930687      32.42470839
Pb      23.58160610      23.58160610      29.47700763
Br      23.58160610      23.58160610      32.42470839
Br      23.58160610      26.52930687      29.47700763
Br      26.52930687      23.58160610      29.47700763
Cs      26.52930687      32.42470839       2.94770076
Pb      23.58160610      29.47700763       0.00000000
Br      23.58160610      29.47700763       2.94770076
Br      23.58160610      32.42470839       0.00000000
Br      26.52930687      29.47700763       0.00000000
Cs      26.52930687      32.42470839       8.84310229
Pb      23.58160610      29.47700763       5.89540153
Br      23.58160610      29.47700763       8.84310229
Br      23.58160610      32.42470839       5.89540153
Br      26.52930687      29.47700763       5.89540153
Cs      26.52930687      32.42470839      14.73850381
Pb      23.58160610      29.47700763      11.79080305
Br      23.58160610      29.47700763      14.73850381
Br      23.58160610      32.42470839      11.79080305
Br      26.52930687      29.47700763      11.79080305
Cs      26.52930687      32.42470839      20.63390534
Pb      23.58160610      29.47700763      17.68620458
Br      23.58160610      29.47700763      20.63390534
Br      23.58160610      32.42470839      17.68620458
Br      26.52930687      29.47700763      17.68620458
Cs      26.52930687      32.42470839      26.52930687
Pb      23.58160610      29.47700763      23.58160610
Br      23.58160610      29.47700763      26.52930687
Br      23.58160610      32.42470839      23.58160610
Br      26.52930687      29.47700763      23.58160610
Cs      26.52930687      32.42470839      32.42470839
Pb      23.58160610      29.47700763      29.47700763
Br      23.58160610      29.47700763      32.42470839
Br      23.58160610      32.42470839      29.47700763
Br      26.52930687      29.47700763      29.47700763
Cs      32.42470839       2.94770076       2.94770076
Pb      29.47700763       0.00000000       0.00000000
Br      29.47700763       0.00000000       2.94770076
Br      29.47700763       2.94770076       0.00000000
Br      32.42470839       0.00000000       0.00000000
Cs      32.42470839       2.94770076       8.84310229
Pb      29.47700763       0.00000000       5.89540153
Br      29.47700763       0.00000000       8.84310229
Br      29.47700763       2.94770076       5.89540153
Br      32.42470839       0.00000000       5.89540153
Cs      32.42470839       2.94770076      14.73850381
Pb      29.47700763       0.00000000      11.79080305
Br      29.47700763       0.00000000      14.73850381
Br      29.47700763       2.94770076      11.79080305
Br      32.42470839       0.00000000      11.79080305
Cs      32.42470839       2.94770076      20.63390534
Pb      29.47700763       0.00000000      17.68620458
Br      29.47700763       0.00000000      20.63390534
Br      29.47700763       2.94770076      17.68620458
Br      32.42470839       0.00000000      17.68620458
Cs      32.42470839       2.94770076      26.52930687
Pb      29.47700763       0.00000000      23.58160610
Br      29.47700763       0.00000000      26.52930687
Br      29.47700763       2.94770076      23.58160610
Br      32.42470839       0.00000000      23.58160610
Cs      32.42470839       2.94770076      32.42470839
Pb      29.47700763       0.00000000      29.47700763
Br      29.47700763       0.00000000      32.42470839
Br      29.47700763       2.94770076      29.47700763
Br      32.42470839       0.00000000      29.47700763
Cs      32.42470839       8.84310229       2.94770076
Pb      29.47700763       5.89540153       0.00000000
Br      29.47700763       5.89540153       2.94770076
Br      29.47700763       8.84310229       0.00000000
Br      32.42470839       5.89540153       0.00000000
Cs      32.42470839       8.84310229       8.84310229
Pb      29.47700763       5.89540153       5.89540153
Br      29.47700763       5.89540153       8.84310229
Br      29.47700763       8.84310229       5.89540153
Br      32.42470839       5.89540153       5.89540153
Cs      32.42470839       8.84310229      14.73850381
Pb      29.47700763       5.89540153      11.79080305
Br      29.47700763       5.89540153      14.73850381
Br      29.47700763       8.84310229      11.79080305
Br      32.42470839       5.89540153      11.79080305
Cs      32.42470839       8.84310229      20.63390534
Pb      29.47700763       5.89540153      17.68620458
Br      29.47700763       5.89540153      20.63390534
Br      29.47700763       8.84310229      17.68620458
Br      32.42470839       5.89540153      17.68620458
Cs      32.42470839       8.84310229      26.52930687
Pb      29.47700763       5.89540153      23.58160610
Br      29.47700763       5.89540153      26.52930687
Br      29.47700763       8.84310229      23.58160610
Br      32.42470839       5.89540153      23.58160610
Cs      32.42470839       8.84310229      32.42470839
Pb      29.47700763       5.89540153      29.47700763
Br      29.47700763       5.89540153      32.42470839
Br      29.47700763       8.84310229      29.47700763
Br      32.42470839       5.89540153      29.47700763
Cs      32.42470839      14.73850381       2.94770076
Pb      29.47700763      11.79080305       0.00000000
Br      29.47700763      11.79080305       2.94770076
Br      29.47700763      14.73850381       0.00000000
Br      32.42470839      11.79080305       0.00000000
Cs      32.42470839      14.73850381       8.84310229
Pb      29.47700763      11.79080305       5.89540153
Br      29.47700763      11.79080305       8.84310229
Br      29.47700763      14.73850381       5.89540153
Br      32.42470839      11.79080305       5.89540153
Cs      32.42470839      14.73850381      14.73850381
Pb      29.47700763      11.79080305      11.79080305
Br      29.47700763      11.79080305      14.73850381
Br      29.47700763      14.73850381      11.79080305
Br      32.42470839      11.79080305      11.79080305
Cs      32.42470839      14.73850381      20.63390534
Pb      29.47700763      11.79080305      17.68620458
Br      29.47700763      11.79080305      20.63390534
Br      29.47700763      14.73850381      17.68620458
Br      32.42470839      11.79080305      17.68620458
Cs      32.42470839      14.73850381      26.52930687
Pb      29.47700763      11.79080305      23.58160610
Br      29.47700763      11.79080305      26.52930687
Br      29.47700763      14.73850381      23.58160610
Br      32.42470839      11.79080305      23.58160610
Cs      32.42470839      14.73850381      32.42470839
Pb      29.47700763      11.79080305      29.47700763
Br      29.47700763      11.79080305      32.42470839
Br      29.47700763      14.73850381      29.47700763
Br      32.42470839      11.79080305      29.47700763
Cs      32.42470839      20.63390534       2.94770076
Pb      29.47700763      17.68620458       0.00000000
Br      29.47700763      17.68620458       2.94770076
Br      29.47700763      20.63390534       0.00000000
Br      32.42470839      17.68620458       0.00000000
Cs      32.42470839      20.63390534       8.84310229
Pb      29.47700763      17.68620458       5.89540153
Br      29.47700763      17.68620458       8.84310229
Br      29.47700763      20.63390534       5.89540153
Br      32.42470839      17.68620458       5.89540153
Cs      32.42470839      20.63390534      14.73850381
Pb      29.47700763      17.68620458      11.79080305
Br      29.47700763      17.68620458      14.73850381
Br      29.47700763      20.63390534      11.79080305
Br      32.42470839      17.68620458      11.79080305
Cs      32.42470839      20.63390534      20.63390534
Pb      29.47700763      17.68620458      17.68620458
Br      29.47700763      17.68620458      20.63390534
Br      29.47700763      20.63390534      17.68620458
Br      32.42470839      17.68620458      17.68620458
Cs      32.42470839      20.63390534      26.52930687
Pb      29.47700763      17.68620458      23.58160610
Br      29.47700763      17.68620458      26.52930687
Br      29.47700763      20.63390534      23.58160610
Br      32.42470839      17.68620458      23.58160610
Cs      32.42470839      20.63390534      32.42470839
Pb      29.47700763      17.68620458      29.47700763
Br      29.47700763      17.68620458      32.42470839
Br      29.47700763      20.63390534      29.47700763
Br      32.42470839      17.68620458      29.47700763
Cs      32.42470839      26.52930687       2.94770076
Pb      29.47700763      23.58160610       0.00000000
Br      29.47700763      23.58160610       2.94770076
Br      29.47700763      26.52930687       0.00000000
Br      32.42470839      23.58160610       0.00000000
Cs      32.42470839      26.52930687       8.84310229
Pb      29.47700763      23.58160610       5.89540153
Br      29.47700763      23.58160610       8.84310229
Br      29.47700763      26.52930687       5.89540153
Br      32.42470839      23.58160610       5.89540153
Cs      32.42470839      26.52930687      14.73850381
Pb      29.47700763      23.58160610      11.79080305
Br      29.47700763      23.58160610      14.73850381
Br      29.47700763      26.52930687      11.79080305
Br      32.42470839      23.58160610      11.79080305
Cs      32.42470839      26.52930687      20.63390534
Pb      29.47700763      23.58160610      17.68620458
Br      29.47700763      23.58160610      20.63390534
Br      29.47700763      26.52930687      17.68620458
Br      32.42470839      23.58160610      17.68620458
Cs      32.42470839      26.52930687      26.52930687
Pb      29.47700763      23.58160610      23.58160610
Br      29.47700763      23.58160610      26.52930687
Br      29.47700763      26.52930687      23.58160610
Br      32.42470839      23.58160610      23.58160610
Cs      32.42470839      26.52930687      32.42470839
Pb      29.47700763      23.58160610      29.47700763
Br      29.47700763      23.58160610      32.42470839
Br      29.47700763      26.52930687      29.47700763
Br      32.42470839      23.58160610      29.47700763
Cs      32.42470839      32.42470839       2.94770076
Pb      29.47700763      29.47700763       0.00000000
Br      29.47700763      29.47700763       2.94770076
Br      29.47700763      32.42470839       0.00000000
Br      32.42470839      29.47700763       0.00000000
Cs      32.42470839      32.42470839       8.84310229
Pb      29.47700763      29.47700763       5.89540153
Br      29.47700763      29.47700763       8.84310229
Br      29.47700763      32.42470839       5.89540153
Br      32.42470839      29.47700763       5.89540153
Cs      32.42470839      32.42470839      14.73850381
Pb      29.47700763      29.47700763      11.79080305
Br      29.47700763      29.47700763      14.73850381
Br      29.47700763      32.42470839      11.79080305
Br      32.42470839      29.47700763      11.79080305
Cs      32.42470839      32.42470839      20.63390534
Pb      29.47700763      29.47700763      17.68620458
Br      29.47700763      29.47700763      20.63390534
Br      29.47700763      32.42470839      17.68620458
Br      32.42470839      29.47700763      17.68620458
Cs      32.42470839      32.42470839      26.52930687
Pb      29.47700763      29.47700763      23.58160610
Br      29.47700763      29.47700763      26.52930687
Br      29.47700763      32.42470839      23.58160610
Br      32.42470839      29.47700763      23.58160610
Cs      32.42470839      32.42470839      32.42470839
Pb      29.47700763      29.47700763      29.47700763
Br      29.47700763      29.47700763      32.42470839
Br      29.47700763      32.42470839      29.47700763
Br      32.42470839      29.47700763      29.47700763
