250
Lattice="5.630590156595793e-16 13.675864941436288 13.675864941436288 13.675864941436288 1.1396860409714565e-15 13.675864941436288 13.675864941436288 13.675864941436288 3.7122012941561975e-16" Properties=species:S:1:pos:R:3:forces:R:3 energy=-1356.1598031360395 stress="-5.192540166177188e-06 -0.00012085619054502574 -6.080650600161963e-17 -0.00012085619054502574 -5.1925401661891925e-06 1.489829592042538e-17 -6.080650600161963e-17 1.489829592042538e-17 7.711195482439253e-07" pbc="T T T"
Si       0.00000000       0.00000000       0.00000000      -0.06559843      -0.06559843      -0.09403109
Si       1.36758649       1.36758649       1.36758649      -0.00000000      -0.00000000       0.38473468
Si       2.73517299       2.73517299       0.00000000       0.06545408       0.06545408      -0.09396055
Si       4.10275948       4.10275948       1.36758649      -0.00216256      -0.00216256       0.01088157
Si       5.47034598       5.47034598       0.00000000      -0.00024635      -0.00024635      -0.00269612
Si       6.83793247       6.83793247       1.36758649      -0.00010687      -0.00010687       0.00107668
Si       8.20551896       8.20551896       0.00000000      -0.00098829      -0.00098829      -0.00011660
Si       9.57310546       9.57310546       1.36758649       0.00000653       0.00000653       0.00122123
Si      10.94069195      10.94069195       0.00000000       0.00137900       0.00137900      -0.00274217
Si      12.30827845      12.30827845       1.36758649       0.00226290       0.00226290       0.01154855
Si       2.73517299       0.00000000       2.73517299      -0.06033786       0.06033786      -0.09119106
Si       4.10275948       1.36758649       4.10275948      -0.00520627       0.00213069      -0.00624841
Si       5.47034598       2.73517299       2.73517299       0.00092606      -0.00195307       0.00117601
Si       6.83793247       4.10275948       4.10275948       0.00062336       0.00068230      -0.00030890
Si       8.20551896       5.47034598       2.73517299      -0.00000913       0.00009652      -0.00032630
Si       9.57310546       6.83793247       4.10275948      -0.00008182       0.00006984      -0.00022345
Si      10.94069195       8.20551896       2.73517299       0.00012863       0.00015290       0.00009351
Si      12.30827845       9.57310546       4.10275948      -0.00075214      -0.00054154      -0.00053235
Si      13.67586494      10.94069195       2.73517299       0.00181209      -0.00115399       0.00094106
Si      15.04345144      12.30827845       4.10275948      -0.00213069       0.00520627      -0.00624841
Si       5.47034598       0.00000000       5.47034598      -0.00115716      -0.00021361      -0.00078525
Si       6.83793247       1.36758649       6.83793247       0.00053991      -0.00061528      -0.00038547
Si       8.20551896       2.73517299       5.47034598      -0.00017771       0.00009038      -0.00027054
Si       9.57310546       4.10275948       6.83793247       0.00002678       0.00006929      -0.00002398
Si      10.94069195       5.47034598       5.47034598      -0.00000000      -0.00000000       0.00000000
Si      12.30827845       6.83793247       6.83793247       0.00000000       0.00000000       0.00000000
Si      13.67586494       8.20551896       5.47034598       0.00004471       0.00013724      -0.00013466
Si      15.04345144       9.57310546       6.83793247      -0.00008170       0.00012011      -0.00008110
Si      16.41103793      10.94069195       5.47034598       0.00022108       0.00105508      -0.00083670
Si      17.77862442      12.30827845       6.83793247       0.00125251      -0.00131161       0.00034953
Si       8.20551896       0.00000000       8.20551896      -0.00191926      -0.00101068       0.00119394
Si       9.57310546       1.36758649       9.57310546      -0.00016803      -0.00000172      -0.00022038
Si      10.94069195       2.73517299       8.20551896       0.00013956       0.00015126       0.00005844
Si      12.30827845       4.10275948       9.57310546       0.00008816      -0.00019885       0.00068481
Si      13.67586494       5.47034598       8.20551896      -0.00024129       0.00013085      -0.00022724
Si      15.04345144       6.83793247       9.57310546       0.00008100       0.00019540      -0.00005327
Si      16.41103793       8.20551896       8.20551896       0.00009003      -0.00027042       0.00028568
Si      17.77862442       9.57310546       9.57310546       0.00000410      -0.00000006      -0.00014386
Si      19.14621092      10.94069195       8.20551896       0.00101068       0.00191926       0.00119394
Si      20.51379741      12.30827845       9.57310546      -0.00206026       0.00206026       0.01069130
Si      10.94069195       0.00000000      10.94069195      -0.00303974       0.00129484       0.00045112
Si      12.30827845       1.36758649      12.30827845      -0.00461012      -0.00146671      -0.00651943
Si      13.67586494       2.73517299      10.94069195       0.00090900      -0.00119053      -0.00032464
Si      15.04345144       4.10275948      12.30827845       0.00209007       0.00529242      -0.00621054
Si      16.41103793       5.47034598      10.94069195      -0.00013172       0.00113113      -0.00081623
Si      17.77862442       6.83793247      12.30827845      -0.00130483      -0.00078466      -0.00062587
Si      19.14621092       8.20551896      10.94069195      -0.00092606       0.00195307       0.00117601
Si      20.51379741       9.57310546      12.30827845       0.00520627      -0.00213069      -0.00624841
Si      21.88138391      10.94069195      10.94069195       0.06033786      -0.06033786      -0.09119106
Si      23.24897040      12.30827845      12.30827845       0.00223305      -0.00452481      -0.00656539
Si       0.00000000       2.73517299       2.73517299       0.06033786      -0.06033786      -0.09119106
Si       1.36758649       4.10275948       4.10275948       0.00213069      -0.00520627      -0.00624841
Si       2.73517299       5.47034598       2.73517299      -0.00195307       0.00092606       0.00117601
Si       4.10275948       6.83793247       4.10275948       0.00068230       0.00062336      -0.00030890
Si       5.47034598       8.20551896       2.73517299       0.00009652      -0.00000913      -0.00032630
Si       6.83793247       9.57310546       4.10275948       0.00006984      -0.00008182      -0.00022345
Si       8.20551896      10.94069195       2.73517299       0.00015290       0.00012863       0.00009351
Si       9.57310546      12.30827845       4.10275948      -0.00054154      -0.00075214      -0.00053235
Si      10.94069195      13.67586494       2.73517299      -0.00115399       0.00181209       0.00094106
Si      12.30827845      15.04345144       4.10275948       0.00520627      -0.00213069      -0.00624841
Si       2.73517299       2.73517299       5.47034598       0.00098829       0.00098829      -0.00011660
Si       4.10275948       4.10275948       6.83793247       0.00010034       0.00010034       0.00066698
Si       5.47034598       5.47034598       5.47034598      -0.00014436      -0.00014436      -0.00007054
Si       6.83793247       6.83793247       6.83793247       0.00000000      -0.00000000       0.00000000
Si       8.20551896       8.20551896       5.47034598      -0.00000000      -0.00000000      -0.00000000
Si       9.57310546       9.57310546       6.83793247       0.00000000      -0.00000000       0.00000000
Si      10.94069195      10.94069195       5.47034598       0.00014436       0.00014436      -0.00007054
Si      12.30827845      12.30827845       6.83793247      -0.00010034      -0.00010034       0.00066698
Si      13.67586494      13.67586494       5.47034598      -0.00098829      -0.00098829      -0.00011660
Si      15.04345144      15.04345144       6.83793247       0.00000000       0.00000000       0.00081152
Si       5.47034598       2.73517299       8.20551896      -0.00018172       0.00000421      -0.00032320
Si       6.83793247       4.10275948       9.57310546      -0.00002677       0.00008144       0.00002212
Si       8.20551896       5.47034598       8.20551896      -0.00000000      -0.00000000      -0.00000000
Si       9.57310546       6.83793247       9.57310546      -0.00000000       0.00000000      -0.00000000
Si      10.94069195       8.20551896       8.20551896       0.00000000      -0.00000000      -0.00000000
Si      12.30827845       9.57310546       9.57310546      -0.00000000      -0.00000000      -0.00000000
Si      13.67586494      10.94069195       8.20551896       0.00022793       0.00014098      -0.00023495
Si      15.04345144      12.30827845       9.57310546      -0.00016326       0.00009662      -0.00020134
Si      16.41103793      13.67586494       8.20551896      -0.00014797      -0.00004343       0.00009661
Si      17.77862442      15.04345144       9.57310546      -0.00007352       0.00008550       0.00018473
Si       8.20551896       2.73517299      10.94069195       0.00012996       0.00013738       0.00015069
Si       9.57310546       4.10275948      12.30827845       0.00065501      -0.00075809      -0.00035281
Si      10.94069195       5.47034598      10.94069195      -0.00014256       0.00014256      -0.00008442
Si      12.30827845       6.83793247      12.30827845       0.00068680      -0.00062769      -0.00032835
Si      13.67586494       8.20551896      10.94069195      -0.00004047       0.00013509      -0.00013587
Si      15.04345144       9.57310546      12.30827845       0.00009807       0.00004197      -0.00004843
Si      16.41103793      10.94069195      10.94069195      -0.00009690      -0.00026505       0.00028657
Si      17.77862442      12.30827845      12.30827845      -0.00011260       0.00068803      -0.00031928
Si      19.14621092      13.67586494      10.94069195      -0.00033864       0.00033864      -0.00258830
Si      20.51379741      15.04345144      12.30827845      -0.00075731       0.00008583      -0.00034326
Si      10.94069195       2.73517299      13.67586494       0.00096597       0.00178202       0.00105928
Si      12.30827845       4.10275948      15.04345144      -0.00206026       0.00206026       0.01069130
Si      13.67586494       5.47034598      13.67586494      -0.00191926      -0.00101068       0.00119394
Si      15.04345144       6.83793247      15.04345144       0.00000006      -0.00000410      -0.00014386
Si      16.41103793       8.20551896      13.67586494       0.00040766      -0.00004533       0.00015101
Si      17.77862442       9.57310546      15.04345144       0.00011957      -0.00009579      -0.00003387
Si      19.14621092      10.94069195      13.67586494       0.00101461       0.00035616      -0.00070083
Si      20.51379741      12.30827845      15.04345144      -0.00054144       0.00065213       0.00070113
Si      21.88138391      13.67586494      13.67586494      -0.00026613      -0.00128502      -0.00041515
Si      23.24897040      15.04345144      15.04345144       0.00001652      -0.00014694      -0.00020098
Si       0.00000000       5.47034598       5.47034598      -0.00021361      -0.00115716      -0.00078525
Si       1.36758649       6.83793247       6.83793247      -0.00061528       0.00053991      -0.00038547
Si       2.73517299       8.20551896       5.47034598       0.00009038      -0.00017771      -0.00027054
Si       4.10275948       9.57310546       6.83793247       0.00006929       0.00002678      -0.00002398
Si       5.47034598      10.94069195       5.47034598       0.00000000       0.00000000       0.00000000
Si       6.83793247      12.30827845       6.83793247       0.00000000      -0.00000000       0.00000000
Si       8.20551896      13.67586494       5.47034598       0.00013724       0.00004471      -0.00013466
Si       9.57310546      15.04345144       6.83793247       0.00012011      -0.00008170      -0.00008110
Si      10.94069195      16.41103793       5.47034598       0.00105508       0.00022108      -0.00083670
Si      12.30827845      17.77862442       6.83793247      -0.00131161       0.00125251       0.00034953
Si       2.73517299       5.47034598       8.20551896       0.00000421      -0.00018172      -0.00032320
Si       4.10275948       6.83793247       9.57310546       0.00008144      -0.00002677       0.00002212
Si       5.47034598       8.20551896       8.20551896      -0.00000000      -0.00000000      -0.00000000
Si       6.83793247       9.57310546       9.57310546       0.00000000      -0.00000000      -0.00000000
Si       8.20551896      10.94069195       8.20551896      -0.00000000       0.00000000      -0.00000000
Si       9.57310546      12.30827845       9.57310546      -0.00000000       0.00000000      -0.00000000
Si      10.94069195      13.67586494       8.20551896       0.00014098       0.00022793      -0.00023495
Si      12.30827845      15.04345144       9.57310546       0.00009662      -0.00016326      -0.00020134
Si      13.67586494      16.41103793       8.20551896      -0.00004343      -0.00014797       0.00009661
Si      15.04345144      17.77862442       9.57310546       0.00008550      -0.00007352       0.00018473
Si       5.47034598       5.47034598      10.94069195       0.00000000      -0.00000000       0.00000000
Si       6.83793247       6.83793247      12.30827845       0.00000000       0.00000000       0.00000000
Si       8.20551896       8.20551896      10.94069195      -0.00000000      -0.00000000       0.00000000
Si       9.57310546       9.57310546      12.30827845      -0.00000000       0.00000000      -0.00000000
Si      10.94069195      10.94069195      10.94069195       0.00000000       0.00000000       0.00000000
Si      12.30827845      12.30827845      12.30827845      -0.00000000      -0.00000000       0.00000000
Si      13.67586494      13.67586494      10.94069195       0.00000000      -0.00000000       0.00000000
Si      15.04345144      15.04345144      12.30827845       0.00000000       0.00000000      -0.00000000
Si      16.41103793      16.41103793      10.94069195      -0.00000000      -0.00000000       0.00000000
Si      17.77862442      17.77862442      12.30827845      -0.00000000      -0.00000000      -0.00000000
Si       8.20551896       5.47034598      13.67586494      -0.00023213       0.00004074      -0.00008825
Si       9.57310546       6.83793247      15.04345144      -0.00008659      -0.00006698       0.00018077
Si      10.94069195       8.20551896      13.67586494      -0.00004074       0.00023213      -0.00008825
Si      12.30827845       9.57310546      15.04345144       0.00004388       0.00016435      -0.00020530
Si      13.67586494      10.94069195      13.67586494      -0.00000000       0.00000000       0.00000000
Si      15.04345144      12.30827845      15.04345144       0.00000000       0.00000000       0.00000000
Si      16.41103793      13.67586494      13.67586494      -0.00000000       0.00000000      -0.00000000
Si      17.77862442      15.04345144      15.04345144      -0.00000000      -0.00000000       0.00000000
Si      19.14621092      16.41103793      13.67586494       0.00000000       0.00000000      -0.00000000
Si      20.51379741      17.77862442      15.04345144      -0.00008144       0.00002677       0.00002212
Si      10.94069195       5.47034598      16.41103793      -0.00009734       0.00020778      -0.00281554
Si      12.30827845       6.83793247      17.77862442      -0.00080350       0.00022808       0.00034228
Si      13.67586494       8.20551896      16.41103793       0.00039591      -0.00014439       0.00005933
Si      15.04345144       9.57310546      17.77862442       0.00019541      -0.00007367      -0.00010098
Si      16.41103793      10.94069195      16.41103793      -0.00000000       0.00000000      -0.00000000
Si      17.77862442      12.30827845      17.77862442      -0.00000000      -0.00000000      -0.00000000
Si      19.14621092      13.67586494      16.41103793       0.00000000       0.00000000      -0.00000000
Si      20.51379741      15.04345144      17.77862442       0.00007129      -0.00002732      -0.00002446
Si      21.88138391      16.41103793      16.41103793      -0.00009690      -0.00026505       0.00028657
Si      23.24897040      17.77862442      17.77862442      -0.00011022       0.00051994      -0.00039580
Si       0.00000000       8.20551896       8.20551896      -0.00101068      -0.00191926       0.00119394
Si       1.36758649       9.57310546       9.57310546      -0.00000172      -0.00016803      -0.00022038
Si       2.73517299      10.94069195       8.20551896       0.00015126       0.00013956       0.00005844
Si       4.10275948      12.30827845       9.57310546      -0.00019885       0.00008816       0.00068481
Si       5.47034598      13.67586494       8.20551896       0.00013085      -0.00024129      -0.00022724
Si       6.83793247      15.04345144       9.57310546       0.00019540       0.00008100      -0.00005327
Si       8.20551896      16.41103793       8.20551896      -0.00027042       0.00009003       0.00028568
Si       9.57310546      17.77862442       9.57310546      -0.00000006       0.00000410      -0.00014386
Si      10.94069195      19.14621092       8.20551896       0.00191926       0.00101068       0.00119394
Si      12.30827845      20.51379741       9.57310546       0.00206026      -0.00206026       0.01069130
Si       2.73517299       8.20551896      10.94069195       0.00013738       0.00012996       0.00015069
Si       4.10275948       9.57310546      12.30827845      -0.00075809       0.00065501      -0.00035281
Si       5.47034598      10.94069195      10.94069195       0.00014256      -0.00014256      -0.00008442
Si       6.83793247      12.30827845      12.30827845      -0.00062769       0.00068680      -0.00032835
Si       8.20551896      13.67586494      10.94069195       0.00013509      -0.00004047      -0.00013587
Si       9.57310546      15.04345144      12.30827845       0.00004197       0.00009807      -0.00004843
Si      10.94069195      16.41103793      10.94069195      -0.00026505      -0.00009690       0.00028657
Si      12.30827845      17.77862442      12.30827845       0.00068803      -0.00011260      -0.00031928
Si      13.67586494      19.14621092      10.94069195       0.00033864      -0.00033864      -0.00258830
Si      15.04345144      20.51379741      12.30827845       0.00008583      -0.00075731      -0.00034326
Si       5.47034598       8.20551896      13.67586494       0.00004074      -0.00023213      -0.00008825
Si       6.83793247       9.57310546      15.04345144      -0.00006698      -0.00008659       0.00018077
Si       8.20551896      10.94069195      13.67586494       0.00023213      -0.00004074      -0.00008825
Si       9.57310546      12.30827845      15.04345144       0.00016435       0.00004388      -0.00020530
Si      10.94069195      13.67586494      13.67586494       0.00000000      -0.00000000       0.00000000
Si      12.30827845      15.04345144      15.04345144       0.00000000      -0.00000000       0.00000000
Si      13.67586494      16.41103793      13.67586494      -0.00000000      -0.00000000      -0.00000000
Si      15.04345144      17.77862442      15.04345144       0.00000000      -0.00000000       0.00000000
Si      16.41103793      19.14621092      13.67586494      -0.00000000       0.00000000       0.00000000
Si      17.77862442      20.51379741      15.04345144       0.00002677      -0.00008144       0.00002212
Si       8.20551896       8.20551896      16.41103793       0.00010315       0.00010315       0.00019518
Si       9.57310546       9.57310546      17.77862442      -0.00000000       0.00000000       0.00077979
Si      10.94069195      10.94069195      16.41103793      -0.00010315      -0.00010315       0.00019518
Si      12.30827845      12.30827845      17.77862442      -0.00062633      -0.00062633       0.00064960
Si      13.67586494      13.67586494      16.41103793       0.00000000       0.00000000      -0.00000000
Si      15.04345144      15.04345144      17.77862442       0.00000000       0.00000000      -0.00000000
Si      16.41103793      16.41103793      16.41103793      -0.00000000      -0.00000000      -0.00000000
Si      17.77862442      17.77862442      17.77862442      -0.00000000      -0.00000000      -0.00000000
Si      19.14621092      19.14621092      16.41103793       0.00000000       0.00000000      -0.00000000
Si      20.51379741      20.51379741      17.77862442       0.00062633       0.00062633       0.00064960
Si      10.94069195       8.20551896      19.14621092      -0.00095347       0.00095347      -0.00023328
Si      12.30827845       9.57310546      20.51379741       0.00529242       0.00209007      -0.00621054
Si      13.67586494      10.94069195      19.14621092       0.00108666      -0.00036878      -0.00072488
Si      15.04345144      12.30827845      20.51379741      -0.00018528      -0.00075212      -0.00054439
Si      16.41103793      13.67586494      19.14621092      -0.00000000      -0.00000000       0.00000000
Si      17.77862442      15.04345144      20.51379741       0.00007066       0.00008291      -0.00022742
Si      19.14621092      16.41103793      19.14621092       0.00000000       0.00000000      -0.00000000
Si      20.51379741      17.77862442      20.51379741       0.00068147       0.00010236      -0.00031697
Si      21.88138391      19.14621092      19.14621092       0.00036878      -0.00108666      -0.00072488
Si      23.24897040      20.51379741      20.51379741      -0.00209007      -0.00529242      -0.00621054
Si       0.00000000      10.94069195      10.94069195       0.00129484      -0.00303974       0.00045112
Si       1.36758649      12.30827845      12.30827845      -0.00146671      -0.00461012      -0.00651943
Si       2.73517299      13.67586494      10.94069195      -0.00119053       0.00090900      -0.00032464
Si       4.10275948      15.04345144      12.30827845       0.00529242       0.00209007      -0.00621054
Si       5.47034598      16.41103793      10.94069195       0.00113113      -0.00013172      -0.00081623
Si       6.83793247      17.77862442      12.30827845      -0.00078466      -0.00130483      -0.00062587
Si       8.20551896      19.14621092      10.94069195       0.00195307      -0.00092606       0.00117601
Si       9.57310546      20.51379741      12.30827845      -0.00213069       0.00520627      -0.00624841
Si      10.94069195      21.88138391      10.94069195      -0.06033786       0.06033786      -0.09119106
Si      12.30827845      23.24897040      12.30827845      -0.00452481       0.00223305      -0.00656539
Si       2.73517299      10.94069195      13.67586494       0.00178202       0.00096597       0.00105928
Si       4.10275948      12.30827845      15.04345144       0.00206026      -0.00206026       0.01069130
Si       5.47034598      13.67586494      13.67586494      -0.00101068      -0.00191926       0.00119394
Si       6.83793247      15.04345144      15.04345144      -0.00000410       0.00000006      -0.00014386
Si       8.20551896      16.41103793      13.67586494      -0.00004533       0.00040766       0.00015101
Si       9.57310546      17.77862442      15.04345144      -0.00009579       0.00011957      -0.00003387
Si      10.94069195      19.14621092      13.67586494       0.00035616       0.00101461      -0.00070083
Si      12.30827845      20.51379741      15.04345144       0.00065213      -0.00054144       0.00070113
Si      13.67586494      21.88138391      13.67586494      -0.00128502      -0.00026613      -0.00041515
Si      15.04345144      23.24897040      15.04345144      -0.00014694       0.00001652      -0.00020098
Si       5.47034598      10.94069195      16.41103793       0.00020778      -0.00009734      -0.00281554
Si       6.83793247      12.30827845      17.77862442       0.00022808      -0.00080350       0.00034228
Si       8.20551896      13.67586494      16.41103793      -0.00014439       0.00039591       0.00005933
Si       9.57310546      15.04345144      17.77862442      -0.00007367       0.00019541      -0.00010098
Si      10.94069195      16.41103793      16.41103793       0.00000000       0.00000000       0.00000000
Si      12.30827845      17.77862442      17.77862442      -0.00000000      -0.00000000      -0.00000000
Si      13.67586494      19.14621092      16.41103793      -0.00000000       0.00000000      -0.00000000
Si      15.04345144      20.51379741      17.77862442      -0.00002732       0.00007129      -0.00002446
Si      16.41103793      21.88138391      16.41103793      -0.00026505      -0.00009690       0.00028657
Si      17.77862442      23.24897040      17.77862442       0.00051994      -0.00011022      -0.00039580
Si       8.20551896      10.94069195      19.14621092       0.00095347      -0.00095347      -0.00023328
Si       9.57310546      12.30827845      20.51379741       0.00209007       0.00529242      -0.00621054
Si      10.94069195      13.67586494      19.14621092      -0.00036878       0.00108666      -0.00072488
Si      12.30827845      15.04345144      20.51379741      -0.00075212      -0.00018528      -0.00054439
Si      13.67586494      16.41103793      19.14621092      -0.00000000      -0.00000000       0.00000000
Si      15.04345144      17.77862442      20.51379741       0.00008291       0.00007066      -0.00022742
Si      16.41103793      19.14621092      19.14621092      -0.00000000       0.00000000       0.00000000
Si      17.77862442      20.51379741      20.51379741       0.00010236       0.00068147      -0.00031697
Si      19.14621092      21.88138391      19.14621092      -0.00108666       0.00036878      -0.00072488
Si      20.51379741      23.24897040      20.51379741      -0.00529242      -0.00209007      -0.00621054
Si      10.94069195      10.94069195      21.88138391       0.06545408       0.06545408      -0.09396055
Si      12.30827845      12.30827845      23.24897040      -0.00153623      -0.00153623       0.01153117
Si      13.67586494      13.67586494      21.88138391      -0.00028756      -0.00028756      -0.00243039
Si      15.04345144      15.04345144      23.24897040      -0.00000653      -0.00000653       0.00118949
Si      16.41103793      16.41103793      21.88138391      -0.00010315      -0.00010315       0.00019518
Si      17.77862442      17.77862442      23.24897040      -0.00061980      -0.00061980       0.00105931
Si      19.14621092      19.14621092      21.88138391       0.00039071       0.00039071      -0.00262557
Si      20.51379741      20.51379741      23.24897040       0.00216256       0.00216256       0.01088157
Si      21.88138391      21.88138391      21.88138391      -0.06545408      -0.06545408      -0.09396055
Si      23.24897040      23.24897040      23.24897040       0.00000000       0.00000000       0.38473468
