3456
Lattice="1.415941591971329e-17 33.68982865034007 33.68982865034007 33.68982865034007 -5.1874239980865926e-17 33.68982865034007 33.68982865034007 33.68982865034007 -2.690553287678732e-17" Properties=species:S:1:pos:R:3:forces:R:3 energy=-11870.6103515625 stress="2.2852901793157798e-07 -1.0725195949135014e-06 -3.287406616436783e-05 -1.0725195949135014e-06 -6.345948690977821e-07 -2.5770714273676276e-05 -3.287406616436783e-05 -2.5770714273676276e-05 -1.0360495252825785e-06" pbc="T T T"
Na       0.00000000       0.00000000       0.00000000       0.00154953      -0.00017117       0.00090240
Cl       2.80748572       0.00000000       0.00000000      -0.00154535       0.00017462      -0.00089866
Na       2.80748572       2.80748572      -0.00000000       0.00154563      -0.00017322       0.00090298
Cl       5.61497144       2.80748572      -0.00000000      -0.00154582       0.00017295      -0.00089859
Na       5.61497144       5.61497144      -0.00000000       0.00154663      -0.00017387       0.00090325
Cl       8.42245716       5.61497144      -0.00000000      -0.00154369       0.00017424      -0.00089829
Na       8.42245716       8.42245716      -0.00000000       0.00154822      -0.00017237       0.00090368
Cl      11.22994288       8.42245716      -0.00000000      -0.00154639       0.00017626      -0.00089834
Na      11.22994288      11.22994288      -0.00000000       0.00154723      -0.00017355       0.00090326
Cl      14.03742860      11.22994288      -0.00000000      -0.00154595       0.00017437      -0.00089826
Na      14.03742860      14.03742860      -0.00000000       0.00154549      -0.00017352       0.00090332
Cl      16.84491433      14.03742860      -0.00000000      -0.00154300       0.00017308      -0.00089845
Na      16.84491433      16.84491433      -0.00000000       0.00154907      -0.00017106       0.00090282
Cl      19.65240005      16.84491433      -0.00000000      -0.00154648       0.00017627      -0.00089821
Na      19.65240005      19.65240005      -0.00000000       0.00154585      -0.00017417       0.00090365
Cl      22.45988577      19.65240005      -0.00000000      -0.00154568       0.00017372      -0.00089852
Na      22.45988577      22.45988577      -0.00000000       0.00154546      -0.00017251       0.00090251
Cl      25.26737149      22.45988577      -0.00000000      -0.00154499       0.00017242      -0.00089854
Na      25.26737149      25.26737149      -0.00000000       0.00154605      -0.00017284       0.00090284
Cl      28.07485721      25.26737149      -0.00000000      -0.00154540       0.00017406      -0.00089883
Na      28.07485721      28.07485721      -0.00000000       0.00154528      -0.00017329       0.00090278
Cl      30.88234293      28.07485721      -0.00000000      -0.00154661       0.00017277      -0.00089878
Na      30.88234293      30.88234293      -0.00000000       0.00154577      -0.00017439       0.00090281
Cl      33.68982865      30.88234293      -0.00000000      -0.00154258       0.00017150      -0.00089740
Na       2.80748572      -0.00000000       2.80748572       0.00154548      -0.00017086       0.00090030
Cl       5.61497144       0.00000000       2.80748572      -0.00154595       0.00017477      -0.00090032
Na       5.61497144       2.80748572       2.80748572       0.00154459      -0.00017256       0.00090104
Cl       8.42245716       2.80748572       2.80748572      -0.00154386       0.00017314      -0.00090032
Na       8.42245716       5.61497144       2.80748572       0.00154578      -0.00017289       0.00090119
Cl      11.22994288       5.61497144       2.80748572      -0.00154621       0.00017447      -0.00090004
Na      11.22994288       8.42245716       2.80748572       0.00154388      -0.00017129       0.00090136
Cl      14.03742860       8.42245716       2.80748572      -0.00154629       0.00017629      -0.00089984
Na      14.03742860      11.22994288       2.80748572       0.00154386      -0.00017283       0.00090123
Cl      16.84491433      11.22994288       2.80748572      -0.00154289       0.00017441      -0.00089999
Na      16.84491433      14.03742860       2.80748572       0.00154667      -0.00017281       0.00090117
Cl      19.65240005      14.03742860       2.80748572      -0.00154742       0.00017312      -0.00089987
Na      19.65240005      16.84491433       2.80748572       0.00154323      -0.00017072       0.00090085
Cl      22.45988577      16.84491433       2.80748572      -0.00154484       0.00017643      -0.00090017
Na      22.45988577      19.65240005       2.80748572       0.00154420      -0.00017335       0.00090159
Cl      25.26737149      19.65240005       2.80748572      -0.00154546       0.00017352      -0.00089971
Na      25.26737149      22.45988577       2.80748572       0.00154481      -0.00017222       0.00090076
Cl      28.07485721      22.45988577       2.80748572      -0.00154517       0.00017263      -0.00090050
Na      28.07485721      25.26737149       2.80748572       0.00154468      -0.00017237       0.00090123
Cl      30.88234293      25.26737149       2.80748572      -0.00154701       0.00017403      -0.00090041
Na      30.88234293      28.07485721       2.80748572       0.00154346      -0.00017261       0.00090099
Cl      33.68982865      28.07485721       2.80748572      -0.00154103       0.00017293      -0.00090044
Na      33.68982865      30.88234293       2.80748572       0.00154696      -0.00017384       0.00090098
Cl      36.49731437      30.88234293       2.80748572      -0.00154819       0.00017165      -0.00089927
Na       5.61497144      -0.00000000       5.61497144       0.00154662      -0.00017003       0.00089983
Cl       8.42245716       0.00000000       5.61497144      -0.00154358       0.00017508      -0.00089903
Na       8.42245716       2.80748572       5.61497144       0.00154559      -0.00017234       0.00090052
Cl      11.22994288       2.80748572       5.61497144      -0.00154613       0.00017329      -0.00089910
Na      11.22994288       5.61497144       5.61497144       0.00154365      -0.00017252       0.00090090
Cl      14.03742860       5.61497144       5.61497144      -0.00154612       0.00017467      -0.00089888
Na      14.03742860       8.42245716       5.61497144       0.00154330      -0.00017094       0.00090094
Cl      16.84491433       8.42245716       5.61497144      -0.00154297       0.00017632      -0.00089851
Na      16.84491433      11.22994288       5.61497144       0.00154631      -0.00017248       0.00090087
Cl      19.65240005      11.22994288       5.61497144      -0.00154748       0.00017443      -0.00089848
Na      19.65240005      14.03742860       5.61497144       0.00154300      -0.00017232       0.00090066
Cl      22.45988577      14.03742860       5.61497144      -0.00154556       0.00017309      -0.00089879
Na      22.45988577      16.84491433       5.61497144       0.00154456      -0.00017056       0.00090068
Cl      25.26737149      16.84491433       5.61497144      -0.00154526       0.00017703      -0.00089887
Na      25.26737149      19.65240005       5.61497144       0.00154409      -0.00017330       0.00090080
Cl      28.07485721      19.65240005       5.61497144      -0.00154567       0.00017389      -0.00089870
Na      28.07485721      22.45988577       5.61497144       0.00154472      -0.00017200       0.00090073
Cl      30.88234293      22.45988577       5.61497144      -0.00154667       0.00017274      -0.00089893
Na      30.88234293      25.26737149       5.61497144       0.00154317      -0.00017198       0.00090075
Cl      33.68982865      25.26737149       5.61497144      -0.00154193       0.00017412      -0.00089871
Na      33.68982865      28.07485721       5.61497144       0.00154704      -0.00017234       0.00090070
Cl      36.49731437      28.07485721       5.61497144      -0.00154506       0.00017320      -0.00089925
Na      36.49731437      30.88234293       5.61497144       0.00154402      -0.00017392       0.00090118
Cl      39.30480009      30.88234293       5.61497144      -0.00155144       0.00017195      -0.00089838
Na       8.42245716      -0.00000000       8.42245716       0.00154828      -0.00016995       0.00090133
Cl      11.22994288       0.00000000       8.42245716      -0.00154666       0.00017520      -0.00089705
Na      11.22994288       2.80748572       8.42245716       0.00154380      -0.00017230       0.00090231
Cl      14.03742860       2.80748572       8.42245716      -0.00154644       0.00017384      -0.00089696
Na      14.03742860       5.61497144       8.42245716       0.00154341      -0.00017258       0.00090267
Cl      16.84491433       5.61497144       8.42245716      -0.00154293       0.00017505      -0.00089694
Na      16.84491433       8.42245716       8.42245716       0.00154603      -0.00017095       0.00090267
Cl      19.65240005       8.42245716       8.42245716      -0.00154783       0.00017685      -0.00089650
Na      19.65240005      11.22994288       8.42245716       0.00154261      -0.00017244       0.00090270
Cl      22.45988577      11.22994288       8.42245716      -0.00154584       0.00017480      -0.00089694
Na      22.45988577      14.03742860       8.42245716       0.00154447      -0.00017225       0.00090250
Cl      25.26737149      14.03742860       8.42245716      -0.00154603       0.00017344      -0.00089652
Na      25.26737149      16.84491433       8.42245716       0.00154437      -0.00017053       0.00090235
Cl      28.07485721      16.84491433       8.42245716      -0.00154577       0.00017704      -0.00089713
Na      28.07485721      19.65240005       8.42245716       0.00154427      -0.00017283       0.00090274
Cl      30.88234293      19.65240005       8.42245716      -0.00154804       0.00017404      -0.00089643
Na      30.88234293      22.45988577       8.42245716       0.00154318      -0.00017184       0.00090223
Cl      33.68982865      22.45988577       8.42245716      -0.00154200       0.00017312      -0.00089667
Na      33.68982865      25.26737149       8.42245716       0.00154694      -0.00017191       0.00090240
Cl      36.49731437      25.26737149       8.42245716      -0.00154561       0.00017452      -0.00089676
Na      36.49731437      28.07485721       8.42245716       0.00154407      -0.00017219       0.00090240
Cl      39.30480009      28.07485721       8.42245716      -0.00154883       0.00017355      -0.00089719
Na      39.30480009      30.88234293       8.42245716       0.00154108      -0.00017357       0.00090273
Cl      42.11228581      30.88234293       8.42245716      -0.00154539       0.00017226      -0.00089596
Na      11.22994288      -0.00000000      11.22994288       0.00154696      -0.00017027       0.00089998
Cl      14.03742860       0.00000000      11.22994288      -0.00154583       0.00017506      -0.00089903
Na      14.03742860       2.80748572      11.22994288       0.00154385      -0.00017237       0.00090067
Cl      16.84491433       2.80748572      11.22994288      -0.00154262       0.00017346      -0.00089914
Na      16.84491433       5.61497144      11.22994288       0.00154638      -0.00017277       0.00090108
Cl      19.65240005       5.61497144      11.22994288      -0.00154747       0.00017472      -0.00089880
Na      19.65240005       8.42245716      11.22994288       0.00154255      -0.00017094       0.00090121
Cl      22.45988577       8.42245716      11.22994288      -0.00154585       0.00017661      -0.00089868
Na      22.45988577      11.22994288      11.22994288       0.00154422      -0.00017229       0.00090108
Cl      25.26737149      11.22994288      11.22994288      -0.00154589       0.00017488      -0.00089881
Na      25.26737149      14.03742860      11.22994288       0.00154449      -0.00017261       0.00090071
Cl      28.07485721      14.03742860      11.22994288      -0.00154573       0.00017339      -0.00089860
Na      28.07485721      16.84491433      11.22994288       0.00154444      -0.00017059       0.00090084
Cl      30.88234293      16.84491433      11.22994288      -0.00154705       0.00017705      -0.00089894
Na      30.88234293      19.65240005      11.22994288       0.00154280      -0.00017319       0.00090113
Cl      33.68982865      19.65240005      11.22994288      -0.00154243       0.00017408      -0.00089866
Na      33.68982865      22.45988577      11.22994288       0.00154733      -0.00017210       0.00090073
Cl      36.49731437      22.45988577      11.22994288      -0.00154545       0.00017290      -0.00089912
Na      36.49731437      25.26737149      11.22994288       0.00154433      -0.00017200       0.00090093
Cl      39.30480009      25.26737149      11.22994288      -0.00154886       0.00017435      -0.00089887
Na      39.30480009      28.07485721      11.22994288       0.00154161      -0.00017219       0.00090097
Cl      42.11228581      28.07485721      11.22994288      -0.00154163       0.00017297      -0.00089927
Na      42.11228581      30.88234293      11.22994288       0.00154693      -0.00017389       0.00090134
Cl      44.91977153      30.88234293      11.22994288      -0.00154977       0.00017236      -0.00089859
Na      14.03742860      -0.00000000      14.03742860       0.00154557      -0.00017030       0.00089999
Cl      16.84491433       0.00000000      14.03742860      -0.00154296       0.00017476      -0.00090026
Na      16.84491433       2.80748572      14.03742860       0.00154684      -0.00017252       0.00090078
Cl      19.65240005       2.80748572      14.03742860      -0.00154728       0.00017355      -0.00090073
Na      19.65240005       5.61497144      14.03742860       0.00154294      -0.00017277       0.00090131
Cl      22.45988577       5.61497144      14.03742860      -0.00154553       0.00017480      -0.00090061
Na      22.45988577       8.42245716      14.03742860       0.00154411      -0.00017101       0.00090163
Cl      25.26737149       8.42245716      14.03742860      -0.00154588       0.00017675      -0.00090016
Na      25.26737149      11.22994288      14.03742860       0.00154447      -0.00017262       0.00090140
Cl      28.07485721      11.22994288      14.03742860      -0.00154585       0.00017489      -0.00090008
Na      28.07485721      14.03742860      14.03742860       0.00154464      -0.00017262       0.00090114
Cl      30.88234293      14.03742860      14.03742860      -0.00154756       0.00017339      -0.00090047
Na      30.88234293      16.84491433      14.03742860       0.00154317      -0.00017059       0.00090114
Cl      33.68982865      16.84491433      14.03742860      -0.00154197       0.00017692      -0.00090050
Na      33.68982865      19.65240005      14.03742860       0.00154718      -0.00017314       0.00090158
Cl      36.49731437      19.65240005      14.03742860      -0.00154591       0.00017381      -0.00090014
Na      36.49731437      22.45988577      14.03742860       0.00154459      -0.00017214       0.00090103
Cl      39.30480009      22.45988577      14.03742860      -0.00154888       0.00017304      -0.00090076
Na      39.30480009      25.26737149      14.03742860       0.00154146      -0.00017211       0.00090115
Cl      42.11228581      25.26737149      14.03742860      -0.00154182       0.00017416      -0.00090070
Na      42.11228581      28.07485721      14.03742860       0.00154713      -0.00017240       0.00090113
Cl      44.91977153      28.07485721      14.03742860      -0.00154866       0.00017318      -0.00090074
Na      44.91977153      30.88234293      14.03742860       0.00154149      -0.00017358       0.00090089
Cl      47.72725725      30.88234293      14.03742860      -0.00154485       0.00017208      -0.00089961
Na      16.84491433      -0.00000000      16.84491433       0.00154895      -0.00017055       0.00090272
Cl      19.65240005       0.00000000      16.84491433      -0.00154651       0.00017504      -0.00089702
Na      19.65240005       2.80748572      16.84491433       0.00154330      -0.00017254       0.00090323
Cl      22.45988577       2.80748572      16.84491433      -0.00154483       0.00017320      -0.00089667
Na      22.45988577       5.61497144      16.84491433       0.00154419      -0.00017307       0.00090346
Cl      25.26737149       5.61497144      16.84491433      -0.00154530       0.00017459      -0.00089658
Na      25.26737149       8.42245716      16.84491433       0.00154418      -0.00017122       0.00090357
Cl      28.07485721       8.42245716      16.84491433      -0.00154550       0.00017638      -0.00089636
Na      28.07485721      11.22994288      16.84491433       0.00154440      -0.00017271       0.00090350
Cl      30.88234293      11.22994288      16.84491433      -0.00154715       0.00017448      -0.00089630
Na      30.88234293      14.03742860      16.84491433       0.00154315      -0.00017258       0.00090333
Cl      33.68982865      14.03742860      16.84491433      -0.00154191       0.00017295      -0.00089626
Na      33.68982865      16.84491433      16.84491433       0.00154732      -0.00017047       0.00090317
Cl      36.49731437      16.84491433      16.84491433      -0.00154518       0.00017665      -0.00089656
Na      36.49731437      19.65240005      16.84491433       0.00154399      -0.00017325       0.00090366
Cl      39.30480009      19.65240005      16.84491433      -0.00154876       0.00017366      -0.00089628
Na      39.30480009      22.45988577      16.84491433       0.00154179      -0.00017213       0.00090304
Cl      42.11228581      22.45988577      16.84491433      -0.00154145       0.00017265      -0.00089669
Na      42.11228581      25.26737149      16.84491433       0.00154710      -0.00017227       0.00090324
Cl      44.91977153      25.26737149      16.84491433      -0.00154860       0.00017407      -0.00089657
Na      44.91977153      28.07485721      16.84491433       0.00154179      -0.00017247       0.00090309
Cl      47.72725725      28.07485721      16.84491433      -0.00154133       0.00017275      -0.00089685
Na      47.72725725      30.88234293      16.84491433       0.00154695      -0.00017401       0.00090351
Cl      50.53474298      30.88234293      16.84491433      -0.00154970       0.00017214      -0.00089635
Na      19.65240005      -0.00000000      19.65240005       0.00154587      -0.00017011       0.00089925
Cl      22.45988577       0.00000000      19.65240005      -0.00154583       0.00017486      -0.00089972
Na      22.45988577       2.80748572      19.65240005       0.00154424      -0.00017210       0.00089991
Cl      25.26737149       2.80748572      19.65240005      -0.00154565       0.00017363      -0.00089993
Na      25.26737149       5.61497144      19.65240005       0.00154403      -0.00017245       0.00090046
Cl      28.07485721       5.61497144      19.65240005      -0.00154572       0.00017494      -0.00089985
Na      28.07485721       8.42245716      19.65240005       0.00154385      -0.00017074       0.00090058
Cl      30.88234293       8.42245716      19.65240005      -0.00154765       0.00017667      -0.00089969
Na      30.88234293      11.22994288      19.65240005       0.00154249      -0.00017230       0.00090049
Cl      33.68982865      11.22994288      19.65240005      -0.00154216       0.00017459      -0.00089969
Na      33.68982865      14.03742860      19.65240005       0.00154683      -0.00017195       0.00090039
Cl      36.49731437      14.03742860      19.65240005      -0.00154581       0.00017346      -0.00089941
Na      36.49731437      16.84491433      19.65240005       0.00154418      -0.00017020       0.00090010
Cl      39.30480009      16.84491433      19.65240005      -0.00154885       0.00017684      -0.00089988
Na      39.30480009      19.65240005      19.65240005       0.00154085      -0.00017280       0.00090044
Cl      42.11228581      19.65240005      19.65240005      -0.00154233       0.00017396      -0.00089958
Na      42.11228581      22.45988577      19.65240005       0.00154707      -0.00017202       0.00090013
Cl      44.91977153      22.45988577      19.65240005      -0.00154897       0.00017306      -0.00090002
Na      44.91977153      25.26737149      19.65240005       0.00154136      -0.00017185       0.00090003
Cl      47.72725725      25.26737149      19.65240005      -0.00154191       0.00017435      -0.00089988
Na      47.72725725      28.07485721      19.65240005       0.00154682      -0.00017216       0.00090026
Cl      50.53474298      28.07485721      19.65240005      -0.00154898       0.00017312      -0.00090026
Na      50.53474298      30.88234293      19.65240005       0.00154163      -0.00017331       0.00090032
Cl      53.34222870      30.88234293      19.65240005      -0.00154396       0.00017235      -0.00089913
Na      22.45988577      -0.00000000      22.45988577       0.00154556      -0.00017120       0.00090116
Cl      25.26737149       0.00000000      22.45988577      -0.00154500       0.00017474      -0.00090098
Na      25.26737149       2.80748572      22.45988577       0.00154496      -0.00017266       0.00090137
Cl      28.07485721       2.80748572      22.45988577      -0.00154511       0.00017327      -0.00090106
Na      28.07485721       5.61497144      22.45988577       0.00154469      -0.00017307       0.00090178
Cl      30.88234293       5.61497144      22.45988577      -0.00154706       0.00017458      -0.00090066
Na      30.88234293       8.42245716      22.45988577       0.00154320      -0.00017114       0.00090185
Cl      33.68982865       8.42245716      22.45988577      -0.00154161       0.00017616      -0.00090053
Na      33.68982865      11.22994288      22.45988577       0.00154718      -0.00017292       0.00090175
Cl      36.49731437      11.22994288      22.45988577      -0.00154532       0.00017435      -0.00090060
Na      36.49731437      14.03742860      22.45988577       0.00154460      -0.00017260       0.00090157
Cl      39.30480009      14.03742860      22.45988577      -0.00154906       0.00017314      -0.00090046
Na      39.30480009      16.84491433      22.45988577       0.00154175      -0.00017066       0.00090129
Cl      42.11228581      16.84491433      22.45988577      -0.00154148       0.00017628      -0.00090076
Na      42.11228581      19.65240005      22.45988577       0.00154706      -0.00017339       0.00090188
Cl      44.91977153      19.65240005      22.45988577      -0.00154916       0.00017373      -0.00090030
Na      44.91977153      22.45988577      22.45988577       0.00154217      -0.00017215       0.00090124
Cl      47.72725725      22.45988577      22.45988577      -0.00154138       0.00017263      -0.00090089
Na      47.72725725      25.26737149      22.45988577       0.00154722      -0.00017225       0.00090175
Cl      50.53474298      25.26737149      22.45988577      -0.00154876       0.00017400      -0.00090077
Na      50.53474298      28.07485721      22.45988577       0.00154184      -0.00017240       0.00090144
Cl      53.34222870      28.07485721      22.45988577      -0.00154114       0.00017273      -0.00090103
Na      53.34222870      30.88234293      22.45988577       0.00154716      -0.00017374       0.00090144
Cl      56.14971442      30.88234293      22.45988577      -0.00154908       0.00017242      -0.00090049
Na      25.26737149      -0.00000000      25.26737149       0.00154614      -0.00017062       0.00090053
Cl      28.07485721       0.00000000      25.26737149      -0.00154554       0.00017444      -0.00089906
Na      28.07485721       2.80748572      25.26737149       0.00154478      -0.00017243       0.00090121
Cl      30.88234293       2.80748572      25.26737149      -0.00154690       0.00017326      -0.00089952
Na      30.88234293       5.61497144      25.26737149       0.00154293      -0.00017272       0.00090160
Cl      33.68982865       5.61497144      25.26737149      -0.00154167       0.00017454      -0.00089918
Na      33.68982865       8.42245716      25.26737149       0.00154678      -0.00017113       0.00090158
Cl      36.49731437       8.42245716      25.26737149      -0.00154544       0.00017637      -0.00089893
Na      36.49731437      11.22994288      25.26737149       0.00154405      -0.00017258       0.00090157
Cl      39.30480009      11.22994288      25.26737149      -0.00154890       0.00017457      -0.00089921
Na      39.30480009      14.03742860      25.26737149       0.00154153      -0.00017254       0.00090157
Cl      42.11228581      14.03742860      25.26737149      -0.00154195       0.00017306      -0.00089922
Na      42.11228581      16.84491433      25.26737149       0.00154705      -0.00017050       0.00090135
Cl      44.91977153      16.84491433      25.26737149      -0.00154896       0.00017644      -0.00089942
Na      44.91977153      19.65240005      25.26737149       0.00154151      -0.00017315       0.00090160
Cl      47.72725725      19.65240005      25.26737149      -0.00154204       0.00017365      -0.00089918
Na      47.72725725      22.45988577      25.26737149       0.00154727      -0.00017214       0.00090138
Cl      50.53474298      22.45988577      25.26737149      -0.00154861       0.00017296      -0.00089964
Na      50.53474298      25.26737149      25.26737149       0.00154167      -0.00017227       0.00090136
Cl      53.34222870      25.26737149      25.26737149      -0.00154175       0.00017414      -0.00089939
Na      53.34222870      28.07485721      25.26737149       0.00154709      -0.00017246       0.00090151
Cl      56.14971442      28.07485721      25.26737149      -0.00154836       0.00017302      -0.00089976
Na      56.14971442      30.88234293      25.26737149       0.00154170      -0.00017360       0.00090132
Cl      58.95720014      30.88234293      25.26737149      -0.00154332       0.00017199      -0.00089882
Na      28.07485721      -0.00000000      28.07485721       0.00154552      -0.00017088       0.00090041
Cl      30.88234293       0.00000000      28.07485721      -0.00154690       0.00017470      -0.00090069
Na      30.88234293       2.80748572      28.07485721       0.00154359      -0.00017254       0.00090103
Cl      33.68982865       2.80748572      28.07485721      -0.00154107       0.00017306      -0.00090067
Na      33.68982865       5.61497144      28.07485721       0.00154711      -0.00017297       0.00090144
Cl      36.49731437       5.61497144      28.07485721      -0.00154519       0.00017434      -0.00090026
Na      36.49731437       8.42245716      28.07485721       0.00154426      -0.00017122       0.00090137
Cl      39.30480009       8.42245716      28.07485721      -0.00154886       0.00017633      -0.00090019
Na      39.30480009      11.22994288      28.07485721       0.00154137      -0.00017271       0.00090134
Cl      42.11228581      11.22994288      28.07485721      -0.00154168       0.00017410      -0.00090034
Na      42.11228581      14.03742860      28.07485721       0.00154723      -0.00017258       0.00090139
Cl      44.91977153      14.03742860      28.07485721      -0.00154878       0.00017291      -0.00090034
Na      44.91977153      16.84491433      28.07485721       0.00154180      -0.00017059       0.00090120
Cl      47.72725725      16.84491433      28.07485721      -0.00154131       0.00017625      -0.00090050
Na      47.72725725      19.65240005      28.07485721       0.00154700      -0.00017312       0.00090134
Cl      50.53474298      19.65240005      28.07485721      -0.00154905       0.00017346      -0.00090022
Na      50.53474298      22.45988577      28.07485721       0.00154199      -0.00017204       0.00090121
Cl      53.34222870      22.45988577      28.07485721      -0.00154120       0.00017268      -0.00090091
Na      53.34222870      25.26737149      28.07485721       0.00154728      -0.00017235       0.00090148
Cl      56.14971442      25.26737149      28.07485721      -0.00154868       0.00017402      -0.00090055
Na      56.14971442      28.07485721      28.07485721       0.00154164      -0.00017236       0.00090127
Cl      58.95720014      28.07485721      28.07485721      -0.00154081       0.00017275      -0.00090104
Na      58.95720014      30.88234293      28.07485721       0.00154679      -0.00017377       0.00090120
Cl      61.76468586      30.88234293      28.07485721      -0.00154826       0.00017168      -0.00089975
Na      30.88234293      -0.00000000      30.88234293       0.00154583      -0.00017050       0.00089916
Cl      33.68982865       0.00000000      30.88234293      -0.00154268       0.00017565      -0.00090196
Na      33.68982865       2.80748572      30.88234293       0.00154709      -0.00017258       0.00089970
Cl      36.49731437       2.80748572      30.88234293      -0.00154820       0.00017396      -0.00090185
Na      36.49731437       5.61497144      30.88234293       0.00154394      -0.00017235       0.00089951
Cl      39.30480009       5.61497144      30.88234293      -0.00155129       0.00017519      -0.00090158
Na      39.30480009       8.42245716      30.88234293       0.00154093      -0.00017095       0.00089977
Cl      42.11228581       8.42245716      30.88234293      -0.00154525       0.00017750      -0.00090135
Na      42.11228581      11.22994288      30.88234293       0.00154682      -0.00017236       0.00089948
Cl      44.91977153      11.22994288      30.88234293      -0.00155004       0.00017511      -0.00090113
Na      44.91977153      14.03742860      30.88234293       0.00154159      -0.00017253       0.00089989
Cl      47.72725725      14.03742860      30.88234293      -0.00154517       0.00017396      -0.00090136
Na      47.72725725      16.84491433      30.88234293       0.00154681      -0.00017032       0.00089918
Cl      50.53474298      16.84491433      30.88234293      -0.00154968       0.00017693      -0.00090116
Na      50.53474298      19.65240005      30.88234293       0.00154172      -0.00017309       0.00090001
Cl      53.34222870      19.65240005      30.88234293      -0.00154396       0.00017409      -0.00090117
Na      53.34222870      22.45988577      30.88234293       0.00154718      -0.00017195       0.00089963
Cl      56.14971442      22.45988577      30.88234293      -0.00154889       0.00017288      -0.00090115
Na      56.14971442      25.26737149      30.88234293       0.00154158      -0.00017222       0.00089982
Cl      58.95720014      25.26737149      30.88234293      -0.00154335       0.00017457      -0.00090149
Na      58.95720014      28.07485721      30.88234293       0.00154668      -0.00017243       0.00089968
Cl      61.76468586      28.07485721      30.88234293      -0.00154825       0.00017378      -0.00090187
Na      61.76468586      30.88234293      30.88234293       0.00154405      -0.00017370       0.00089988
Cl      64.57217158      30.88234293      30.88234293      -0.00155423       0.00017262      -0.00090085
Na       0.00000000       2.80748572       2.80748572       0.00154948      -0.00017225       0.00090128
Cl       2.80748572       2.80748572       2.80748572      -0.00154486       0.00017241      -0.00090098
Na       2.80748572       5.61497144       2.80748572       0.00154555      -0.00017336       0.00090223
Cl       5.61497144       5.61497144       2.80748572      -0.00154568       0.00017200      -0.00090115
Na       5.61497144       8.42245716       2.80748572       0.00154682      -0.00017238       0.00090231
Cl       8.42245716       8.42245716       2.80748572      -0.00154292       0.00017337      -0.00090100
Na       8.42245716      11.22994288       2.80748572       0.00154864      -0.00017412       0.00090257
Cl      11.22994288      11.22994288       2.80748572      -0.00154560       0.00017183      -0.00090102
Na      11.22994288      14.03742860       2.80748572       0.00154727      -0.00017386       0.00090216
Cl      14.03742860      14.03742860       2.80748572      -0.00154517       0.00017149      -0.00090108
Na      14.03742860      16.84491433       2.80748572       0.00154554      -0.00017180       0.00090237
Cl      16.84491433      16.84491433       2.80748572      -0.00154207       0.00017491      -0.00090131
Na      16.84491433      19.65240005       2.80748572       0.00154932      -0.00017393       0.00090198
Cl      19.65240005      19.65240005       2.80748572      -0.00154610       0.00017067      -0.00090072
Na      19.65240005      22.45988577       2.80748572       0.00154616      -0.00017336       0.00090228
Cl      22.45988577      22.45988577       2.80748572      -0.00154471       0.00017223      -0.00090109
Na      22.45988577      25.26737149       2.80748572       0.00154528      -0.00017282       0.00090170
Cl      25.26737149      25.26737149       2.80748572      -0.00154439       0.00017247      -0.00090099
Na      25.26737149      28.07485721       2.80748572       0.00154633      -0.00017311       0.00090216
Cl      28.07485721      28.07485721       2.80748572      -0.00154493       0.00017267      -0.00090120
Na      28.07485721      30.88234293       2.80748572       0.00154547      -0.00017429       0.00090223
Cl      30.88234293      30.88234293       2.80748572      -0.00154632       0.00017099      -0.00090094
Na      30.88234293      33.68982865       2.80748572       0.00154577      -0.00017095       0.00090206
Cl      33.68982865      33.68982865       2.80748572      -0.00154231       0.00017376      -0.00090004
Na       2.80748572       2.80748572       5.61497144       0.00154535      -0.00017118       0.00090018
Cl       5.61497144       2.80748572       5.61497144      -0.00154543       0.00017245      -0.00090194
Na       5.61497144       5.61497144       5.61497144       0.00154403      -0.00017251       0.00090092
Cl       8.42245716       5.61497144       5.61497144      -0.00154317       0.00017174      -0.00090170
Na       8.42245716       8.42245716       5.61497144       0.00154564      -0.00017137       0.00090081
Cl      11.22994288       8.42245716       5.61497144      -0.00154539       0.00017334      -0.00090184
Na      11.22994288      11.22994288       5.61497144       0.00154388      -0.00017279       0.00090083
Cl      14.03742860      11.22994288       5.61497144      -0.00154523       0.00017152      -0.00090182
Na      14.03742860      14.03742860       5.61497144       0.00154370      -0.00017284       0.00090084
Cl      16.84491433      14.03742860       5.61497144      -0.00154175       0.00017149      -0.00090174
Na      16.84491433      16.84491433       5.61497144       0.00154645      -0.00017049       0.00090086
Cl      19.65240005      16.84491433       5.61497144      -0.00154654       0.00017472      -0.00090173
Na      19.65240005      19.65240005       5.61497144       0.00154314      -0.00017328       0.00090065
Cl      22.45988577      19.65240005       5.61497144      -0.00154430       0.00017105      -0.00090172
Na      22.45988577      22.45988577       5.61497144       0.00154428      -0.00017227       0.00090079
Cl      25.26737149      22.45988577       5.61497144      -0.00154463       0.00017212      -0.00090171
Na      25.26737149      25.26737149       5.61497144       0.00154460      -0.00017216       0.00090071
Cl      28.07485721      25.26737149       5.61497144      -0.00154473       0.00017228      -0.00090183
Na      28.07485721      28.07485721       5.61497144       0.00154476      -0.00017234       0.00090083
Cl      30.88234293      28.07485721       5.61497144      -0.00154616       0.00017231      -0.00090181
Na      30.88234293      30.88234293       5.61497144       0.00154307      -0.00017354       0.00090086
Cl      33.68982865      30.88234293       5.61497144      -0.00154044       0.00017094      -0.00090187
Na      33.68982865      33.68982865       5.61497144       0.00154652      -0.00017018       0.00090095
Cl      36.49731437      33.68982865       5.61497144      -0.00154784       0.00017354      -0.00090067
Na       5.61497144       2.80748572       8.42245716       0.00154647      -0.00017116       0.00090140
Cl       8.42245716       2.80748572       8.42245716      -0.00154271       0.00017246      -0.00089986
Na       8.42245716       5.61497144       8.42245716       0.00154550      -0.00017252       0.00090207
Cl      11.22994288       5.61497144       8.42245716      -0.00154575       0.00017175      -0.00089994
Na      11.22994288       8.42245716       8.42245716       0.00154375      -0.00017120       0.00090209
Cl      14.03742860       8.42245716       8.42245716      -0.00154526       0.00017324      -0.00090015
Na      14.03742860      11.22994288       8.42245716       0.00154363      -0.00017268       0.00090197
Cl      16.84491433      11.22994288       8.42245716      -0.00154147       0.00017143      -0.00090003
Na      16.84491433      14.03742860       8.42245716       0.00154635      -0.00017271       0.00090203
Cl      19.65240005      14.03742860       8.42245716      -0.00154656       0.00017129      -0.00089977
Na      19.65240005      16.84491433       8.42245716       0.00154304      -0.00017049       0.00090203
Cl      22.45988577      16.84491433       8.42245716      -0.00154450       0.00017468      -0.00089986
Na      22.45988577      19.65240005       8.42245716       0.00154445      -0.00017347       0.00090194
Cl      25.26737149      19.65240005       8.42245716      -0.00154472       0.00017078      -0.00089990
Na      25.26737149      22.45988577       8.42245716       0.00154479      -0.00017208       0.00090213
Cl      28.07485721      22.45988577       8.42245716      -0.00154481       0.00017188      -0.00089995
Na      28.07485721      25.26737149       8.42245716       0.00154476      -0.00017208       0.00090215
Cl      30.88234293      25.26737149       8.42245716      -0.00154637       0.00017211      -0.00089977
Na      30.88234293      28.07485721       8.42245716       0.00154331      -0.00017222       0.00090203
Cl      33.68982865      28.07485721       8.42245716      -0.00154083       0.00017225      -0.00089998
Na      33.68982865      30.88234293       8.42245716       0.00154691      -0.00017366       0.00090221
Cl      36.49731437      30.88234293       8.42245716      -0.00154440       0.00017080      -0.00090013
Na      36.49731437      33.68982865       8.42245716       0.00154383      -0.00017068       0.00090260
Cl      39.30480009      33.68982865       8.42245716      -0.00155065       0.00017370      -0.00089912
Na       8.42245716       2.80748572      11.22994288       0.00154844      -0.00017119       0.00089936
Cl      11.22994288       2.80748572      11.22994288      -0.00154564       0.00017264      -0.00090207
Na      11.22994288       5.61497144      11.22994288       0.00154382      -0.00017274       0.00090075
Cl      14.03742860       5.61497144      11.22994288      -0.00154551       0.00017186      -0.00090240
Na      14.03742860       8.42245716      11.22994288       0.00154380      -0.00017147       0.00090087
Cl      16.84491433       8.42245716      11.22994288      -0.00154148       0.00017342      -0.00090219
Na      16.84491433      11.22994288      11.22994288       0.00154654      -0.00017305       0.00090066
Cl      19.65240005      11.22994288      11.22994288      -0.00154619       0.00017153      -0.00090229
Na      19.65240005      14.03742860      11.22994288       0.00154296      -0.00017272       0.00090067
Cl      22.45988577      14.03742860      11.22994288      -0.00154432       0.00017123      -0.00090230
Na      22.45988577      16.84491433      11.22994288       0.00154448      -0.00017045       0.00090053
Cl      25.26737149      16.84491433      11.22994288      -0.00154462       0.00017478      -0.00090229
Na      25.26737149      19.65240005      11.22994288       0.00154458      -0.00017355       0.00090073
Cl      28.07485721      19.65240005      11.22994288      -0.00154459       0.00017093      -0.00090227
Na      28.07485721      22.45988577      11.22994288       0.00154474      -0.00017214       0.00090066
Cl      30.88234293      22.45988577      11.22994288      -0.00154645       0.00017222      -0.00090215
Na      30.88234293      25.26737149      11.22994288       0.00154323      -0.00017226       0.00090057
Cl      33.68982865      25.26737149      11.22994288      -0.00154093       0.00017203      -0.00090211
Na      33.68982865      28.07485721      11.22994288       0.00154733      -0.00017226       0.00090065
Cl      36.49731437      28.07485721      11.22994288      -0.00154451       0.00017229      -0.00090242
Na      36.49731437      30.88234293      11.22994288       0.00154446      -0.00017366       0.00090100
Cl      39.30480009      30.88234293      11.22994288      -0.00154816       0.00017103      -0.00090247
Na      39.30480009      33.68982865      11.22994288       0.00154124      -0.00017064       0.00090112
Cl      42.11228581      33.68982865      11.22994288      -0.00154436       0.00017384      -0.00090127
Na      11.22994288       2.80748572      14.03742860       0.00154690      -0.00017137       0.00090005
Cl      14.03742860       2.80748572      14.03742860      -0.00154526       0.00017248      -0.00090208
Na      14.03742860       5.61497144      14.03742860       0.00154379      -0.00017267       0.00090095
Cl      16.84491433       5.61497144      14.03742860      -0.00154168       0.00017186      -0.00090233
Na      16.84491433       8.42245716      14.03742860       0.00154654      -0.00017153       0.00090089
Cl      19.65240005       8.42245716      14.03742860      -0.00154635       0.00017345      -0.00090260
Na      19.65240005      11.22994288      14.03742860       0.00154322      -0.00017301       0.00090078
Cl      22.45988577      11.22994288      14.03742860      -0.00154457       0.00017161      -0.00090236
Na      22.45988577      14.03742860      14.03742860       0.00154468      -0.00017299       0.00090097
Cl      25.26737149      14.03742860      14.03742860      -0.00154486       0.00017135      -0.00090233
Na      25.26737149      16.84491433      14.03742860       0.00154476      -0.00017050       0.00090073
Cl      28.07485721      16.84491433      14.03742860      -0.00154481       0.00017482      -0.00090232
Na      28.07485721      19.65240005      14.03742860       0.00154465      -0.00017335       0.00090092
Cl      30.88234293      19.65240005      14.03742860      -0.00154635       0.00017085      -0.00090240
Na      30.88234293      22.45988577      14.03742860       0.00154322      -0.00017231       0.00090069
Cl      33.68982865      22.45988577      14.03742860      -0.00154089       0.00017233      -0.00090236
Na      33.68982865      25.26737149      14.03742860       0.00154740      -0.00017225       0.00090070
Cl      36.49731437      25.26737149      14.03742860      -0.00154461       0.00017223      -0.00090215
Na      36.49731437      28.07485721      14.03742860       0.00154461      -0.00017237       0.00090094
Cl      39.30480009      28.07485721      14.03742860      -0.00154805       0.00017245      -0.00090248
Na      39.30480009      30.88234293      14.03742860       0.00154157      -0.00017377       0.00090087
Cl      42.11228581      30.88234293      14.03742860      -0.00154086       0.00017115      -0.00090230
Na      42.11228581      33.68982865      14.03742860       0.00154670      -0.00017099       0.00090127
Cl      44.91977153      33.68982865      14.03742860      -0.00154931       0.00017426      -0.00090172
Na      14.03742860       2.80748572      16.84491433       0.00154554      -0.00017125       0.00090218
Cl      16.84491433       2.80748572      16.84491433      -0.00154224       0.00017240      -0.00089844
Na      16.84491433       5.61497144      16.84491433       0.00154663      -0.00017251       0.00090325
Cl      19.65240005       5.61497144      16.84491433      -0.00154660       0.00017199      -0.00089864
Na      19.65240005       8.42245716      16.84491433       0.00154303      -0.00017162       0.00090321
Cl      22.45988577       8.42245716      16.84491433      -0.00154450       0.00017329      -0.00089878
Na      22.45988577      11.22994288      16.84491433       0.00154443      -0.00017294       0.00090326
Cl      25.26737149      11.22994288      16.84491433      -0.00154440       0.00017157      -0.00089877
Na      25.26737149      14.03742860      16.84491433       0.00154465      -0.00017287       0.00090328
Cl      28.07485721      14.03742860      16.84491433      -0.00154479       0.00017144      -0.00089850
Na      28.07485721      16.84491433      16.84491433       0.00154462      -0.00017060       0.00090312
Cl      30.88234293      16.84491433      16.84491433      -0.00154630       0.00017489      -0.00089870
Na      30.88234293      19.65240005      16.84491433       0.00154337      -0.00017360       0.00090316
Cl      33.68982865      19.65240005      16.84491433      -0.00154096       0.00017090      -0.00089850
Na      33.68982865      22.45988577      16.84491433       0.00154749      -0.00017250       0.00090306
Cl      36.49731437      22.45988577      16.84491433      -0.00154483       0.00017220      -0.00089861
Na      36.49731437      25.26737149      16.84491433       0.00154477      -0.00017225       0.00090303
Cl      39.30480009      25.26737149      16.84491433      -0.00154815       0.00017225      -0.00089845
Na      39.30480009      28.07485721      16.84491433       0.00154166      -0.00017229       0.00090311
Cl      42.11228581      28.07485721      16.84491433      -0.00154095       0.00017244      -0.00089849
Na      42.11228581      30.88234293      16.84491433       0.00154702      -0.00017393       0.00090325
Cl      44.91977153      30.88234293      16.84491433      -0.00154809       0.00017127      -0.00089853
Na      44.91977153      33.68982865      16.84491433       0.00154154      -0.00017051       0.00090309
Cl      47.72725725      33.68982865      16.84491433      -0.00154406       0.00017362      -0.00089749
Na      16.84491433       2.80748572      19.65240005       0.00154911      -0.00017156       0.00089920
Cl      19.65240005       2.80748572      19.65240005      -0.00154620       0.00017275      -0.00090315
Na      19.65240005       5.61497144      19.65240005       0.00154301      -0.00017283       0.00090008
Cl      22.45988577       5.61497144      19.65240005      -0.00154429       0.00017201      -0.00090311
Na      22.45988577       8.42245716      19.65240005       0.00154453      -0.00017163       0.00089999
Cl      25.26737149       8.42245716      19.65240005      -0.00154427       0.00017350      -0.00090327
Na      25.26737149      11.22994288      19.65240005       0.00154473      -0.00017314       0.00090006
Cl      28.07485721      11.22994288      19.65240005      -0.00154450       0.00017156      -0.00090331
Na      28.07485721      14.03742860      19.65240005       0.00154477      -0.00017290       0.00090006
Cl      30.88234293      14.03742860      19.65240005      -0.00154629       0.00017140      -0.00090315
Na      30.88234293      16.84491433      19.65240005       0.00154321      -0.00017071       0.00089989
Cl      33.68982865      16.84491433      19.65240005      -0.00154079       0.00017461      -0.00090283
Na      33.68982865      19.65240005      19.65240005       0.00154735      -0.00017368       0.00089975
Cl      36.49731437      19.65240005      19.65240005      -0.00154440       0.00017099      -0.00090315
Na      36.49731437      22.45988577      19.65240005       0.00154456      -0.00017240       0.00089973
Cl      39.30480009      22.45988577      19.65240005      -0.00154814       0.00017221      -0.00090289
Na      39.30480009      25.26737149      19.65240005       0.00154153      -0.00017221       0.00089955
Cl      42.11228581      25.26737149      19.65240005      -0.00154085       0.00017249      -0.00090284
Na      42.11228581      28.07485721      19.65240005       0.00154743      -0.00017249       0.00089968
Cl      44.91977153      28.07485721      19.65240005      -0.00154806       0.00017231      -0.00090291
Na      44.91977153      30.88234293      19.65240005       0.00154167      -0.00017376       0.00090009
Cl      47.72725725      30.88234293      19.65240005      -0.00154069       0.00017096      -0.00090290
Na      47.72725725      33.68982865      19.65240005       0.00154681      -0.00017086       0.00090031
Cl      50.53474298      33.68982865      19.65240005      -0.00154955       0.00017419      -0.00090271
Na      19.65240005       2.80748572      22.45988577       0.00154604      -0.00017131       0.00090015
Cl      22.45988577       2.80748572      22.45988577      -0.00154480       0.00017216      -0.00090123
Na      22.45988577       5.61497144      22.45988577       0.00154441      -0.00017239       0.00090129
Cl      25.26737149       5.61497144      22.45988577      -0.00154465       0.00017177      -0.00090151
Na      25.26737149       8.42245716      22.45988577       0.00154457      -0.00017148       0.00090146
Cl      28.07485721       8.42245716      22.45988577      -0.00154456       0.00017326      -0.00090151
Na      28.07485721      11.22994288      22.45988577       0.00154485      -0.00017280       0.00090147
Cl      30.88234293      11.22994288      22.45988577      -0.00154647       0.00017151      -0.00090151
Na      30.88234293      14.03742860      22.45988577       0.00154315      -0.00017302       0.00090141
Cl      33.68982865      14.03742860      22.45988577      -0.00154090       0.00017146      -0.00090152
Na      33.68982865      16.84491433      22.45988577       0.00154732      -0.00017066       0.00090111
Cl      36.49731437      16.84491433      22.45988577      -0.00154440       0.00017462      -0.00090133
Na      36.49731437      19.65240005      22.45988577       0.00154462      -0.00017362       0.00090119
Cl      39.30480009      19.65240005      22.45988577      -0.00154810       0.00017102      -0.00090128
Na      39.30480009      22.45988577      22.45988577       0.00154180      -0.00017235       0.00090113
Cl      42.11228581      22.45988577      22.45988577      -0.00154090       0.00017223      -0.00090144
Na      42.11228581      25.26737149      22.45988577       0.00154731      -0.00017222       0.00090113
Cl      44.91977153      25.26737149      22.45988577      -0.00154814       0.00017213      -0.00090136
Na      44.91977153      28.07485721      22.45988577       0.00154193      -0.00017216       0.00090120
Cl      47.72725725      28.07485721      22.45988577      -0.00154076       0.00017222      -0.00090148
Na      47.72725725      30.88234293      22.45988577       0.00154713      -0.00017368       0.00090147
Cl      50.53474298      30.88234293      22.45988577      -0.00154828       0.00017091      -0.00090149
Na      50.53474298      33.68982865      22.45988577       0.00154182      -0.00017047       0.00090168
Cl      53.34222870      33.68982865      22.45988577      -0.00154304       0.00017409      -0.00090062
Na      22.45988577       2.80748572      25.26737149       0.00154538      -0.00017188       0.00090076
Cl      25.26737149       2.80748572      25.26737149      -0.00154467       0.00017266      -0.00090125
Na      25.26737149       5.61497144      25.26737149       0.00154489      -0.00017262       0.00090149
Cl      28.07485721       5.61497144      25.26737149      -0.00154479       0.00017201      -0.00090142
Na      28.07485721       8.42245716      25.26737149       0.00154474      -0.00017144       0.00090137
Cl      30.88234293       8.42245716      25.26737149      -0.00154625       0.00017339      -0.00090151
Na      30.88234293      11.22994288      25.26737149       0.00154339      -0.00017297       0.00090134
Cl      33.68982865      11.22994288      25.26737149      -0.00154087       0.00017173      -0.00090118
Na      33.68982865      14.03742860      25.26737149       0.00154724      -0.00017302       0.00090140
Cl      36.49731437      14.03742860      25.26737149      -0.00154447       0.00017160      -0.00090124
Na      36.49731437      16.84491433      25.26737149       0.00154471      -0.00017071       0.00090125
Cl      39.30480009      16.84491433      25.26737149      -0.00154809       0.00017500      -0.00090114
Na      39.30480009      19.65240005      25.26737149       0.00154164      -0.00017375       0.00090119
Cl      42.11228581      19.65240005      25.26737149      -0.00154100       0.00017092      -0.00090135
Na      42.11228581      22.45988577      25.26737149       0.00154729      -0.00017241       0.00090141
Cl      44.91977153      22.45988577      25.26737149      -0.00154817       0.00017238      -0.00090135
Na      44.91977153      25.26737149      25.26737149       0.00154194      -0.00017228       0.00090126
Cl      47.72725725      25.26737149      25.26737149      -0.00154093       0.00017235      -0.00090148
Na      47.72725725      28.07485721      25.26737149       0.00154720      -0.00017235       0.00090144
Cl      50.53474298      28.07485721      25.26737149      -0.00154809       0.00017239      -0.00090143
Na      50.53474298      30.88234293      25.26737149       0.00154182      -0.00017360       0.00090136
Cl      53.34222870      30.88234293      25.26737149      -0.00154064       0.00017101      -0.00090121
Na      53.34222870      33.68982865      25.26737149       0.00154690      -0.00017047       0.00090146
Cl      56.14971442      33.68982865      25.26737149      -0.00154875       0.00017440      -0.00090096
Na      25.26737149       2.80748572      28.07485721       0.00154621      -0.00017155       0.00090041
Cl      28.07485721       2.80748572      28.07485721      -0.00154495       0.00017213      -0.00090090
Na      28.07485721       5.61497144      28.07485721       0.00154471      -0.00017246       0.00090145
Cl      30.88234293       5.61497144      28.07485721      -0.00154634       0.00017182      -0.00090136
Na      30.88234293       8.42245716      28.07485721       0.00154314      -0.00017140       0.00090129
Cl      33.68982865       8.42245716      28.07485721      -0.00154065       0.00017335      -0.00090131
Na      33.68982865      11.22994288      28.07485721       0.00154737      -0.00017281       0.00090111
Cl      36.49731437      11.22994288      28.07485721      -0.00154436       0.00017145      -0.00090130
Na      36.49731437      14.03742860      28.07485721       0.00154449      -0.00017295       0.00090134
Cl      39.30480009      14.03742860      28.07485721      -0.00154820       0.00017136      -0.00090122
Na      39.30480009      16.84491433      28.07485721       0.00154181      -0.00017060       0.00090112
Cl      42.11228581      16.84491433      28.07485721      -0.00154064       0.00017468      -0.00090119
Na      42.11228581      19.65240005      28.07485721       0.00154742      -0.00017354       0.00090119
Cl      44.91977153      19.65240005      28.07485721      -0.00154827       0.00017097      -0.00090106
Na      44.91977153      22.45988577      28.07485721       0.00154183      -0.00017237       0.00090137
Cl      47.72725725      22.45988577      28.07485721      -0.00154078       0.00017206      -0.00090125
Na      47.72725725      25.26737149      28.07485721       0.00154726      -0.00017232       0.00090137
Cl      50.53474298      25.26737149      28.07485721      -0.00154807       0.00017216      -0.00090120
Na      50.53474298      28.07485721      28.07485721       0.00154186      -0.00017228       0.00090130
Cl      53.34222870      28.07485721      28.07485721      -0.00154069       0.00017220      -0.00090131
Na      53.34222870      30.88234293      28.07485721       0.00154720      -0.00017363       0.00090128
Cl      56.14971442      30.88234293      28.07485721      -0.00154824       0.00017095      -0.00090112
Na      56.14971442      33.68982865      28.07485721       0.00154165      -0.00017068       0.00090130
Cl      58.95720014      33.68982865      28.07485721      -0.00154284       0.00017402      -0.00090021
Na      28.07485721       2.80748572      30.88234293       0.00154542      -0.00017147       0.00089899
Cl      30.88234293       2.80748572      30.88234293      -0.00154662       0.00017237      -0.00090266
Na      30.88234293       5.61497144      30.88234293       0.00154325      -0.00017260       0.00089989
Cl      33.68982865       5.61497144      30.88234293      -0.00154083       0.00017181      -0.00090307
Na      33.68982865       8.42245716      30.88234293       0.00154706      -0.00017150       0.00089971
Cl      36.49731437       8.42245716      30.88234293      -0.00154425       0.00017336      -0.00090294
Na      36.49731437      11.22994288      30.88234293       0.00154441      -0.00017270       0.00089981
Cl      39.30480009      11.22994288      30.88234293      -0.00154782       0.00017137      -0.00090280
Na      39.30480009      14.03742860      30.88234293       0.00154143      -0.00017262       0.00089951
Cl      42.11228581      14.03742860      30.88234293      -0.00154098       0.00017113      -0.00090280
Na      42.11228581      16.84491433      30.88234293       0.00154718      -0.00017049       0.00089951
Cl      44.91977153      16.84491433      30.88234293      -0.00154805       0.00017470      -0.00090272
Na      44.91977153      19.65240005      30.88234293       0.00154174      -0.00017319       0.00089937
Cl      47.72725725      19.65240005      30.88234293      -0.00154104       0.00017081      -0.00090241
Na      47.72725725      22.45988577      30.88234293       0.00154712      -0.00017221       0.00089957
Cl      50.53474298      22.45988577      30.88234293      -0.00154814       0.00017192      -0.00090279
Na      50.53474298      25.26737149      30.88234293       0.00154178      -0.00017208       0.00089956
Cl      53.34222870      25.26737149      30.88234293      -0.00154092       0.00017240      -0.00090293
Na      53.34222870      28.07485721      30.88234293       0.00154713      -0.00017241       0.00089969
Cl      56.14971442      28.07485721      30.88234293      -0.00154799       0.00017249      -0.00090278
Na      56.14971442      30.88234293      30.88234293       0.00154154      -0.00017377       0.00089962
Cl      58.95720014      30.88234293      30.88234293      -0.00154062       0.00017102      -0.00090261
Na      58.95720014      33.68982865      30.88234293       0.00154648      -0.00017060       0.00089974
Cl      61.76468586      33.68982865      30.88234293      -0.00154802       0.00017393      -0.00090163
Na      30.88234293       2.80748572      33.68982865       0.00154576      -0.00017119       0.00090279
Cl      33.68982865       2.80748572      33.68982865      -0.00154248       0.00017346      -0.00089955
Na      33.68982865       5.61497144      33.68982865       0.00154673      -0.00017264       0.00090363
Cl      36.49731437       5.61497144      33.68982865      -0.00154789       0.00017302      -0.00089968
Na      36.49731437       8.42245716      33.68982865       0.00154374      -0.00017092       0.00090317
Cl      39.30480009       8.42245716      33.68982865      -0.00155049       0.00017449      -0.00089934
Na      39.30480009      11.22994288      33.68982865       0.00154093      -0.00017262       0.00090333
Cl      42.11228581      11.22994288      33.68982865      -0.00154449       0.00017264      -0.00089969
Na      42.11228581      14.03742860      33.68982865       0.00154698      -0.00017225       0.00090307
Cl      44.91977153      14.03742860      33.68982865      -0.00154921       0.00017191      -0.00089915
Na      44.91977153      16.84491433      33.68982865       0.00154153      -0.00017046       0.00090346
Cl      47.72725725      16.84491433      33.68982865      -0.00154412       0.00017592      -0.00089968
Na      47.72725725      19.65240005      33.68982865       0.00154695      -0.00017300       0.00090292
Cl      50.53474298      19.65240005      33.68982865      -0.00154968       0.00017120      -0.00089898
Na      50.53474298      22.45988577      33.68982865       0.00154183      -0.00017202       0.00090329
Cl      53.34222870      22.45988577      33.68982865      -0.00154301       0.00017277      -0.00089942
Na      53.34222870      25.26737149      33.68982865       0.00154710      -0.00017206       0.00090321
Cl      56.14971442      25.26737149      33.68982865      -0.00154860       0.00017301      -0.00089910
Na      56.14971442      28.07485721      33.68982865       0.00154163      -0.00017238       0.00090328
Cl      58.95720014      28.07485721      33.68982865      -0.00154283       0.00017312      -0.00089938
Na      58.95720014      30.88234293      33.68982865       0.00154662      -0.00017369       0.00090330
Cl      61.76468586      30.88234293      33.68982865      -0.00154811       0.00017207      -0.00089960
Na      61.76468586      33.68982865      33.68982865       0.00154389      -0.00017035       0.00090342
Cl      64.57217158      33.68982865      33.68982865      -0.00155436       0.00017483      -0.00089860
Na       0.00000000       5.61497144       5.61497144       0.00154964      -0.00017105       0.00090267
Cl       2.80748572       5.61497144       5.61497144      -0.00154430       0.00017164      -0.00090204
Na       2.80748572       8.42245716       5.61497144       0.00154527      -0.00017240       0.00090385
Cl       5.61497144       8.42245716       5.61497144      -0.00154493       0.00017316      -0.00090179
Na       5.61497144      11.22994288       5.61497144       0.00154680      -0.00017408       0.00090355
Cl       8.42245716      11.22994288       5.61497144      -0.00154250       0.00017136      -0.00090154
Na       8.42245716      14.03742860       5.61497144       0.00154883      -0.00017441       0.00090390
Cl      11.22994288      14.03742860       5.61497144      -0.00154533       0.00017118      -0.00090161
Na      11.22994288      16.84491433       5.61497144       0.00154750      -0.00017146       0.00090329
Cl      14.03742860      16.84491433       5.61497144      -0.00154458       0.00017469      -0.00090178
Na      14.03742860      19.65240005       5.61497144       0.00154579      -0.00017487       0.00090365
Cl      16.84491433      19.65240005       5.61497144      -0.00154193       0.00017070      -0.00090179
Na      16.84491433      22.45988577       5.61497144       0.00154943      -0.00017295       0.00090338
Cl      19.65240005      22.45988577       5.61497144      -0.00154577       0.00017185      -0.00090107
Na      19.65240005      25.26737149       5.61497144       0.00154617      -0.00017351       0.00090333
Cl      22.45988577      25.26737149       5.61497144      -0.00154453       0.00017234      -0.00090195
Na      22.45988577      28.07485721       5.61497144       0.00154560      -0.00017309       0.00090329
Cl      25.26737149      28.07485721       5.61497144      -0.00154445       0.00017205      -0.00090179
Na      25.26737149      30.88234293       5.61497144       0.00154653      -0.00017460       0.00090352
Cl      28.07485721      30.88234293       5.61497144      -0.00154473       0.00017098      -0.00090210
Na      28.07485721      33.68982865       5.61497144       0.00154552      -0.00017096       0.00090353
Cl      30.88234293      33.68982865       5.61497144      -0.00154596       0.00017553      -0.00090182
Na      30.88234293      36.49731437       5.61497144       0.00154557      -0.00017320       0.00090359
Cl      33.68982865      36.49731437       5.61497144      -0.00154222       0.00016856      -0.00090020
Na       2.80748572       5.61497144       8.42245716       0.00154538      -0.00017029       0.00090108
Cl       5.61497144       5.61497144       8.42245716      -0.00154492       0.00017180      -0.00090016
Na       5.61497144       8.42245716       8.42245716       0.00154388      -0.00017135       0.00090211
Cl       8.42245716       8.42245716       8.42245716      -0.00154319       0.00017335      -0.00089987
Na       8.42245716      11.22994288       8.42245716       0.00154565      -0.00017297       0.00090189
Cl      11.22994288      11.22994288       8.42245716      -0.00154570       0.00017145      -0.00089981
Na      11.22994288      14.03742860       8.42245716       0.00154385      -0.00017282       0.00090208
Cl      14.03742860      14.03742860       8.42245716      -0.00154526       0.00017147      -0.00089967
Na      14.03742860      16.84491433       8.42245716       0.00154384      -0.00017066       0.00090187
Cl      16.84491433      16.84491433       8.42245716      -0.00154156       0.00017453      -0.00089993
Na      16.84491433      19.65240005       8.42245716       0.00154654      -0.00017325       0.00090183
Cl      19.65240005      19.65240005       8.42245716      -0.00154642       0.00017079      -0.00089980
Na      19.65240005      22.45988577       8.42245716       0.00154292      -0.00017223       0.00090163
Cl      22.45988577      22.45988577       8.42245716      -0.00154469       0.00017219      -0.00089977
Na      22.45988577      25.26737149       8.42245716       0.00154436      -0.00017218       0.00090198
Cl      25.26737149      25.26737149       8.42245716      -0.00154472       0.00017221      -0.00089979
Na      25.26737149      28.07485721       8.42245716       0.00154459      -0.00017223       0.00090188
Cl      28.07485721      28.07485721       8.42245716      -0.00154482       0.00017203      -0.00089977
Na      28.07485721      30.88234293       8.42245716       0.00154456      -0.00017344       0.00090216
Cl      30.88234293      30.88234293       8.42245716      -0.00154624       0.00017089      -0.00089998
Na      30.88234293      33.68982865       8.42245716       0.00154312      -0.00017024       0.00090207
Cl      33.68982865      33.68982865       8.42245716      -0.00154039       0.00017573      -0.00089999
Na      33.68982865      36.49731437       8.42245716       0.00154643      -0.00017271       0.00090217
Cl      36.49731437      36.49731437       8.42245716      -0.00154792       0.00016919      -0.00089838
Na       5.61497144       5.61497144      11.22994288       0.00154703      -0.00016977       0.00089959
Cl       8.42245716       5.61497144      11.22994288      -0.00154245       0.00017202      -0.00090237
Na       8.42245716       8.42245716      11.22994288       0.00154549      -0.00017168       0.00090063
Cl      11.22994288       8.42245716      11.22994288      -0.00154544       0.00017353      -0.00090224
Na      11.22994288      11.22994288      11.22994288       0.00154379      -0.00017314       0.00090038
Cl      14.03742860      11.22994288      11.22994288      -0.00154536       0.00017161      -0.00090214
Na      14.03742860      14.03742860      11.22994288       0.00154382      -0.00017292       0.00090024
Cl      16.84491433      14.03742860      11.22994288      -0.00154160       0.00017158      -0.00090202
Na      16.84491433      16.84491433      11.22994288       0.00154662      -0.00017056       0.00090031
Cl      19.65240005      16.84491433      11.22994288      -0.00154665       0.00017468      -0.00090197
Na      19.65240005      19.65240005      11.22994288       0.00154326      -0.00017366       0.00090045
Cl      22.45988577      19.65240005      11.22994288      -0.00154449       0.00017090      -0.00090201
Na      22.45988577      22.45988577      11.22994288       0.00154463      -0.00017222       0.00090044
Cl      25.26737149      22.45988577      11.22994288      -0.00154478       0.00017226      -0.00090203
Na      25.26737149      25.26737149      11.22994288       0.00154467      -0.00017217       0.00090052
Cl      28.07485721      25.26737149      11.22994288      -0.00154466       0.00017224      -0.00090211
Na      28.07485721      28.07485721      11.22994288       0.00154468      -0.00017221       0.00090042
Cl      30.88234293      28.07485721      11.22994288      -0.00154630       0.00017234      -0.00090205
Na      30.88234293      30.88234293      11.22994288       0.00154319      -0.00017354       0.00090038
Cl      33.68982865      30.88234293      11.22994288      -0.00154065       0.00017085      -0.00090226
Na      33.68982865      33.68982865      11.22994288       0.00154711      -0.00017032       0.00090055
Cl      36.49731437      33.68982865      11.22994288      -0.00154419       0.00017581      -0.00090229
Na      36.49731437      36.49731437      11.22994288       0.00154355      -0.00017328       0.00090129
Cl      39.30480009      36.49731437      11.22994288      -0.00155085       0.00016933      -0.00090113
Na       8.42245716       5.61497144      14.03742860       0.00154888      -0.00016977       0.00089920
Cl      11.22994288       5.61497144      14.03742860      -0.00154553       0.00017210      -0.00090251
Na      11.22994288       8.42245716      14.03742860       0.00154397      -0.00017176       0.00090105
Cl      14.03742860       8.42245716      14.03742860      -0.00154526       0.00017354      -0.00090251
Na      14.03742860      11.22994288      14.03742860       0.00154384      -0.00017322       0.00090085
Cl      16.84491433      11.22994288      14.03742860      -0.00154173       0.00017193      -0.00090224
Na      16.84491433      14.03742860      14.03742860       0.00154669      -0.00017333       0.00090065
Cl      19.65240005      14.03742860      14.03742860      -0.00154671       0.00017166      -0.00090224
Na      19.65240005      16.84491433      14.03742860       0.00154328      -0.00017096       0.00090047
Cl      22.45988577      16.84491433      14.03742860      -0.00154463       0.00017483      -0.00090211
Na      22.45988577      19.65240005      14.03742860       0.00154476      -0.00017355       0.00090066
Cl      25.26737149      19.65240005      14.03742860      -0.00154482       0.00017089      -0.00090217
Na      25.26737149      22.45988577      14.03742860       0.00154480      -0.00017239       0.00090070
Cl      28.07485721      22.45988577      14.03742860      -0.00154467       0.00017225      -0.00090228
Na      28.07485721      25.26737149      14.03742860       0.00154480      -0.00017240       0.00090071
Cl      30.88234293      25.26737149      14.03742860      -0.00154633       0.00017233      -0.00090210
Na      30.88234293      28.07485721      14.03742860       0.00154337      -0.00017230       0.00090058
Cl      33.68982865      28.07485721      14.03742860      -0.00154089       0.00017221      -0.00090218
Na      33.68982865      30.88234293      14.03742860       0.00154736      -0.00017359       0.00090081
Cl      36.49731437      30.88234293      14.03742860      -0.00154452       0.00017101      -0.00090233
Na      36.49731437      33.68982865      14.03742860       0.00154451      -0.00017022       0.00090063
Cl      39.30480009      33.68982865      14.03742860      -0.00154785       0.00017617      -0.00090236
Na      39.30480009      36.49731437      14.03742860       0.00154085      -0.00017320       0.00090112
Cl      42.11228581      36.49731437      14.03742860      -0.00154451       0.00016918      -0.00090078
Na      11.22994288       5.61497144      16.84491433       0.00154747      -0.00016975       0.00090222
Cl      14.03742860       5.61497144      16.84491433      -0.00154471       0.00017200      -0.00089874
Na      14.03742860       8.42245716      16.84491433       0.00154374      -0.00017167       0.00090343
Cl      16.84491433       8.42245716      16.84491433      -0.00154171       0.00017346      -0.00089848
Na      16.84491433      11.22994288      16.84491433       0.00154666      -0.00017340       0.00090296
Cl      19.65240005      11.22994288      16.84491433      -0.00154657       0.00017186      -0.00089851
Na      19.65240005      14.03742860      16.84491433       0.00154339      -0.00017307       0.00090296
Cl      22.45988577      14.03742860      16.84491433      -0.00154475       0.00017164      -0.00089838
Na      22.45988577      16.84491433      16.84491433       0.00154461      -0.00017082       0.00090296
Cl      25.26737149      16.84491433      16.84491433      -0.00154479       0.00017467      -0.00089851
Na      25.26737149      19.65240005      16.84491433       0.00154494      -0.00017338       0.00090326
Cl      28.07485721      19.65240005      16.84491433      -0.00154474       0.00017079      -0.00089849
Na      28.07485721      22.45988577      16.84491433       0.00154475      -0.00017235       0.00090299
Cl      30.88234293      22.45988577      16.84491433      -0.00154629       0.00017230      -0.00089836
Na      30.88234293      25.26737149      16.84491433       0.00154344      -0.00017234       0.00090300
Cl      33.68982865      25.26737149      16.84491433      -0.00154119       0.00017248      -0.00089837
Na      33.68982865      28.07485721      16.84491433       0.00154750      -0.00017246       0.00090287
Cl      36.49731437      28.07485721      16.84491433      -0.00154474       0.00017235      -0.00089853
Na      36.49731437      30.88234293      16.84491433       0.00154475      -0.00017375       0.00090295
Cl      39.30480009      30.88234293      16.84491433      -0.00154809       0.00017098      -0.00089842
Na      39.30480009      33.68982865      16.84491433       0.00154168      -0.00017047       0.00090302
Cl      42.11228581      33.68982865      16.84491433      -0.00154071       0.00017608      -0.00089870
Na      42.11228581      36.49731437      16.84491433       0.00154674      -0.00017340       0.00090387
Cl      44.91977153      36.49731437      16.84491433      -0.00154963       0.00016930      -0.00089779
Na      14.03742860       5.61497144      19.65240005       0.00154583      -0.00016988       0.00089845
Cl      16.84491433       5.61497144      19.65240005      -0.00154185       0.00017185      -0.00090317
Na      16.84491433       8.42245716      19.65240005       0.00154666      -0.00017170       0.00089960
Cl      19.65240005       8.42245716      19.65240005      -0.00154647       0.00017357      -0.00090308
Na      19.65240005      11.22994288      19.65240005       0.00154312      -0.00017351       0.00089981
Cl      22.45988577      11.22994288      19.65240005      -0.00154469       0.00017211      -0.00090312
Na      22.45988577      14.03742860      19.65240005       0.00154467      -0.00017312       0.00089960
Cl      25.26737149      14.03742860      19.65240005      -0.00154477       0.00017160      -0.00090325
Na      25.26737149      16.84491433      19.65240005       0.00154488      -0.00017067       0.00089976
Cl      28.07485721      16.84491433      19.65240005      -0.00154474       0.00017494      -0.00090299
Na      28.07485721      19.65240005      19.65240005       0.00154494      -0.00017404       0.00089979
Cl      30.88234293      19.65240005      19.65240005      -0.00154655       0.00017103      -0.00090296
Na      30.88234293      22.45988577      19.65240005       0.00154346      -0.00017252       0.00089983
Cl      33.68982865      22.45988577      19.65240005      -0.00154101       0.00017248      -0.00090283
Na      33.68982865      25.26737149      19.65240005       0.00154766      -0.00017259       0.00089958
Cl      36.49731437      25.26737149      19.65240005      -0.00154465       0.00017247      -0.00090277
Na      36.49731437      28.07485721      19.65240005       0.00154479      -0.00017259       0.00089971
Cl      39.30480009      28.07485721      19.65240005      -0.00154832       0.00017224      -0.00090285
Na      39.30480009      30.88234293      19.65240005       0.00154191      -0.00017367       0.00089968
Cl      42.11228581      30.88234293      19.65240005      -0.00154074       0.00017088      -0.00090285
Na      42.11228581      33.68982865      19.65240005       0.00154720      -0.00017047       0.00089988
Cl      44.91977153      33.68982865      19.65240005      -0.00154805       0.00017600      -0.00090301
Na      44.91977153      36.49731437      19.65240005       0.00154117      -0.00017270       0.00090006
Cl      47.72725725      36.49731437      19.65240005      -0.00154450       0.00016920      -0.00090166
Na      16.84491433       5.61497144      22.45988577       0.00154927      -0.00017019       0.00090085
Cl      19.65240005       5.61497144      22.45988577      -0.00154581       0.00017239      -0.00090197
Na      19.65240005       8.42245716      22.45988577       0.00154305      -0.00017187       0.00090161
Cl      22.45988577       8.42245716      22.45988577      -0.00154459       0.00017343      -0.00090129
Na      22.45988577      11.22994288      22.45988577       0.00154461      -0.00017346       0.00090131
Cl      25.26737149      11.22994288      22.45988577      -0.00154479       0.00017179      -0.00090138
Na      25.26737149      14.03742860      22.45988577       0.00154498      -0.00017323       0.00090145
Cl      28.07485721      14.03742860      22.45988577      -0.00154480       0.00017163      -0.00090146
Na      28.07485721      16.84491433      22.45988577       0.00154485      -0.00017085       0.00090117
Cl      30.88234293      16.84491433      22.45988577      -0.00154622       0.00017497      -0.00090133
Na      30.88234293      19.65240005      22.45988577       0.00154348      -0.00017370       0.00090119
Cl      33.68982865      19.65240005      22.45988577      -0.00154111       0.00017095      -0.00090118
Na      33.68982865      22.45988577      22.45988577       0.00154752      -0.00017254       0.00090105
Cl      36.49731437      22.45988577      22.45988577      -0.00154460       0.00017232      -0.00090114
Na      36.49731437      25.26737149      22.45988577       0.00154473      -0.00017239       0.00090101
Cl      39.30480009      25.26737149      22.45988577      -0.00154818       0.00017230      -0.00090103
Na      39.30480009      28.07485721      22.45988577       0.00154186      -0.00017230       0.00090099
Cl      42.11228581      28.07485721      22.45988577      -0.00154095       0.00017219      -0.00090124
Na      42.11228581      30.88234293      22.45988577       0.00154742      -0.00017347       0.00090120
Cl      44.91977153      30.88234293      22.45988577      -0.00154821       0.00017094      -0.00090132
Na      44.91977153      33.68982865      22.45988577       0.00154166      -0.00017052       0.00090132
Cl      47.72725725      33.68982865      22.45988577      -0.00154058       0.00017605      -0.00090143
Na      47.72725725      36.49731437      22.45988577       0.00154664      -0.00017341       0.00090218
Cl      50.53474298      36.49731437      22.45988577      -0.00154974       0.00016946      -0.00090062
Na      19.65240005       5.61497144      25.26737149       0.00154607      -0.00017004       0.00090003
Cl      22.45988577       5.61497144      25.26737149      -0.00154469       0.00017188      -0.00090127
Na      22.45988577       8.42245716      25.26737149       0.00154440      -0.00017162       0.00090122
Cl      25.26737149       8.42245716      25.26737149      -0.00154474       0.00017324      -0.00090143
Na      25.26737149      11.22994288      25.26737149       0.00154479      -0.00017325       0.00090136
Cl      28.07485721      11.22994288      25.26737149      -0.00154481       0.00017173      -0.00090134
Na      28.07485721      14.03742860      25.26737149       0.00154502      -0.00017327       0.00090133
Cl      30.88234293      14.03742860      25.26737149      -0.00154641       0.00017166      -0.00090125
Na      30.88234293      16.84491433      25.26737149       0.00154345      -0.00017084       0.00090115
Cl      33.68982865      16.84491433      25.26737149      -0.00154088       0.00017486      -0.00090111
Na      33.68982865      19.65240005      25.26737149       0.00154760      -0.00017386       0.00090128
Cl      36.49731437      19.65240005      25.26737149      -0.00154475       0.00017097      -0.00090130
Na      36.49731437      22.45988577      25.26737149       0.00154459      -0.00017251       0.00090123
Cl      39.30480009      22.45988577      25.26737149      -0.00154821       0.00017237      -0.00090125
Na      39.30480009      25.26737149      25.26737149       0.00154188      -0.00017234       0.00090118
Cl      42.11228581      25.26737149      25.26737149      -0.00154104       0.00017234      -0.00090118
Na      42.11228581      28.07485721      25.26737149       0.00154737      -0.00017243       0.00090135
Cl      44.91977153      28.07485721      25.26737149      -0.00154826       0.00017227      -0.00090139
Na      44.91977153      30.88234293      25.26737149       0.00154206      -0.00017363       0.00090110
Cl      47.72725725      30.88234293      25.26737149      -0.00154090       0.00017092      -0.00090133
Na      47.72725725      33.68982865      25.26737149       0.00154720      -0.00017051       0.00090132
Cl      50.53474298      33.68982865      25.26737149      -0.00154814       0.00017606      -0.00090146
Na      50.53474298      36.49731437      25.26737149       0.00154159      -0.00017298       0.00090174
Cl      53.34222870      36.49731437      25.26737149      -0.00154327       0.00016948      -0.00090006
Na      22.45988577       5.61497144      28.07485721       0.00154523      -0.00017056       0.00090052
Cl      25.26737149       5.61497144      28.07485721      -0.00154454       0.00017205      -0.00090153
Na      25.26737149       8.42245716      28.07485721       0.00154464      -0.00017161       0.00090141
Cl      28.07485721       8.42245716      28.07485721      -0.00154467       0.00017326      -0.00090142
Na      28.07485721      11.22994288      28.07485721       0.00154484      -0.00017316       0.00090125
Cl      30.88234293      11.22994288      28.07485721      -0.00154647       0.00017161      -0.00090123
Na      30.88234293      14.03742860      28.07485721       0.00154338      -0.00017320       0.00090122
Cl      33.68982865      14.03742860      28.07485721      -0.00154092       0.00017156      -0.00090125
Na      33.68982865      16.84491433      28.07485721       0.00154755      -0.00017084       0.00090089
Cl      36.49731437      16.84491433      28.07485721      -0.00154459       0.00017497      -0.00090118
Na      36.49731437      19.65240005      28.07485721       0.00154471      -0.00017375       0.00090128
Cl      39.30480009      19.65240005      28.07485721      -0.00154819       0.00017098      -0.00090116
Na      39.30480009      22.45988577      28.07485721       0.00154189      -0.00017255       0.00090134
Cl      42.11228581      22.45988577      28.07485721      -0.00154098       0.00017223      -0.00090123
Na      42.11228581      25.26737149      28.07485721       0.00154745      -0.00017242       0.00090124
Cl      44.91977153      25.26737149      28.07485721      -0.00154821       0.00017242      -0.00090129
Na      44.91977153      28.07485721      28.07485721       0.00154197      -0.00017244       0.00090125
Cl      47.72725725      28.07485721      28.07485721      -0.00154094       0.00017230      -0.00090127
Na      47.72725725      30.88234293      28.07485721       0.00154742      -0.00017370       0.00090117
Cl      50.53474298      30.88234293      28.07485721      -0.00154831       0.00017109      -0.00090119
Na      50.53474298      33.68982865      28.07485721       0.00154169      -0.00017038       0.00090130
Cl      53.34222870      33.68982865      28.07485721      -0.00154058       0.00017592      -0.00090122
Na      53.34222870      36.49731437      28.07485721       0.00154687      -0.00017314       0.00090164
Cl      56.14971442      36.49731437      28.07485721      -0.00154895       0.00017001      -0.00090040
Na      25.26737149       5.61497144      30.88234293       0.00154640      -0.00017001       0.00089885
Cl      28.07485721       5.61497144      30.88234293      -0.00154480       0.00017162      -0.00090278
Na      28.07485721       8.42245716      30.88234293       0.00154462      -0.00017143       0.00089989
Cl      30.88234293       8.42245716      30.88234293      -0.00154628       0.00017344      -0.00090314
Na      30.88234293      11.22994288      30.88234293       0.00154320      -0.00017286       0.00089980
Cl      33.68982865      11.22994288      30.88234293      -0.00154086       0.00017164      -0.00090286
Na      33.68982865      14.03742860      30.88234293       0.00154734      -0.00017330       0.00089977
Cl      36.49731437      14.03742860      30.88234293      -0.00154457       0.00017160      -0.00090294
Na      36.49731437      16.84491433      30.88234293       0.00154477      -0.00017089       0.00089977
Cl      39.30480009      16.84491433      30.88234293      -0.00154798       0.00017489      -0.00090278
Na      39.30480009      19.65240005      30.88234293       0.00154167      -0.00017371       0.00089958
Cl      42.11228581      19.65240005      30.88234293      -0.00154104       0.00017095      -0.00090258
Na      42.11228581      22.45988577      30.88234293       0.00154736      -0.00017250       0.00089965
Cl      44.91977153      22.45988577      30.88234293      -0.00154815       0.00017201      -0.00090278
Na      44.91977153      25.26737149      30.88234293       0.00154194      -0.00017224       0.00089960
Cl      47.72725725      25.26737149      30.88234293      -0.00154097       0.00017239      -0.00090279
Na      47.72725725      28.07485721      30.88234293       0.00154752      -0.00017248       0.00089978
Cl      50.53474298      28.07485721      30.88234293      -0.00154821       0.00017231      -0.00090275
Na      50.53474298      30.88234293      30.88234293       0.00154188      -0.00017383       0.00089957
Cl      53.34222870      30.88234293      30.88234293      -0.00154087       0.00017075      -0.00090269
Na      53.34222870      33.68982865      30.88234293       0.00154707      -0.00017043       0.00089986
Cl      56.14971442      33.68982865      30.88234293      -0.00154776       0.00017594      -0.00090296
Na      56.14971442      36.49731437      30.88234293       0.00154111      -0.00017292       0.00090012
Cl      58.95720014      36.49731437      30.88234293      -0.00154305       0.00016937      -0.00090163
Na      28.07485721       5.61497144      33.68982865       0.00154564      -0.00017000       0.00090263
Cl      30.88234293       5.61497144      33.68982865      -0.00154615       0.00017183      -0.00089777
Na      30.88234293       8.42245716      33.68982865       0.00154301      -0.00017152       0.00090388
Cl      33.68982865       8.42245716      33.68982865      -0.00154061       0.00017336      -0.00089734
Na      33.68982865      11.22994288      33.68982865       0.00154716      -0.00017286       0.00090364
Cl      36.49731437      11.22994288      33.68982865      -0.00154431       0.00017153      -0.00089717
Na      36.49731437      14.03742860      33.68982865       0.00154434      -0.00017290       0.00090337
Cl      39.30480009      14.03742860      33.68982865      -0.00154809       0.00017127      -0.00089705
Na      39.30480009      16.84491433      33.68982865       0.00154152      -0.00017043       0.00090328
Cl      42.11228581      16.84491433      33.68982865      -0.00154082       0.00017458      -0.00089719
Na      42.11228581      19.65240005      33.68982865       0.00154721      -0.00017327       0.00090353
Cl      44.91977153      19.65240005      33.68982865      -0.00154813       0.00017073      -0.00089716
Na      44.91977153      22.45988577      33.68982865       0.00154172      -0.00017213       0.00090350
Cl      47.72725725      22.45988577      33.68982865      -0.00154081       0.00017194      -0.00089707
Na      47.72725725      25.26737149      33.68982865       0.00154712      -0.00017212       0.00090344
Cl      50.53474298      25.26737149      33.68982865      -0.00154824       0.00017211      -0.00089707
Na      50.53474298      28.07485721      33.68982865       0.00154175      -0.00017233       0.00090338
Cl      53.34222870      28.07485721      33.68982865      -0.00154085       0.00017261      -0.00089704
Na      53.34222870      30.88234293      33.68982865       0.00154723      -0.00017366       0.00090344
Cl      56.14971442      30.88234293      33.68982865      -0.00154808       0.00017090      -0.00089728
Na      56.14971442      33.68982865      33.68982865       0.00154150      -0.00017029       0.00090375
Cl      58.95720014      33.68982865      33.68982865      -0.00154041       0.00017575      -0.00089751
Na      58.95720014      36.49731437      33.68982865       0.00154646      -0.00017296       0.00090407
Cl      61.76468586      36.49731437      33.68982865      -0.00154814       0.00016903      -0.00089602
Na      30.88234293       5.61497144      36.49731437       0.00154560      -0.00016953       0.00090020
Cl      33.68982865       5.61497144      36.49731437      -0.00154220       0.00017328      -0.00090513
Na      33.68982865       8.42245716      36.49731437       0.00154648      -0.00017128       0.00090089
Cl      36.49731437       8.42245716      36.49731437      -0.00154790       0.00017484      -0.00090508
Na      36.49731437      11.22994288      36.49731437       0.00154341      -0.00017241       0.00090030
Cl      39.30480009      11.22994288      36.49731437      -0.00155106       0.00017270      -0.00090452
Na      39.30480009      14.03742860      36.49731437       0.00154098      -0.00017259       0.00090044
Cl      42.11228581      14.03742860      36.49731437      -0.00154484       0.00017262      -0.00090453
Na      42.11228581      16.84491433      36.49731437       0.00154690      -0.00016988       0.00090013
Cl      44.91977153      16.84491433      36.49731437      -0.00154967       0.00017592      -0.00090414
Na      44.91977153      19.65240005      36.49731437       0.00154112      -0.00017335       0.00090069
Cl      47.72725725      19.65240005      36.49731437      -0.00154448       0.00017212      -0.00090470
Na      47.72725725      22.45988577      36.49731437       0.00154677      -0.00017147       0.00090003
Cl      50.53474298      22.45988577      36.49731437      -0.00155010       0.00017289      -0.00090403
Na      50.53474298      25.26737149      36.49731437       0.00154157      -0.00017204       0.00090050
Cl      53.34222870      25.26737149      36.49731437      -0.00154315       0.00017336      -0.00090406
Na      53.34222870      28.07485721      36.49731437       0.00154692      -0.00017223       0.00090026
Cl      56.14971442      28.07485721      36.49731437      -0.00154907       0.00017339      -0.00090390
Na      56.14971442      30.88234293      36.49731437       0.00154145      -0.00017333       0.00090071
Cl      58.95720014      30.88234293      36.49731437      -0.00154307       0.00017180      -0.00090437
Na      58.95720014      33.68982865      36.49731437       0.00154648      -0.00016978       0.00090077
Cl      61.76468586      33.68982865      36.49731437      -0.00154820       0.00017715      -0.00090483
Na      61.76468586      36.49731437      36.49731437       0.00154315      -0.00017239       0.00090100
Cl      64.57217158      36.49731437      36.49731437      -0.00155489       0.00016995      -0.00090333
Na       0.00000000       8.42245716       8.42245716       0.00155024      -0.00017000       0.00090381
Cl       2.80748572       8.42245716       8.42245716      -0.00154397       0.00017373      -0.00089953
Na       2.80748572      11.22994288       8.42245716       0.00154578      -0.00017440       0.00090487
Cl       5.61497144      11.22994288       8.42245716      -0.00154485       0.00017149      -0.00089922
Na       5.61497144      14.03742860       8.42245716       0.00154747      -0.00017458       0.00090502
Cl       8.42245716      14.03742860       8.42245716      -0.00154267       0.00017126      -0.00089903
Na       8.42245716      16.84491433       8.42245716       0.00154914      -0.00017208       0.00090545
Cl      11.22994288      16.84491433       8.42245716      -0.00154526       0.00017413      -0.00089901
Na      11.22994288      19.65240005       8.42245716       0.00154782      -0.00017489       0.00090514
Cl      14.03742860      19.65240005       8.42245716      -0.00154489       0.00017062      -0.00089899
Na      14.03742860      22.45988577       8.42245716       0.00154630      -0.00017371       0.00090515
Cl      16.84491433      22.45988577       8.42245716      -0.00154175       0.00017205      -0.00089918
Na      16.84491433      25.26737149       8.42245716       0.00154959      -0.00017357       0.00090453
Cl      19.65240005      25.26737149       8.42245716      -0.00154573       0.00017170      -0.00089869
Na      19.65240005      28.07485721       8.42245716       0.00154674      -0.00017374       0.00090520
Cl      22.45988577      28.07485721       8.42245716      -0.00154454       0.00017219      -0.00089951
Na      22.45988577      30.88234293       8.42245716       0.00154596      -0.00017447       0.00090480
Cl      25.26737149      30.88234293       8.42245716      -0.00154425       0.00017036      -0.00089905
Na      25.26737149      33.68982865       8.42245716       0.00154677      -0.00017139       0.00090516
Cl      28.07485721      33.68982865       8.42245716      -0.00154468       0.00017551      -0.00089952
Na      28.07485721      36.49731437       8.42245716       0.00154593      -0.00017379       0.00090509
Cl      30.88234293      36.49731437       8.42245716      -0.00154605       0.00017214      -0.00089905
Na      30.88234293      39.30480009       8.42245716       0.00154623      -0.00017609       0.00090484
Cl      33.68982865      39.30480009       8.42245716      -0.00154204       0.00016598      -0.00089797
Na       2.80748572       8.42245716      11.22994288       0.00154561      -0.00016876       0.00089901
Cl       5.61497144       8.42245716      11.22994288      -0.00154479       0.00017405      -0.00090245
Na       5.61497144      11.22994288      11.22994288       0.00154401      -0.00017338       0.00090043
Cl       8.42245716      11.22994288      11.22994288      -0.00154316       0.00017179      -0.00090170
Na       8.42245716      14.03742860      11.22994288       0.00154559      -0.00017311       0.00090021
Cl      11.22994288      14.03742860      11.22994288      -0.00154564       0.00017171      -0.00090182
Na      11.22994288      16.84491433      11.22994288       0.00154401      -0.00017057       0.00090013
Cl      14.03742860      16.84491433      11.22994288      -0.00154527       0.00017469      -0.00090180
Na      14.03742860      19.65240005      11.22994288       0.00154359      -0.00017365       0.00090025
Cl      16.84491433      19.65240005      11.22994288      -0.00154171       0.00017097      -0.00090165
Na      16.84491433      22.45988577      11.22994288       0.00154663      -0.00017233       0.00090006
Cl      19.65240005      22.45988577      11.22994288      -0.00154641       0.00017232      -0.00090182
Na      19.65240005      25.26737149      11.22994288       0.00154314      -0.00017212       0.00090019
Cl      22.45988577      25.26737149      11.22994288      -0.00154452       0.00017205      -0.00090185
Na      22.45988577      28.07485721      11.22994288       0.00154442      -0.00017219       0.00090052
Cl      25.26737149      28.07485721      11.22994288      -0.00154468       0.00017215      -0.00090186
Na      25.26737149      30.88234293      11.22994288       0.00154482      -0.00017345       0.00090023
Cl      28.07485721      30.88234293      11.22994288      -0.00154461       0.00017083      -0.00090200
Na      28.07485721      33.68982865      11.22994288       0.00154461      -0.00017026       0.00090040
Cl      30.88234293      33.68982865      11.22994288      -0.00154617       0.00017574      -0.00090194
Na      30.88234293      36.49731437      11.22994288       0.00154296      -0.00017247       0.00090016
Cl      33.68982865      36.49731437      11.22994288      -0.00154050       0.00017264      -0.00090202
Na      33.68982865      39.30480009      11.22994288       0.00154674      -0.00017490       0.00090041
Cl      36.49731437      39.30480009      11.22994288      -0.00154811       0.00016660      -0.00090064
Na       5.61497144       8.42245716      14.03742860       0.00154720      -0.00016855       0.00089918
Cl       8.42245716       8.42245716      14.03742860      -0.00154274       0.00017435      -0.00090256
Na       8.42245716      11.22994288      14.03742860       0.00154554      -0.00017329       0.00090059
Cl      11.22994288      11.22994288      14.03742860      -0.00154562       0.00017210      -0.00090227
Na      11.22994288      14.03742860      14.03742860       0.00154391      -0.00017315       0.00090051
Cl      14.03742860      14.03742860      14.03742860      -0.00154535       0.00017179      -0.00090207
Na      14.03742860      16.84491433      14.03742860       0.00154384      -0.00017070       0.00090044
Cl      16.84491433      16.84491433      14.03742860      -0.00154176       0.00017492      -0.00090187
Na      16.84491433      19.65240005      14.03742860       0.00154661      -0.00017358       0.00090058
Cl      19.65240005      19.65240005      14.03742860      -0.00154654       0.00017113      -0.00090207
Na      19.65240005      22.45988577      14.03742860       0.00154317      -0.00017224       0.00090062
Cl      22.45988577      22.45988577      14.03742860      -0.00154471       0.00017221      -0.00090222
Na      22.45988577      25.26737149      14.03742860       0.00154482      -0.00017227       0.00090062
Cl      25.26737149      25.26737149      14.03742860      -0.00154478       0.00017234      -0.00090217
Na      25.26737149      28.07485721      14.03742860       0.00154471      -0.00017244       0.00090059
Cl      28.07485721      28.07485721      14.03742860      -0.00154480       0.00017236      -0.00090211
Na      28.07485721      30.88234293      14.03742860       0.00154474      -0.00017368       0.00090057
Cl      30.88234293      30.88234293      14.03742860      -0.00154641       0.00017086      -0.00090186
Na      30.88234293      33.68982865      14.03742860       0.00154322      -0.00017022       0.00090033
Cl      33.68982865      33.68982865      14.03742860      -0.00154085       0.00017568      -0.00090214
Na      33.68982865      36.49731437      14.03742860       0.00154731      -0.00017271       0.00090059
Cl      36.49731437      36.49731437      14.03742860      -0.00154422       0.00017272      -0.00090213
Na      36.49731437      39.30480009      14.03742860       0.00154403      -0.00017536       0.00090097
Cl      39.30480009      39.30480009      14.03742860      -0.00155089       0.00016658      -0.00090114
Na       8.42245716       8.42245716      16.84491433       0.00154933      -0.00016859       0.00090147
Cl      11.22994288       8.42245716      16.84491433      -0.00154532       0.00017417      -0.00089908
Na      11.22994288      11.22994288      16.84491433       0.00154392      -0.00017331       0.00090334
Cl      14.03742860      11.22994288      16.84491433      -0.00154529       0.00017203      -0.00089859
Na      14.03742860      14.03742860      16.84491433       0.00154393      -0.00017344       0.00090321
Cl      16.84491433      14.03742860      16.84491433      -0.00154191       0.00017189      -0.00089838
Na      16.84491433      16.84491433      16.84491433       0.00154682      -0.00017074       0.00090281
Cl      19.65240005      16.84491433      16.84491433      -0.00154690       0.00017483      -0.00089844
Na      19.65240005      19.65240005      16.84491433       0.00154342      -0.00017367       0.00090303
Cl      22.45988577      19.65240005      16.84491433      -0.00154481       0.00017101      -0.00089835
Na      22.45988577      22.45988577      16.84491433       0.00154482      -0.00017238       0.00090293
Cl      25.26737149      22.45988577      16.84491433      -0.00154495       0.00017221      -0.00089830
Na      25.26737149      25.26737149      16.84491433       0.00154493      -0.00017230       0.00090282
Cl      28.07485721      25.26737149      16.84491433      -0.00154487       0.00017224      -0.00089819
Na      28.07485721      28.07485721      16.84491433       0.00154473      -0.00017238       0.00090289
Cl      30.88234293      28.07485721      16.84491433      -0.00154627       0.00017234      -0.00089828
Na      30.88234293      30.88234293      16.84491433       0.00154357      -0.00017365       0.00090293
Cl      33.68982865      30.88234293      16.84491433      -0.00154112       0.00017085      -0.00089820
Na      33.68982865      33.68982865      16.84491433       0.00154746      -0.00017020       0.00090282
Cl      36.49731437      33.68982865      16.84491433      -0.00154463       0.00017595      -0.00089831
Na      36.49731437      36.49731437      16.84491433       0.00154452      -0.00017297       0.00090310
Cl      39.30480009      36.49731437      16.84491433      -0.00154801       0.00017274      -0.00089870
Na      39.30480009      39.30480009      16.84491433       0.00154137      -0.00017514       0.00090330
Cl      42.11228581      39.30480009      16.84491433      -0.00154468       0.00016651      -0.00089722
Na      11.22994288       8.42245716      19.65240005       0.00154779      -0.00016864       0.00089855
Cl      14.03742860       8.42245716      19.65240005      -0.00154487       0.00017409      -0.00090339
Na      14.03742860      11.22994288      19.65240005       0.00154364      -0.00017358       0.00089986
Cl      16.84491433      11.22994288      19.65240005      -0.00154166       0.00017216      -0.00090276
Na      16.84491433      14.03742860      19.65240005       0.00154690      -0.00017337       0.00089978
Cl      19.65240005      14.03742860      19.65240005      -0.00154673       0.00017198      -0.00090294
Na      19.65240005      16.84491433      19.65240005       0.00154345      -0.00017083       0.00089980
Cl      22.45988577      16.84491433      19.65240005      -0.00154474       0.00017498      -0.00090277
Na      22.45988577      19.65240005      19.65240005       0.00154489      -0.00017406       0.00089977
Cl      25.26737149      19.65240005      19.65240005      -0.00154494       0.00017122      -0.00090300
Na      25.26737149      22.45988577      19.65240005       0.00154488      -0.00017271       0.00089952
Cl      28.07485721      22.45988577      19.65240005      -0.00154471       0.00017266      -0.00090291
Na      28.07485721      25.26737149      19.65240005       0.00154484      -0.00017258       0.00089934
Cl      30.88234293      25.26737149      19.65240005      -0.00154650       0.00017249      -0.00090290
Na      30.88234293      28.07485721      19.65240005       0.00154354      -0.00017255       0.00089982
Cl      33.68982865      28.07485721      19.65240005      -0.00154117       0.00017243      -0.00090270
Na      33.68982865      30.88234293      19.65240005       0.00154745      -0.00017355       0.00089957
Cl      36.49731437      30.88234293      19.65240005      -0.00154474       0.00017099      -0.00090277
Na      36.49731437      33.68982865      19.65240005       0.00154474      -0.00017008       0.00089959
Cl      39.30480009      33.68982865      19.65240005      -0.00154827       0.00017599      -0.00090288
Na      39.30480009      36.49731437      19.65240005       0.00154148      -0.00017275       0.00090000
Cl      42.11228581      36.49731437      19.65240005      -0.00154070       0.00017275      -0.00090312
Na      42.11228581      39.30480009      19.65240005       0.00154721      -0.00017538       0.00090020
Cl      44.91977153      39.30480009      19.65240005      -0.00154959       0.00016689      -0.00090218
Na      14.03742860       8.42245716      22.45988577       0.00154598      -0.00016858       0.00089974
Cl      16.84491433       8.42245716      22.45988577      -0.00154165       0.00017414      -0.00090160
Na      16.84491433      11.22994288      22.45988577       0.00154652      -0.00017341       0.00090140
Cl      19.65240005      11.22994288      22.45988577      -0.00154655       0.00017209      -0.00090129
Na      19.65240005      14.03742860      22.45988577       0.00154315      -0.00017311       0.00090127
Cl      22.45988577      14.03742860      22.45988577      -0.00154485       0.00017182      -0.00090131
Na      22.45988577      16.84491433      22.45988577       0.00154485      -0.00017081       0.00090097
Cl      25.26737149      16.84491433      22.45988577      -0.00154494       0.00017490      -0.00090114
Na      25.26737149      19.65240005      22.45988577       0.00154501      -0.00017373       0.00090112
Cl      28.07485721      19.65240005      22.45988577      -0.00154486       0.00017135      -0.00090113
Na      28.07485721      22.45988577      22.45988577       0.00154484      -0.00017267       0.00090104
Cl      30.88234293      22.45988577      22.45988577      -0.00154653       0.00017238      -0.00090131
Na      30.88234293      25.26737149      22.45988577       0.00154336      -0.00017250       0.00090118
Cl      33.68982865      25.26737149      22.45988577      -0.00154110       0.00017239      -0.00090118
Na      33.68982865      28.07485721      22.45988577       0.00154746      -0.00017244       0.00090109
Cl      36.49731437      28.07485721      22.45988577      -0.00154471       0.00017230      -0.00090114
Na      36.49731437      30.88234293      22.45988577       0.00154490      -0.00017364       0.00090119
Cl      39.30480009      30.88234293      22.45988577      -0.00154840       0.00017094      -0.00090104
Na      39.30480009      33.68982865      22.45988577       0.00154179      -0.00017019       0.00090108
Cl      42.11228581      33.68982865      22.45988577      -0.00154068       0.00017578      -0.00090125
Na      42.11228581      36.49731437      22.45988577       0.00154727      -0.00017287       0.00090131
Cl      44.91977153      36.49731437      22.45988577      -0.00154832       0.00017271      -0.00090115
Na      44.91977153      39.30480009      22.45988577       0.00154178      -0.00017498       0.00090113
Cl      47.72725725      39.30480009      22.45988577      -0.00154454       0.00016643      -0.00089987
Na      16.84491433       8.42245716      25.26737149       0.00154951      -0.00016934       0.00090028
Cl      19.65240005       8.42245716      25.26737149      -0.00154562       0.00017460      -0.00090189
Na      19.65240005      11.22994288      25.26737149       0.00154323      -0.00017363       0.00090134
Cl      22.45988577      11.22994288      25.26737149      -0.00154459       0.00017206      -0.00090131
Na      22.45988577      14.03742860      25.26737149       0.00154481      -0.00017352       0.00090152
Cl      25.26737149      14.03742860      25.26737149      -0.00154495       0.00017189      -0.00090137
Na      25.26737149      16.84491433      25.26737149       0.00154504      -0.00017094       0.00090114
Cl      28.07485721      16.84491433      25.26737149      -0.00154499       0.00017506      -0.00090118
Na      28.07485721      19.65240005      25.26737149       0.00154499      -0.00017385       0.00090114
Cl      30.88234293      19.65240005      25.26737149      -0.00154654       0.00017110      -0.00090132
Na      30.88234293      22.45988577      25.26737149       0.00154347      -0.00017260       0.00090133
Cl      33.68982865      22.45988577      25.26737149      -0.00154111       0.00017244      -0.00090120
Na      33.68982865      25.26737149      25.26737149       0.00154744      -0.00017248       0.00090135
Cl      36.49731437      25.26737149      25.26737149      -0.00154465       0.00017243      -0.00090115
Na      36.49731437      28.07485721      25.26737149       0.00154472      -0.00017258       0.00090119
Cl      39.30480009      28.07485721      25.26737149      -0.00154835       0.00017234      -0.00090124
Na      39.30480009      30.88234293      25.26737149       0.00154199      -0.00017357       0.00090110
Cl      42.11228581      30.88234293      25.26737149      -0.00154107       0.00017087      -0.00090114
Na      42.11228581      33.68982865      25.26737149       0.00154738      -0.00017049       0.00090120
Cl      44.91977153      33.68982865      25.26737149      -0.00154835       0.00017602      -0.00090126
Na      44.91977153      36.49731437      25.26737149       0.00154170      -0.00017278       0.00090128
Cl      47.72725725      36.49731437      25.26737149      -0.00154079       0.00017298      -0.00090151
Na      47.72725725      39.30480009      25.26737149       0.00154720      -0.00017545       0.00090178
Cl      50.53474298      39.30480009      25.26737149      -0.00154979       0.00016717      -0.00090074
Na      19.65240005       8.42245716      28.07485721       0.00154664      -0.00016878       0.00089968
Cl      22.45988577       8.42245716      28.07485721      -0.00154448       0.00017381      -0.00090133
Na      22.45988577      11.22994288      28.07485721       0.00154447      -0.00017327       0.00090143
Cl      25.26737149      11.22994288      28.07485721      -0.00154461       0.00017182      -0.00090145
Na      25.26737149      14.03742860      28.07485721       0.00154481      -0.00017342       0.00090147
Cl      28.07485721      14.03742860      28.07485721      -0.00154485       0.00017192      -0.00090106
Na      28.07485721      16.84491433      28.07485721       0.00154482      -0.00017108       0.00090109
Cl      30.88234293      16.84491433      28.07485721      -0.00154640       0.00017517      -0.00090110
Na      30.88234293      19.65240005      28.07485721       0.00154357      -0.00017373       0.00090117
Cl      33.68982865      19.65240005      28.07485721      -0.00154123       0.00017098      -0.00090120
Na      33.68982865      22.45988577      28.07485721       0.00154743      -0.00017251       0.00090112
Cl      36.49731437      22.45988577      28.07485721      -0.00154465       0.00017235      -0.00090113
Na      36.49731437      25.26737149      28.07485721       0.00154481      -0.00017250       0.00090124
Cl      39.30480009      25.26737149      28.07485721      -0.00154844       0.00017243      -0.00090120
Na      39.30480009      28.07485721      28.07485721       0.00154205      -0.00017233       0.00090123
Cl      42.11228581      28.07485721      28.07485721      -0.00154109       0.00017235      -0.00090120
Na      42.11228581      30.88234293      28.07485721       0.00154756      -0.00017370       0.00090104
Cl      44.91977153      30.88234293      28.07485721      -0.00154845       0.00017107      -0.00090111
Na      44.91977153      33.68982865      28.07485721       0.00154184      -0.00017024       0.00090119
Cl      47.72725725      33.68982865      28.07485721      -0.00154061       0.00017580      -0.00090124
Na      47.72725725      36.49731437      28.07485721       0.00154722      -0.00017286       0.00090132
Cl      50.53474298      36.49731437      28.07485721      -0.00154832       0.00017259      -0.00090128
Na      50.53474298      39.30480009      28.07485721       0.00154197      -0.00017514       0.00090115
Cl      53.34222870      39.30480009      28.07485721      -0.00154275       0.00016689      -0.00090003
Na      22.45988577       8.42245716      30.88234293       0.00154606      -0.00016912       0.00089872
Cl      25.26737149       8.42245716      30.88234293      -0.00154428       0.00017407      -0.00090318
Na      25.26737149      11.22994288      30.88234293       0.00154466      -0.00017326       0.00089997
Cl      28.07485721      11.22994288      30.88234293      -0.00154468       0.00017182      -0.00090287
Na      28.07485721      14.03742860      30.88234293       0.00154471      -0.00017337       0.00089974
Cl      30.88234293      14.03742860      30.88234293      -0.00154631       0.00017191      -0.00090287
Na      30.88234293      16.84491433      30.88234293       0.00154345      -0.00017113       0.00089956
Cl      33.68982865      16.84491433      30.88234293      -0.00154110       0.00017502      -0.00090275
Na      33.68982865      19.65240005      30.88234293       0.00154769      -0.00017368       0.00089984
Cl      36.49731437      19.65240005      30.88234293      -0.00154485       0.00017106      -0.00090288
Na      36.49731437      22.45988577      30.88234293       0.00154499      -0.00017257       0.00089991
Cl      39.30480009      22.45988577      30.88234293      -0.00154836       0.00017234      -0.00090289
Na      39.30480009      25.26737149      30.88234293       0.00154192      -0.00017230       0.00089970
Cl      42.11228581      25.26737149      30.88234293      -0.00154112       0.00017248      -0.00090283
Na      42.11228581      28.07485721      30.88234293       0.00154754      -0.00017249       0.00089980
Cl      44.91977153      28.07485721      30.88234293      -0.00154836       0.00017238      -0.00090280
Na      44.91977153      30.88234293      30.88234293       0.00154204      -0.00017383       0.00089954
Cl      47.72725725      30.88234293      30.88234293      -0.00154112       0.00017075      -0.00090262
Na      47.72725725      33.68982865      30.88234293       0.00154742      -0.00017028       0.00089977
Cl      50.53474298      33.68982865      30.88234293      -0.00154818       0.00017610      -0.00090295
Na      50.53474298      36.49731437      30.88234293       0.00154161      -0.00017288       0.00089994
Cl      53.34222870      36.49731437      30.88234293      -0.00154071       0.00017287      -0.00090284
Na      53.34222870      39.30480009      30.88234293       0.00154729      -0.00017521       0.00089989
Cl      56.14971442      39.30480009      30.88234293      -0.00154898       0.00016716      -0.00090212
Na      25.26737149       8.42245716      33.68982865       0.00154662      -0.00016886       0.00090250
Cl      28.07485721       8.42245716      33.68982865      -0.00154460       0.00017377      -0.00089746
Na      28.07485721      11.22994288      33.68982865       0.00154463      -0.00017320       0.00090366
Cl      30.88234293      11.22994288      33.68982865      -0.00154622       0.00017166      -0.00089733
Na      30.88234293      14.03742860      33.68982865       0.00154328      -0.00017322       0.00090353
Cl      33.68982865      14.03742860      33.68982865      -0.00154072       0.00017177      -0.00089723
Na      33.68982865      16.84491433      33.68982865       0.00154760      -0.00017085       0.00090373
Cl      36.49731437      16.84491433      33.68982865      -0.00154455       0.00017477      -0.00089731
Na      36.49731437      19.65240005      33.68982865       0.00154479      -0.00017361       0.00090365
Cl      39.30480009      19.65240005      33.68982865      -0.00154825       0.00017083      -0.00089713
Na      39.30480009      22.45988577      33.68982865       0.00154169      -0.00017243       0.00090360
Cl      42.11228581      22.45988577      33.68982865      -0.00154091       0.00017229      -0.00089718
Na      42.11228581      25.26737149      33.68982865       0.00154745      -0.00017239       0.00090357
Cl      44.91977153      25.26737149      33.68982865      -0.00154813       0.00017237      -0.00089721
Na      44.91977153      28.07485721      33.68982865       0.00154189      -0.00017255       0.00090354
Cl      47.72725725      28.07485721      33.68982865      -0.00154092       0.00017251      -0.00089722
Na      47.72725725      30.88234293      33.68982865       0.00154741      -0.00017372       0.00090358
Cl      50.53474298      30.88234293      33.68982865      -0.00154836       0.00017082      -0.00089727
Na      50.53474298      33.68982865      33.68982865       0.00154209      -0.00017018       0.00090349
Cl      53.34222870      33.68982865      33.68982865      -0.00154086       0.00017568      -0.00089755
Na      53.34222870      36.49731437      33.68982865       0.00154722      -0.00017264       0.00090381
Cl      56.14971442      36.49731437      33.68982865      -0.00154807       0.00017254      -0.00089736
Na      56.14971442      39.30480009      33.68982865       0.00154156      -0.00017479       0.00090380
Cl      58.95720014      39.30480009      33.68982865      -0.00154267       0.00016672      -0.00089637
Na      28.07485721       8.42245716      36.49731437       0.00154607      -0.00016888       0.00089984
Cl      30.88234293       8.42245716      36.49731437      -0.00154612       0.00017395      -0.00090144
Na      30.88234293      11.22994288      36.49731437       0.00154314      -0.00017316       0.00090103
Cl      33.68982865      11.22994288      36.49731437      -0.00154057       0.00017174      -0.00090111
Na      33.68982865      14.03742860      36.49731437       0.00154730      -0.00017308       0.00090089
Cl      36.49731437      14.03742860      36.49731437      -0.00154421       0.00017162      -0.00090080
Na      36.49731437      16.84491433      36.49731437       0.00154438      -0.00017065       0.00090076
Cl      39.30480009      16.84491433      36.49731437      -0.00154801       0.00017471      -0.00090081
Na      39.30480009      19.65240005      36.49731437       0.00154149      -0.00017340       0.00090077
Cl      42.11228581      19.65240005      36.49731437      -0.00154087       0.00017052      -0.00090087
Na      42.11228581      22.45988577      36.49731437       0.00154729      -0.00017223       0.00090067
Cl      44.91977153      22.45988577      36.49731437      -0.00154816       0.00017216      -0.00090094
Na      44.91977153      25.26737149      36.49731437       0.00154180      -0.00017235       0.00090055
Cl      47.72725725      25.26737149      36.49731437      -0.00154090       0.00017213      -0.00090071
Na      47.72725725      28.07485721      36.49731437       0.00154736      -0.00017231       0.00090060
Cl      50.53474298      28.07485721      36.49731437      -0.00154831       0.00017247      -0.00090083
Na      50.53474298      30.88234293      36.49731437       0.00154179      -0.00017361       0.00090076
Cl      53.34222870      30.88234293      36.49731437      -0.00154071       0.00017074      -0.00090074
Na      53.34222870      33.68982865      36.49731437       0.00154718      -0.00017015       0.00090103
Cl      56.14971442      33.68982865      36.49731437      -0.00154791       0.00017583      -0.00090115
Na      56.14971442      36.49731437      36.49731437       0.00154139      -0.00017265       0.00090099
Cl      58.95720014      36.49731437      36.49731437      -0.00154044       0.00017245      -0.00090114
Na      58.95720014      39.30480009      36.49731437       0.00154684      -0.00017486       0.00090120
Cl      61.76468586      39.30480009      36.49731437      -0.00154833       0.00016624      -0.00089969
Na      30.88234293       8.42245716      39.30480009       0.00154627      -0.00016884       0.00089713
Cl      33.68982865       8.42245716      39.30480009      -0.00154202       0.00017544      -0.00090805
Na      33.68982865      11.22994288      39.30480009       0.00154682      -0.00017335       0.00089850
Cl      36.49731437      11.22994288      39.30480009      -0.00154780       0.00017321      -0.00090765
Na      36.49731437      14.03742860      39.30480009       0.00154385      -0.00017280       0.00089784
Cl      39.30480009      14.03742860      39.30480009      -0.00155089       0.00017282      -0.00090739
Na      39.30480009      16.84491433      39.30480009       0.00154109      -0.00017055       0.00089803
Cl      42.11228581      16.84491433      39.30480009      -0.00154471       0.00017607      -0.00090752
Na      42.11228581      19.65240005      39.30480009       0.00154717      -0.00017306       0.00089791
Cl      44.91977153      19.65240005      39.30480009      -0.00154974       0.00017154      -0.00090691
Na      44.91977153      22.45988577      39.30480009       0.00154159      -0.00017222       0.00089814
Cl      47.72725725      22.45988577      39.30480009      -0.00154462       0.00017316      -0.00090747
Na      47.72725725      25.26737149      39.30480009       0.00154728      -0.00017179       0.00089776
Cl      50.53474298      25.26737149      39.30480009      -0.00154976       0.00017310      -0.00090667
Na      50.53474298      28.07485721      39.30480009       0.00154195      -0.00017225       0.00089822
Cl      53.34222870      28.07485721      39.30480009      -0.00154318       0.00017328      -0.00090718
Na      53.34222870      30.88234293      39.30480009       0.00154711      -0.00017333       0.00089829
Cl      56.14971442      30.88234293      39.30480009      -0.00154909       0.00017163      -0.00090718
Na      56.14971442      33.68982865      39.30480009       0.00154145      -0.00017029       0.00089828
Cl      58.95720014      33.68982865      39.30480009      -0.00154281       0.00017679      -0.00090745
Na      58.95720014      36.49731437      39.30480009       0.00154694      -0.00017239       0.00089834
Cl      61.76468586      36.49731437      39.30480009      -0.00154813       0.00017356      -0.00090768
Na      61.76468586      39.30480009      39.30480009       0.00154413      -0.00017481       0.00089818
Cl      64.57217158      39.30480009      39.30480009      -0.00155473       0.00016716      -0.00090650
Na       0.00000000      11.22994288      11.22994288       0.00154960      -0.00017105       0.00090256
Cl       2.80748572      11.22994288      11.22994288      -0.00154425       0.00017183      -0.00090175
Na       2.80748572      14.03742860      11.22994288       0.00154534      -0.00017420       0.00090369
Cl       5.61497144      14.03742860      11.22994288      -0.00154491       0.00017178      -0.00090153
Na       5.61497144      16.84491433      11.22994288       0.00154702      -0.00017166       0.00090367
Cl       8.42245716      16.84491433      11.22994288      -0.00154264       0.00017454      -0.00090155
Na       8.42245716      19.65240005      11.22994288       0.00154884      -0.00017490       0.00090383
Cl      11.22994288      19.65240005      11.22994288      -0.00154535       0.00017099      -0.00090152
Na      11.22994288      22.45988577      11.22994288       0.00154745      -0.00017354       0.00090343
Cl      14.03742860      22.45988577      11.22994288      -0.00154501       0.00017230      -0.00090167
Na      14.03742860      25.26737149      11.22994288       0.00154579      -0.00017367       0.00090365
Cl      16.84491433      25.26737149      11.22994288      -0.00154191       0.00017241      -0.00090172
Na      16.84491433      28.07485721      11.22994288       0.00154924      -0.00017319       0.00090344
Cl      19.65240005      28.07485721      11.22994288      -0.00154582       0.00017189      -0.00090126
Na      19.65240005      30.88234293      11.22994288       0.00154650      -0.00017476       0.00090379
Cl      22.45988577      30.88234293      11.22994288      -0.00154465       0.00017079      -0.00090187
Na      22.45988577      33.68982865      11.22994288       0.00154556      -0.00017067       0.00090323
Cl      25.26737149      33.68982865      11.22994288      -0.00154439       0.00017546      -0.00090180
Na      25.26737149      36.49731437      11.22994288       0.00154656      -0.00017348       0.00090353
Cl      28.07485721      36.49731437      11.22994288      -0.00154460       0.00017281      -0.00090200
Na      28.07485721      39.30480009      11.22994288       0.00154567      -0.00017591       0.00090364
Cl      30.88234293      39.30480009      11.22994288      -0.00154626       0.00016914      -0.00090151
Na      30.88234293      42.11228581      11.22994288       0.00154599      -0.00017086       0.00090374
Cl      33.68982865      42.11228581      11.22994288      -0.00154240       0.00017191      -0.00090013
Na       2.80748572      11.22994288      14.03742860       0.00154556      -0.00017035       0.00089934
Cl       5.61497144      11.22994288      14.03742860      -0.00154509       0.00017209      -0.00090206
Na       5.61497144      14.03742860      14.03742860       0.00154403      -0.00017328       0.00090061
Cl       8.42245716      14.03742860      14.03742860      -0.00154315       0.00017172      -0.00090187
Na       8.42245716      16.84491433      14.03742860       0.00154571      -0.00017086       0.00090038
Cl      11.22994288      16.84491433      14.03742860      -0.00154574       0.00017480      -0.00090196
Na      11.22994288      19.65240005      14.03742860       0.00154387      -0.00017372       0.00090015
Cl      14.03742860      19.65240005      14.03742860      -0.00154529       0.00017105      -0.00090173
Na      14.03742860      22.45988577      14.03742860       0.00154378      -0.00017244       0.00090039
Cl      16.84491433      22.45988577      14.03742860      -0.00154174       0.00017234      -0.00090184
Na      16.84491433      25.26737149      14.03742860       0.00154686      -0.00017239       0.00090031
Cl      19.65240005      25.26737149      14.03742860      -0.00154670       0.00017225      -0.00090192
Na      19.65240005      28.07485721      14.03742860       0.00154326      -0.00017219       0.00090029
Cl      22.45988577      28.07485721      14.03742860      -0.00154452       0.00017245      -0.00090197
Na      22.45988577      30.88234293      14.03742860       0.00154459      -0.00017381       0.00090048
Cl      25.26737149      30.88234293      14.03742860      -0.00154485       0.00017093      -0.00090184
Na      25.26737149      33.68982865      14.03742860       0.00154484      -0.00017020       0.00090019
Cl      28.07485721      33.68982865      14.03742860      -0.00154463       0.00017572      -0.00090188
Na      28.07485721      36.49731437      14.03742860       0.00154445      -0.00017267       0.00090040
Cl      30.88234293      36.49731437      14.03742860      -0.00154629       0.00017263      -0.00090188
Na      30.88234293      39.30480009      14.03742860       0.00154322      -0.00017476       0.00090019
Cl      33.68982865      39.30480009      14.03742860      -0.00154079       0.00016928      -0.00090187
Na      33.68982865      42.11228581      14.03742860       0.00154653      -0.00017025       0.00090057
Cl      36.49731437      42.11228581      14.03742860      -0.00154806       0.00017222      -0.00090013
Na       5.61497144      11.22994288      16.84491433       0.00154706      -0.00016974       0.00090199
Cl       8.42245716      11.22994288      16.84491433      -0.00154276       0.00017234      -0.00089883
Na       8.42245716      14.03742860      16.84491433       0.00154581      -0.00017335       0.00090311
Cl      11.22994288      14.03742860      16.84491433      -0.00154589       0.00017204      -0.00089834
Na      11.22994288      16.84491433      16.84491433       0.00154389      -0.00017106       0.00090300
Cl      14.03742860      16.84491433      16.84491433      -0.00154539       0.00017495      -0.00089849
Na      14.03742860      19.65240005      16.84491433       0.00154401      -0.00017355       0.00090284
Cl      16.84491433      19.65240005      16.84491433      -0.00154211       0.00017096      -0.00089838
Na      16.84491433      22.45988577      16.84491433       0.00154675      -0.00017247       0.00090288
Cl      19.65240005      22.45988577      16.84491433      -0.00154671       0.00017251      -0.00089813
Na      19.65240005      25.26737149      16.84491433       0.00154331      -0.00017237       0.00090290
Cl      22.45988577      25.26737149      16.84491433      -0.00154490       0.00017232      -0.00089810
Na      22.45988577      28.07485721      16.84491433       0.00154472      -0.00017239       0.00090273
Cl      25.26737149      28.07485721      16.84491433      -0.00154493       0.00017235      -0.00089805
Na      25.26737149      30.88234293      16.84491433       0.00154486      -0.00017364       0.00090275
Cl      28.07485721      30.88234293      16.84491433      -0.00154505       0.00017102      -0.00089811
Na      28.07485721      33.68982865      16.84491433       0.00154483      -0.00017046       0.00090286
Cl      30.88234293      33.68982865      16.84491433      -0.00154647       0.00017584      -0.00089833
Na      30.88234293      36.49731437      16.84491433       0.00154341      -0.00017254       0.00090298
Cl      33.68982865      36.49731437      16.84491433      -0.00154111       0.00017278      -0.00089823
Na      33.68982865      39.30480009      16.84491433       0.00154728      -0.00017494       0.00090299
Cl      36.49731437      39.30480009      16.84491433      -0.00154462       0.00016956      -0.00089840
Na      36.49731437      42.11228581      16.84491433       0.00154380      -0.00017053       0.00090338
Cl      39.30480009      42.11228581      16.84491433      -0.00155123       0.00017216      -0.00089718
Na       8.42245716      11.22994288      19.65240005       0.00154900      -0.00016998       0.00089832
Cl      11.22994288      11.22994288      19.65240005      -0.00154533       0.00017229      -0.00090314
Na      11.22994288      14.03742860      19.65240005       0.00154411      -0.00017340       0.00089973
Cl      14.03742860      14.03742860      19.65240005      -0.00154552       0.00017201      -0.00090310
Na      14.03742860      16.84491433      19.65240005       0.00154387      -0.00017092       0.00089977
Cl      16.84491433      16.84491433      19.65240005      -0.00154188       0.00017501      -0.00090308
Na      16.84491433      19.65240005      19.65240005       0.00154689      -0.00017385       0.00089961
Cl      19.65240005      19.65240005      19.65240005      -0.00154670       0.00017116      -0.00090284
Na      19.65240005      22.45988577      19.65240005       0.00154329      -0.00017261       0.00089959
Cl      22.45988577      22.45988577      19.65240005      -0.00154477       0.00017257      -0.00090293
Na      22.45988577      25.26737149      19.65240005       0.00154477      -0.00017252       0.00089948
Cl      25.26737149      25.26737149      19.65240005      -0.00154480       0.00017257      -0.00090283
Na      25.26737149      28.07485721      19.65240005       0.00154481      -0.00017257       0.00089944
Cl      28.07485721      28.07485721      19.65240005      -0.00154472       0.00017249      -0.00090290
Na      28.07485721      30.88234293      19.65240005       0.00154495      -0.00017368       0.00089962
Cl      30.88234293      30.88234293      19.65240005      -0.00154638       0.00017092      -0.00090283
Na      30.88234293      33.68982865      19.65240005       0.00154338      -0.00017017       0.00089960
Cl      33.68982865      33.68982865      19.65240005      -0.00154080       0.00017560      -0.00090277
Na      33.68982865      36.49731437      19.65240005       0.00154774      -0.00017269       0.00089955
Cl      36.49731437      36.49731437      19.65240005      -0.00154457       0.00017294      -0.00090308
Na      36.49731437      39.30480009      19.65240005       0.00154453      -0.00017513       0.00089990
Cl      39.30480009      39.30480009      19.65240005      -0.00154817       0.00016948      -0.00090301
Na      39.30480009      42.11228581      19.65240005       0.00154118      -0.00017050       0.00090003
Cl      42.11228581      42.11228581      19.65240005      -0.00154497       0.00017234      -0.00090132
Na      11.22994288      11.22994288      22.45988577       0.00154737      -0.00016995       0.00090034
Cl      14.03742860      11.22994288      22.45988577      -0.00154489       0.00017234      -0.00090136
Na      14.03742860      14.03742860      22.45988577       0.00154390      -0.00017359       0.00090126
Cl      16.84491433      14.03742860      22.45988577      -0.00154168       0.00017185      -0.00090116
Na      16.84491433      16.84491433      22.45988577       0.00154673      -0.00017082       0.00090128
Cl      19.65240005      16.84491433      22.45988577      -0.00154670       0.00017479      -0.00090109
Na      19.65240005      19.65240005      22.45988577       0.00154334      -0.00017383       0.00090106
Cl      22.45988577      19.65240005      22.45988577      -0.00154496       0.00017118      -0.00090121
Na      22.45988577      22.45988577      22.45988577       0.00154506      -0.00017260       0.00090112
Cl      25.26737149      22.45988577      22.45988577      -0.00154496       0.00017237      -0.00090115
Na      25.26737149      25.26737149      22.45988577       0.00154494      -0.00017243       0.00090128
Cl      28.07485721      25.26737149      22.45988577      -0.00154476       0.00017241      -0.00090108
Na      28.07485721      28.07485721      22.45988577       0.00154493      -0.00017242       0.00090117
Cl      30.88234293      28.07485721      22.45988577      -0.00154646       0.00017240      -0.00090128
Na      30.88234293      30.88234293      22.45988577       0.00154331      -0.00017358       0.00090116
Cl      33.68982865      30.88234293      22.45988577      -0.00154090       0.00017092      -0.00090105
Na      33.68982865      33.68982865      22.45988577       0.00154751      -0.00017018       0.00090102
Cl      36.49731437      33.68982865      22.45988577      -0.00154468       0.00017568      -0.00090105
Na      36.49731437      36.49731437      22.45988577       0.00154460      -0.00017265       0.00090111
Cl      39.30480009      36.49731437      22.45988577      -0.00154814       0.00017269      -0.00090122
Na      39.30480009      39.30480009      22.45988577       0.00154161      -0.00017524       0.00090127
Cl      42.11228581      39.30480009      22.45988577      -0.00154099       0.00016953      -0.00090129
Na      42.11228581      42.11228581      22.45988577       0.00154681      -0.00017074       0.00090180
Cl      44.91977153      42.11228581      22.45988577      -0.00154982       0.00017238      -0.00090043
Na      14.03742860      11.22994288      25.26737149       0.00154576      -0.00017000       0.00089975
Cl      16.84491433      11.22994288      25.26737149      -0.00154191       0.00017217      -0.00090140
Na      16.84491433      14.03742860      25.26737149       0.00154673      -0.00017325       0.00090136
Cl      19.65240005      14.03742860      25.26737149      -0.00154681       0.00017196      -0.00090147
Na      19.65240005      16.84491433      25.26737149       0.00154327      -0.00017100       0.00090117
Cl      22.45988577      16.84491433      25.26737149      -0.00154487       0.00017509      -0.00090124
Na      22.45988577      19.65240005      25.26737149       0.00154495      -0.00017378       0.00090113
Cl      25.26737149      19.65240005      25.26737149      -0.00154501       0.00017126      -0.00090116
Na      25.26737149      22.45988577      25.26737149       0.00154499      -0.00017267       0.00090114
Cl      28.07485721      22.45988577      25.26737149      -0.00154484       0.00017244      -0.00090108
Na      28.07485721      25.26737149      25.26737149       0.00154491      -0.00017246       0.00090121
Cl      30.88234293      25.26737149      25.26737149      -0.00154640       0.00017242      -0.00090125
Na      30.88234293      28.07485721      25.26737149       0.00154331      -0.00017237       0.00090118
Cl      33.68982865      28.07485721      25.26737149      -0.00154098       0.00017240      -0.00090127
Na      33.68982865      30.88234293      25.26737149       0.00154756      -0.00017354       0.00090114
Cl      36.49731437      30.88234293      25.26737149      -0.00154500       0.00017099      -0.00090111
Na      36.49731437      33.68982865      25.26737149       0.00154471      -0.00016990       0.00090100
Cl      39.30480009      33.68982865      25.26737149      -0.00154847       0.00017588      -0.00090135
Na      39.30480009      36.49731437      25.26737149       0.00154148      -0.00017257       0.00090114
Cl      42.11228581      36.49731437      25.26737149      -0.00154068       0.00017293      -0.00090133
Na      42.11228581      39.30480009      25.26737149       0.00154735      -0.00017519       0.00090147
Cl      44.91977153      39.30480009      25.26737149      -0.00154834       0.00016971      -0.00090118
Na      44.91977153      42.11228581      25.26737149       0.00154154      -0.00017032       0.00090130
Cl      47.72725725      42.11228581      25.26737149      -0.00154492       0.00017206      -0.00089960
Na      16.84491433      11.22994288      28.07485721       0.00154926      -0.00017028       0.00090073
Cl      19.65240005      11.22994288      28.07485721      -0.00154591       0.00017249      -0.00090167
Na      19.65240005      14.03742860      28.07485721       0.00154317      -0.00017334       0.00090173
Cl      22.45988577      14.03742860      28.07485721      -0.00154472       0.00017210      -0.00090140
Na      22.45988577      16.84491433      28.07485721       0.00154478      -0.00017118       0.00090122
Cl      25.26737149      16.84491433      28.07485721      -0.00154488       0.00017522      -0.00090125
Na      25.26737149      19.65240005      28.07485721       0.00154495      -0.00017375       0.00090102
Cl      28.07485721      19.65240005      28.07485721      -0.00154483       0.00017119      -0.00090116
Na      28.07485721      22.45988577      28.07485721       0.00154495      -0.00017255       0.00090117
Cl      30.88234293      22.45988577      28.07485721      -0.00154650       0.00017232      -0.00090125
Na      30.88234293      25.26737149      28.07485721       0.00154339      -0.00017254       0.00090120
Cl      33.68982865      25.26737149      28.07485721      -0.00154098       0.00017244      -0.00090121
Na      33.68982865      28.07485721      28.07485721       0.00154749      -0.00017256       0.00090126
Cl      36.49731437      28.07485721      28.07485721      -0.00154478       0.00017250      -0.00090105
Na      36.49731437      30.88234293      28.07485721       0.00154497      -0.00017356       0.00090126
Cl      39.30480009      30.88234293      28.07485721      -0.00154845       0.00017094      -0.00090118
Na      39.30480009      33.68982865      28.07485721       0.00154183      -0.00017024       0.00090127
Cl      42.11228581      33.68982865      28.07485721      -0.00154067       0.00017569      -0.00090114
Na      42.11228581      36.49731437      28.07485721       0.00154736      -0.00017270       0.00090122
Cl      44.91977153      36.49731437      28.07485721      -0.00154837       0.00017266      -0.00090123
Na      44.91977153      39.30480009      28.07485721       0.00154181      -0.00017518       0.00090136
Cl      47.72725725      39.30480009      28.07485721      -0.00154095       0.00016966      -0.00090139
Na      47.72725725      42.11228581      28.07485721       0.00154680      -0.00017093       0.00090156
Cl      50.53474298      42.11228581      28.07485721      -0.00155007       0.00017272      -0.00090050
Na      19.65240005      11.22994288      30.88234293       0.00154641      -0.00016987       0.00089862
Cl      22.45988577      11.22994288      30.88234293      -0.00154469       0.00017192      -0.00090295
Na      22.45988577      14.03742860      30.88234293       0.00154446      -0.00017352       0.00089988
Cl      25.26737149      14.03742860      30.88234293      -0.00154487       0.00017196      -0.00090284
Na      25.26737149      16.84491433      30.88234293       0.00154486      -0.00017105       0.00089995
Cl      28.07485721      16.84491433      30.88234293      -0.00154486       0.00017518      -0.00090295
Na      28.07485721      19.65240005      30.88234293       0.00154491      -0.00017379       0.00089980
Cl      30.88234293      19.65240005      30.88234293      -0.00154646       0.00017097      -0.00090264
Na      30.88234293      22.45988577      30.88234293       0.00154348      -0.00017231       0.00089969
Cl      33.68982865      22.45988577      30.88234293      -0.00154110       0.00017242      -0.00090279
Na      33.68982865      25.26737149      30.88234293       0.00154753      -0.00017255       0.00089971
Cl      36.49731437      25.26737149      30.88234293      -0.00154490       0.00017245      -0.00090303
Na      36.49731437      28.07485721      30.88234293       0.00154494      -0.00017245       0.00089991
Cl      39.30480009      28.07485721      30.88234293      -0.00154829       0.00017241      -0.00090288
Na      39.30480009      30.88234293      30.88234293       0.00154186      -0.00017380       0.00089964
Cl      42.11228581      30.88234293      30.88234293      -0.00154122       0.00017083      -0.00090263
Na      42.11228581      33.68982865      30.88234293       0.00154747      -0.00017032       0.00089971
Cl      44.91977153      33.68982865      30.88234293      -0.00154838       0.00017601      -0.00090295
Na      44.91977153      36.49731437      30.88234293       0.00154188      -0.00017273       0.00089980
Cl      47.72725725      36.49731437      30.88234293      -0.00154087       0.00017303      -0.00090280
Na      47.72725725      39.30480009      30.88234293       0.00154726      -0.00017528       0.00090003
Cl      50.53474298      39.30480009      30.88234293      -0.00154828       0.00016964      -0.00090308
Na      50.53474298      42.11228581      30.88234293       0.00154190      -0.00017033       0.00090003
Cl      53.34222870      42.11228581      30.88234293      -0.00154371       0.00017249      -0.00090171
Na      22.45988577      11.22994288      33.68982865       0.00154581      -0.00017062       0.00090320
Cl      25.26737149      11.22994288      33.68982865      -0.00154447       0.00017230      -0.00089772
Na      25.26737149      14.03742860      33.68982865       0.00154481      -0.00017333       0.00090360
Cl      28.07485721      14.03742860      33.68982865      -0.00154484       0.00017195      -0.00089728
Na      28.07485721      16.84491433      33.68982865       0.00154481      -0.00017102       0.00090379
Cl      30.88234293      16.84491433      33.68982865      -0.00154637       0.00017516      -0.00089746
Na      30.88234293      19.65240005      33.68982865       0.00154348      -0.00017373       0.00090372
Cl      33.68982865      19.65240005      33.68982865      -0.00154131       0.00017090      -0.00089738
Na      33.68982865      22.45988577      33.68982865       0.00154753      -0.00017242       0.00090360
Cl      36.49731437      22.45988577      33.68982865      -0.00154497       0.00017229      -0.00089765
Na      36.49731437      25.26737149      33.68982865       0.00154479      -0.00017249       0.00090375
Cl      39.30480009      25.26737149      33.68982865      -0.00154831       0.00017251      -0.00089729
Na      39.30480009      28.07485721      33.68982865       0.00154182      -0.00017250       0.00090373
Cl      42.11228581      28.07485721      33.68982865      -0.00154104       0.00017248      -0.00089735
Na      42.11228581      30.88234293      33.68982865       0.00154744      -0.00017379       0.00090360
Cl      44.91977153      30.88234293      33.68982865      -0.00154835       0.00017090      -0.00089727
Na      44.91977153      33.68982865      33.68982865       0.00154218      -0.00017026       0.00090347
Cl      47.72725725      33.68982865      33.68982865      -0.00154110       0.00017567      -0.00089748
Na      47.72725725      36.49731437      33.68982865       0.00154757      -0.00017258       0.00090367
Cl      50.53474298      36.49731437      33.68982865      -0.00154835       0.00017274      -0.00089753
Na      50.53474298      39.30480009      33.68982865       0.00154178      -0.00017508       0.00090390
Cl      53.34222870      39.30480009      33.68982865      -0.00154089       0.00016954      -0.00089750
Na      53.34222870      42.11228581      33.68982865       0.00154702      -0.00017059       0.00090404
Cl      56.14971442      42.11228581      33.68982865      -0.00154906       0.00017275      -0.00089662
Na      25.26737149      11.22994288      36.49731437       0.00154649      -0.00017033       0.00090019
Cl      28.07485721      11.22994288      36.49731437      -0.00154464       0.00017202      -0.00090088
Na      28.07485721      14.03742860      36.49731437       0.00154468      -0.00017336       0.00090111
Cl      30.88234293      14.03742860      36.49731437      -0.00154641       0.00017188      -0.00090097
Na      30.88234293      16.84491433      36.49731437       0.00154327      -0.00017098       0.00090111
Cl      33.68982865      16.84491433      36.49731437      -0.00154077       0.00017489      -0.00090108
Na      33.68982865      19.65240005      36.49731437       0.00154769      -0.00017369       0.00090086
Cl      36.49731437      19.65240005      36.49731437      -0.00154447       0.00017080      -0.00090089
Na      36.49731437      22.45988577      36.49731437       0.00154475      -0.00017245       0.00090092
Cl      39.30480009      22.45988577      36.49731437      -0.00154814       0.00017236      -0.00090081
Na      39.30480009      25.26737149      36.49731437       0.00154159      -0.00017256       0.00090075
Cl      42.11228581      25.26737149      36.49731437      -0.00154084       0.00017223      -0.00090073
Na      42.11228581      28.07485721      36.49731437       0.00154749      -0.00017248       0.00090079
Cl      44.91977153      28.07485721      36.49731437      -0.00154835       0.00017252      -0.00090075
Na      44.91977153      30.88234293      36.49731437       0.00154202      -0.00017375       0.00090088
Cl      47.72725725      30.88234293      36.49731437      -0.00154095       0.00017077      -0.00090078
Na      47.72725725      33.68982865      36.49731437       0.00154746      -0.00017024       0.00090100
Cl      50.53474298      33.68982865      36.49731437      -0.00154830       0.00017572      -0.00090089
Na      50.53474298      36.49731437      36.49731437       0.00154172      -0.00017266       0.00090082
Cl      53.34222870      36.49731437      36.49731437      -0.00154064       0.00017272      -0.00090098
Na      53.34222870      39.30480009      36.49731437       0.00154736      -0.00017505       0.00090108
Cl      56.14971442      39.30480009      36.49731437      -0.00154810       0.00016935      -0.00090107
Na      56.14971442      42.11228581      36.49731437       0.00154134      -0.00017027       0.00090127
Cl      58.95720014      42.11228581      36.49731437      -0.00154307       0.00017219      -0.00089995
Na      28.07485721      11.22994288      39.30480009       0.00154540      -0.00017005       0.00089738
Cl      30.88234293      11.22994288      39.30480009      -0.00154613       0.00017218      -0.00090483
Na      30.88234293      14.03742860      39.30480009       0.00154313      -0.00017313       0.00089853
Cl      33.68982865      14.03742860      39.30480009      -0.00154061       0.00017173      -0.00090456
Na      33.68982865      16.84491433      39.30480009       0.00154711      -0.00017081       0.00089834
Cl      36.49731437      16.84491433      39.30480009      -0.00154420       0.00017483      -0.00090439
Na      36.49731437      19.65240005      39.30480009       0.00154454      -0.00017351       0.00089813
Cl      39.30480009      19.65240005      39.30480009      -0.00154810       0.00017078      -0.00090437
Na      39.30480009      22.45988577      39.30480009       0.00154153      -0.00017217       0.00089810
Cl      42.11228581      22.45988577      39.30480009      -0.00154087       0.00017223      -0.00090410
Na      42.11228581      25.26737149      39.30480009       0.00154732      -0.00017231       0.00089811
Cl      44.91977153      25.26737149      39.30480009      -0.00154825       0.00017219      -0.00090422
Na      44.91977153      28.07485721      39.30480009       0.00154176      -0.00017219       0.00089814
Cl      47.72725725      28.07485721      39.30480009      -0.00154106       0.00017227      -0.00090403
Na      47.72725725      30.88234293      39.30480009       0.00154720      -0.00017342       0.00089820
Cl      50.53474298      30.88234293      39.30480009      -0.00154823       0.00017080      -0.00090434
Na      50.53474298      33.68982865      39.30480009       0.00154178      -0.00017017       0.00089812
Cl      53.34222870      33.68982865      39.30480009      -0.00154079       0.00017561      -0.00090470
Na      53.34222870      36.49731437      39.30480009       0.00154737      -0.00017262       0.00089838
Cl      56.14971442      36.49731437      39.30480009      -0.00154808       0.00017266      -0.00090459
Na      56.14971442      39.30480009      39.30480009       0.00154140      -0.00017484       0.00089834
Cl      58.95720014      39.30480009      39.30480009      -0.00154057       0.00016923      -0.00090459
Na      58.95720014      42.11228581      39.30480009       0.00154650      -0.00017023       0.00089874
Cl      61.76468586      42.11228581      39.30480009      -0.00154860       0.00017210      -0.00090319
Na      30.88234293      11.22994288      42.11228581       0.00154579      -0.00016953       0.00090294
Cl      33.68982865      11.22994288      42.11228581      -0.00154244       0.00017369      -0.00090161
Na      33.68982865      14.03742860      42.11228581       0.00154646      -0.00017326       0.00090364
Cl      36.49731437      14.03742860      42.11228581      -0.00154818       0.00017328      -0.00090143
Na      36.49731437      16.84491433      42.11228581       0.00154370      -0.00017033       0.00090321
Cl      39.30480009      16.84491433      42.11228581      -0.00155099       0.00017606      -0.00090115
Na      39.30480009      19.65240005      42.11228581       0.00154109      -0.00017297       0.00090331
Cl      42.11228581      19.65240005      42.11228581      -0.00154487       0.00017211      -0.00090144
Na      42.11228581      22.45988577      42.11228581       0.00154671      -0.00017181       0.00090316
Cl      44.91977153      22.45988577      42.11228581      -0.00154963       0.00017338      -0.00090089
Na      44.91977153      25.26737149      42.11228581       0.00154161      -0.00017203       0.00090354
Cl      47.72725725      25.26737149      42.11228581      -0.00154494       0.00017350      -0.00090126
Na      47.72725725      28.07485721      42.11228581       0.00154680      -0.00017179       0.00090306
Cl      50.53474298      28.07485721      42.11228581      -0.00154993       0.00017316      -0.00090076
Na      50.53474298      30.88234293      42.11228581       0.00154183      -0.00017327       0.00090342
Cl      53.34222870      30.88234293      42.11228581      -0.00154364       0.00017190      -0.00090124
Na      53.34222870      33.68982865      42.11228581       0.00154694      -0.00016993       0.00090332
Cl      56.14971442      33.68982865      42.11228581      -0.00154892       0.00017659      -0.00090089
Na      56.14971442      36.49731437      42.11228581       0.00154117      -0.00017236       0.00090368
Cl      58.95720014      36.49731437      42.11228581      -0.00154305       0.00017375      -0.00090122
Na      58.95720014      39.30480009      42.11228581       0.00154653      -0.00017470       0.00090351
Cl      61.76468586      39.30480009      42.11228581      -0.00154850       0.00017069      -0.00090131
Na      61.76468586      42.11228581      42.11228581       0.00154348      -0.00016995       0.00090377
Cl      64.57217158      42.11228581      42.11228581      -0.00155482       0.00017337      -0.00089998
Na       0.00000000      14.03742860      14.03742860       0.00155010      -0.00017247       0.00090120
Cl       2.80748572      14.03742860      14.03742860      -0.00154451       0.00017223      -0.00090144
Na       2.80748572      16.84491433      14.03742860       0.00154571      -0.00017220       0.00090204
Cl       5.61497144      16.84491433      14.03742860      -0.00154506       0.00017494      -0.00090151
Na       5.61497144      19.65240005      14.03742860       0.00154719      -0.00017489       0.00090219
Cl       8.42245716      19.65240005      14.03742860      -0.00154283       0.00017079      -0.00090136
Na       8.42245716      22.45988577      14.03742860       0.00154908      -0.00017387       0.00090239
Cl      11.22994288      22.45988577      14.03742860      -0.00154560       0.00017240      -0.00090106
Na      11.22994288      25.26737149      14.03742860       0.00154768      -0.00017363       0.00090202
Cl      14.03742860      25.26737149      14.03742860      -0.00154520       0.00017231      -0.00090138
Na      14.03742860      28.07485721      14.03742860       0.00154614      -0.00017356       0.00090242
Cl      16.84491433      28.07485721      14.03742860      -0.00154219       0.00017231      -0.00090166
Na      16.84491433      30.88234293      14.03742860       0.00154928      -0.00017466       0.00090195
Cl      19.65240005      30.88234293      14.03742860      -0.00154596       0.00017042      -0.00090108
Na      19.65240005      33.68982865      14.03742860       0.00154676      -0.00017148       0.00090239
Cl      22.45988577      33.68982865      14.03742860      -0.00154480       0.00017579      -0.00090165
Na      22.45988577      36.49731437      14.03742860       0.00154595      -0.00017342       0.00090177
Cl      25.26737149      36.49731437      14.03742860      -0.00154438       0.00017241      -0.00090121
Na      25.26737149      39.30480009      14.03742860       0.00154677      -0.00017605       0.00090199
Cl      28.07485721      39.30480009      14.03742860      -0.00154487       0.00016962      -0.00090138
Na      28.07485721      42.11228581      14.03742860       0.00154587      -0.00017144       0.00090197
Cl      30.88234293      42.11228581      14.03742860      -0.00154638       0.00017542      -0.00090123
Na      30.88234293      44.91977153      14.03742860       0.00154645      -0.00017608       0.00090178
Cl      33.68982865      44.91977153      14.03742860      -0.00154204       0.00016777      -0.00090010
Na       2.80748572      14.03742860      16.84491433       0.00154584      -0.00017182       0.00090174
Cl       5.61497144      14.03742860      16.84491433      -0.00154524       0.00017232      -0.00089848
Na       5.61497144      16.84491433      16.84491433       0.00154431      -0.00017105       0.00090277
Cl       8.42245716      16.84491433      16.84491433      -0.00154332       0.00017492      -0.00089829
Na       8.42245716      19.65240005      16.84491433       0.00154566      -0.00017366       0.00090309
Cl      11.22994288      19.65240005      16.84491433      -0.00154557       0.00017110      -0.00089804
Na      11.22994288      22.45988577      16.84491433       0.00154412      -0.00017240       0.00090270
Cl      14.03742860      22.45988577      16.84491433      -0.00154545       0.00017231      -0.00089801
Na      14.03742860      25.26737149      16.84491433       0.00154422      -0.00017229       0.00090281
Cl      16.84491433      25.26737149      16.84491433      -0.00154217       0.00017227      -0.00089816
Na      16.84491433      28.07485721      16.84491433       0.00154678      -0.00017240       0.00090276
Cl      19.65240005      28.07485721      16.84491433      -0.00154676       0.00017237      -0.00089801
Na      19.65240005      30.88234293      16.84491433       0.00154342      -0.00017344       0.00090264
Cl      22.45988577      30.88234293      16.84491433      -0.00154470       0.00017098      -0.00089796
Na      22.45988577      33.68982865      16.84491433       0.00154454      -0.00017035       0.00090293
Cl      25.26737149      33.68982865      16.84491433      -0.00154484       0.00017562      -0.00089809
Na      25.26737149      36.49731437      16.84491433       0.00154455      -0.00017250       0.00090266
Cl      28.07485721      36.49731437      16.84491433      -0.00154466       0.00017270      -0.00089821
Na      28.07485721      39.30480009      16.84491433       0.00154476      -0.00017483       0.00090281
Cl      30.88234293      39.30480009      16.84491433      -0.00154630       0.00016920      -0.00089813
Na      30.88234293      42.11228581      16.84491433       0.00154349      -0.00017010       0.00090265
Cl      33.68982865      42.11228581      16.84491433      -0.00154069       0.00017564      -0.00089829
Na      33.68982865      44.91977153      16.84491433       0.00154727      -0.00017483       0.00090269
Cl      36.49731437      44.91977153      16.84491433      -0.00154804       0.00016781      -0.00089711
Na       5.61497144      14.03742860      19.65240005       0.00154689      -0.00017127       0.00089851
Cl       8.42245716      14.03742860      19.65240005      -0.00154279       0.00017249      -0.00090329
Na       8.42245716      16.84491433      19.65240005       0.00154586      -0.00017078       0.00089962
Cl      11.22994288      16.84491433      19.65240005      -0.00154564       0.00017499      -0.00090305
Na      11.22994288      19.65240005      19.65240005       0.00154397      -0.00017372       0.00089977
Cl      14.03742860      19.65240005      19.65240005      -0.00154566       0.00017099      -0.00090301
Na      14.03742860      22.45988577      19.65240005       0.00154374      -0.00017235       0.00089931
Cl      16.84491433      22.45988577      19.65240005      -0.00154180       0.00017243      -0.00090282
Na      16.84491433      25.26737149      19.65240005       0.00154689      -0.00017240       0.00089948
Cl      19.65240005      25.26737149      19.65240005      -0.00154674       0.00017248      -0.00090286
Na      19.65240005      28.07485721      19.65240005       0.00154321      -0.00017246       0.00089952
Cl      22.45988577      28.07485721      19.65240005      -0.00154465       0.00017249      -0.00090285
Na      22.45988577      30.88234293      19.65240005       0.00154483      -0.00017343       0.00089956
Cl      25.26737149      30.88234293      19.65240005      -0.00154489       0.00017088      -0.00090290
Na      25.26737149      33.68982865      19.65240005       0.00154466      -0.00017009       0.00089950
Cl      28.07485721      33.68982865      19.65240005      -0.00154473       0.00017579      -0.00090283
Na      28.07485721      36.49731437      19.65240005       0.00154471      -0.00017264       0.00089971
Cl      30.88234293      36.49731437      19.65240005      -0.00154653       0.00017258      -0.00090295
Na      30.88234293      39.30480009      19.65240005       0.00154324      -0.00017496       0.00089981
Cl      33.68982865      39.30480009      19.65240005      -0.00154097       0.00016951      -0.00090290
Na      33.68982865      42.11228581      19.65240005       0.00154727      -0.00017040       0.00089952
Cl      36.49731437      42.11228581      19.65240005      -0.00154426       0.00017553      -0.00090296
Na      36.49731437      44.91977153      19.65240005       0.00154431      -0.00017519       0.00089995
Cl      39.30480009      44.91977153      19.65240005      -0.00155086       0.00016806      -0.00090225
Na       8.42245716      14.03742860      22.45988577       0.00154897      -0.00017109       0.00089980
Cl      11.22994288      14.03742860      22.45988577      -0.00154549       0.00017238      -0.00090138
Na      11.22994288      16.84491433      22.45988577       0.00154404      -0.00017091       0.00090116
Cl      14.03742860      16.84491433      22.45988577      -0.00154536       0.00017521      -0.00090126
Na      14.03742860      19.65240005      22.45988577       0.00154393      -0.00017400       0.00090131
Cl      16.84491433      19.65240005      22.45988577      -0.00154186       0.00017104      -0.00090109
Na      16.84491433      22.45988577      22.45988577       0.00154693      -0.00017243       0.00090122
Cl      19.65240005      22.45988577      22.45988577      -0.00154689       0.00017261      -0.00090119
Na      19.65240005      25.26737149      22.45988577       0.00154341      -0.00017244       0.00090114
Cl      22.45988577      25.26737149      22.45988577      -0.00154497       0.00017244      -0.00090119
Na      22.45988577      28.07485721      22.45988577       0.00154487      -0.00017246       0.00090105
Cl      25.26737149      28.07485721      22.45988577      -0.00154492       0.00017240      -0.00090120
Na      25.26737149      30.88234293      22.45988577       0.00154505      -0.00017346       0.00090128
Cl      28.07485721      30.88234293      22.45988577      -0.00154483       0.00017097      -0.00090129
Na      28.07485721      33.68982865      22.45988577       0.00154487      -0.00017038       0.00090109
Cl      30.88234293      33.68982865      22.45988577      -0.00154638       0.00017579      -0.00090120
Na      30.88234293      36.49731437      22.45988577       0.00154338      -0.00017267       0.00090122
Cl      33.68982865      36.49731437      22.45988577      -0.00154113       0.00017273      -0.00090113
Na      33.68982865      39.30480009      22.45988577       0.00154768      -0.00017512       0.00090120
Cl      36.49731437      39.30480009      22.45988577      -0.00154469       0.00016966      -0.00090126
Na      36.49731437      42.11228581      22.45988577       0.00154455      -0.00017040       0.00090116
Cl      39.30480009      42.11228581      22.45988577      -0.00154814       0.00017583      -0.00090124
Na      39.30480009      44.91977153      22.45988577       0.00154168      -0.00017508       0.00090123
Cl      42.11228581      44.91977153      22.45988577      -0.00154450       0.00016793      -0.00090003
Na      11.22994288      14.03742860      25.26737149       0.00154750      -0.00017132       0.00090029
Cl      14.03742860      14.03742860      25.26737149      -0.00154503       0.00017233      -0.00090133
Na      14.03742860      16.84491433      25.26737149       0.00154383      -0.00017088       0.00090136
Cl      16.84491433      16.84491433      25.26737149      -0.00154165       0.00017481      -0.00090158
Na      16.84491433      19.65240005      25.26737149       0.00154672      -0.00017373       0.00090136
Cl      19.65240005      19.65240005      25.26737149      -0.00154669       0.00017121      -0.00090122
Na      19.65240005      22.45988577      25.26737149       0.00154327      -0.00017259       0.00090126
Cl      22.45988577      22.45988577      25.26737149      -0.00154501       0.00017243      -0.00090116
Na      22.45988577      25.26737149      25.26737149       0.00154497      -0.00017256       0.00090113
Cl      25.26737149      25.26737149      25.26737149      -0.00154493       0.00017247      -0.00090126
Na      25.26737149      28.07485721      25.26737149       0.00154502      -0.00017242       0.00090114
Cl      28.07485721      28.07485721      25.26737149      -0.00154483       0.00017250      -0.00090117
Na      28.07485721      30.88234293      25.26737149       0.00154496      -0.00017358       0.00090125
Cl      30.88234293      30.88234293      25.26737149      -0.00154635       0.00017093      -0.00090121
Na      30.88234293      33.68982865      25.26737149       0.00154336      -0.00017034       0.00090114
Cl      33.68982865      33.68982865      25.26737149      -0.00154083       0.00017555      -0.00090105
Na      33.68982865      36.49731437      25.26737149       0.00154767      -0.00017268       0.00090116
Cl      36.49731437      36.49731437      25.26737149      -0.00154461       0.00017249      -0.00090091
Na      36.49731437      39.30480009      25.26737149       0.00154477      -0.00017501       0.00090126
Cl      39.30480009      39.30480009      25.26737149      -0.00154816       0.00016969      -0.00090128
Na      39.30480009      42.11228581      25.26737149       0.00154161      -0.00017052       0.00090135
Cl      42.11228581      42.11228581      25.26737149      -0.00154070       0.00017577      -0.00090125
Na      42.11228581      44.91977153      25.26737149       0.00154743      -0.00017523       0.00090144
Cl      44.91977153      44.91977153      25.26737149      -0.00154946       0.00016815      -0.00090070
Na      14.03742860      14.03742860      28.07485721       0.00154574      -0.00017151       0.00089996
Cl      16.84491433      14.03742860      28.07485721      -0.00154198       0.00017223      -0.00090136
Na      16.84491433      16.84491433      28.07485721       0.00154684      -0.00017071       0.00090131
Cl      19.65240005      16.84491433      28.07485721      -0.00154685       0.00017509      -0.00090123
Na      19.65240005      19.65240005      28.07485721       0.00154312      -0.00017380       0.00090132
Cl      22.45988577      19.65240005      28.07485721      -0.00154479       0.00017120      -0.00090121
Na      22.45988577      22.45988577      28.07485721       0.00154490      -0.00017258       0.00090127
Cl      25.26737149      22.45988577      28.07485721      -0.00154485       0.00017232      -0.00090111
Na      25.26737149      25.26737149      28.07485721       0.00154499      -0.00017246       0.00090123
Cl      28.07485721      25.26737149      28.07485721      -0.00154481       0.00017240      -0.00090103
Na      28.07485721      28.07485721      28.07485721       0.00154503      -0.00017244       0.00090114
Cl      30.88234293      28.07485721      28.07485721      -0.00154665       0.00017253      -0.00090115
Na      30.88234293      30.88234293      28.07485721       0.00154332      -0.00017371       0.00090112
Cl      33.68982865      30.88234293      28.07485721      -0.00154082       0.00017097      -0.00090118
Na      33.68982865      33.68982865      28.07485721       0.00154749      -0.00017023       0.00090102
Cl      36.49731437      33.68982865      28.07485721      -0.00154472       0.00017562      -0.00090112
Na      36.49731437      36.49731437      28.07485721       0.00154475      -0.00017264       0.00090104
Cl      39.30480009      36.49731437      28.07485721      -0.00154838       0.00017258      -0.00090104
Na      39.30480009      39.30480009      28.07485721       0.00154189      -0.00017515       0.00090120
Cl      42.11228581      39.30480009      28.07485721      -0.00154092       0.00016962      -0.00090121
Na      42.11228581      42.11228581      28.07485721       0.00154721      -0.00017059       0.00090116
Cl      44.91977153      42.11228581      28.07485721      -0.00154813       0.00017573      -0.00090121
Na      44.91977153      44.91977153      28.07485721       0.00154192      -0.00017490       0.00090093
Cl      47.72725725      44.91977153      28.07485721      -0.00154423       0.00016810      -0.00089997
Na      16.84491433      14.03742860      30.88234293       0.00154950      -0.00017185       0.00089899
Cl      19.65240005      14.03742860      30.88234293      -0.00154597       0.00017274      -0.00090332
Na      19.65240005      16.84491433      30.88234293       0.00154318      -0.00017132       0.00090005
Cl      22.45988577      16.84491433      30.88234293      -0.00154462       0.00017537      -0.00090314
Na      22.45988577      19.65240005      30.88234293       0.00154479      -0.00017388       0.00090006
Cl      25.26737149      19.65240005      30.88234293      -0.00154487       0.00017111      -0.00090273
Na      25.26737149      22.45988577      30.88234293       0.00154491      -0.00017246       0.00089982
Cl      28.07485721      22.45988577      30.88234293      -0.00154494       0.00017240      -0.00090281
Na      28.07485721      25.26737149      30.88234293       0.00154495      -0.00017245       0.00089976
Cl      30.88234293      25.26737149      30.88234293      -0.00154654       0.00017243      -0.00090265
Na      30.88234293      28.07485721      30.88234293       0.00154339      -0.00017253       0.00089964
Cl      33.68982865      28.07485721      30.88234293      -0.00154109       0.00017241      -0.00090286
Na      33.68982865      30.88234293      30.88234293       0.00154760      -0.00017379       0.00089977
Cl      36.49731437      30.88234293      30.88234293      -0.00154480       0.00017115      -0.00090296
Na      36.49731437      33.68982865      30.88234293       0.00154501      -0.00017027       0.00089977
Cl      39.30480009      33.68982865      30.88234293      -0.00154848       0.00017594      -0.00090292
Na      39.30480009      36.49731437      30.88234293       0.00154176      -0.00017261       0.00089967
Cl      42.11228581      36.49731437      30.88234293      -0.00154092       0.00017296      -0.00090275
Na      42.11228581      39.30480009      30.88234293       0.00154742      -0.00017521       0.00089983
Cl      44.91977153      39.30480009      30.88234293      -0.00154830       0.00016968      -0.00090312
Na      44.91977153      42.11228581      30.88234293       0.00154177      -0.00017043       0.00089993
Cl      47.72725725      42.11228581      30.88234293      -0.00154092       0.00017560      -0.00090295
Na      47.72725725      44.91977153      30.88234293       0.00154753      -0.00017518       0.00090014
Cl      50.53474298      44.91977153      30.88234293      -0.00154980       0.00016836      -0.00090265
Na      19.65240005      14.03742860      33.68982865       0.00154642      -0.00017139       0.00090228
Cl      22.45988577      14.03742860      33.68982865      -0.00154489       0.00017229      -0.00089748
Na      22.45988577      16.84491433      33.68982865       0.00154469      -0.00017098       0.00090387
Cl      25.26737149      16.84491433      33.68982865      -0.00154493       0.00017504      -0.00089747
Na      25.26737149      19.65240005      33.68982865       0.00154479      -0.00017376       0.00090365
Cl      28.07485721      19.65240005      33.68982865      -0.00154497       0.00017114      -0.00089740
Na      28.07485721      22.45988577      33.68982865       0.00154492      -0.00017258       0.00090361
Cl      30.88234293      22.45988577      33.68982865      -0.00154650       0.00017235      -0.00089734
Na      30.88234293      25.26737149      33.68982865       0.00154360      -0.00017243       0.00090347
Cl      33.68982865      25.26737149      33.68982865      -0.00154115       0.00017250      -0.00089746
Na      33.68982865      28.07485721      33.68982865       0.00154754      -0.00017246       0.00090359
Cl      36.49731437      28.07485721      33.68982865      -0.00154481       0.00017249      -0.00089753
Na      36.49731437      30.88234293      33.68982865       0.00154477      -0.00017386       0.00090363
Cl      39.30480009      30.88234293      33.68982865      -0.00154833       0.00017098      -0.00089715
Na      39.30480009      33.68982865      33.68982865       0.00154204      -0.00017021       0.00090360
Cl      42.11228581      33.68982865      33.68982865      -0.00154111       0.00017571      -0.00089746
Na      42.11228581      36.49731437      33.68982865       0.00154765      -0.00017258       0.00090361
Cl      44.91977153      36.49731437      33.68982865      -0.00154854       0.00017270      -0.00089742
Na      44.91977153      39.30480009      33.68982865       0.00154189      -0.00017495       0.00090371
Cl      47.72725725      39.30480009      33.68982865      -0.00154093       0.00016960      -0.00089748
Na      47.72725725      42.11228581      33.68982865       0.00154726      -0.00017051       0.00090384
Cl      50.53474298      42.11228581      33.68982865      -0.00154831       0.00017568      -0.00089748
Na      50.53474298      44.91977153      33.68982865       0.00154218      -0.00017474       0.00090341
Cl      53.34222870      44.91977153      33.68982865      -0.00154302       0.00016833      -0.00089667
Na      22.45988577      14.03742860      36.49731437       0.00154571      -0.00017231       0.00090046
Cl      25.26737149      14.03742860      36.49731437      -0.00154440       0.00017250      -0.00090139
Na      25.26737149      16.84491433      36.49731437       0.00154465      -0.00017099       0.00090094
Cl      28.07485721      16.84491433      36.49731437      -0.00154473       0.00017520      -0.00090126
Na      28.07485721      19.65240005      36.49731437       0.00154456      -0.00017391       0.00090114
Cl      30.88234293      19.65240005      36.49731437      -0.00154644       0.00017115      -0.00090120
Na      30.88234293      22.45988577      36.49731437       0.00154325      -0.00017267       0.00090113
Cl      33.68982865      22.45988577      36.49731437      -0.00154110       0.00017242      -0.00090101
Na      33.68982865      25.26737149      36.49731437       0.00154777      -0.00017249       0.00090092
Cl      36.49731437      25.26737149      36.49731437      -0.00154471       0.00017261      -0.00090088
Na      36.49731437      28.07485721      36.49731437       0.00154478      -0.00017269       0.00090079
Cl      39.30480009      28.07485721      36.49731437      -0.00154819       0.00017270      -0.00090101
Na      39.30480009      30.88234293      36.49731437       0.00154180      -0.00017387       0.00090082
Cl      42.11228581      30.88234293      36.49731437      -0.00154104       0.00017090      -0.00090093
Na      42.11228581      33.68982865      36.49731437       0.00154753      -0.00017025       0.00090103
Cl      44.91977153      33.68982865      36.49731437      -0.00154842       0.00017579      -0.00090099
Na      44.91977153      36.49731437      36.49731437       0.00154190      -0.00017272       0.00090081
Cl      47.72725725      36.49731437      36.49731437      -0.00154093       0.00017276      -0.00090101
Na      47.72725725      39.30480009      36.49731437       0.00154747      -0.00017511       0.00090093
Cl      50.53474298      39.30480009      36.49731437      -0.00154847       0.00016955      -0.00090107
Na      50.53474298      42.11228581      36.49731437       0.00154196      -0.00017034       0.00090100
Cl      53.34222870      42.11228581      36.49731437      -0.00154093       0.00017572      -0.00090110
Na      53.34222870      44.91977153      36.49731437       0.00154769      -0.00017501       0.00090105
Cl      56.14971442      44.91977153      36.49731437      -0.00154888       0.00016867      -0.00090080
Na      25.26737149      14.03742860      39.30480009       0.00154640      -0.00017168       0.00089747
Cl      28.07485721      14.03742860      39.30480009      -0.00154462       0.00017201      -0.00090465
Na      28.07485721      16.84491433      39.30480009       0.00154491      -0.00017098       0.00089860
Cl      30.88234293      16.84491433      39.30480009      -0.00154628       0.00017502      -0.00090465
Na      30.88234293      19.65240005      39.30480009       0.00154314      -0.00017374       0.00089844
Cl      33.68982865      19.65240005      39.30480009      -0.00154088       0.00017097      -0.00090442
Na      33.68982865      22.45988577      39.30480009       0.00154759      -0.00017267       0.00089839
Cl      36.49731437      22.45988577      39.30480009      -0.00154467       0.00017245      -0.00090423
Na      36.49731437      25.26737149      39.30480009       0.00154478      -0.00017237       0.00089819
Cl      39.30480009      25.26737149      39.30480009      -0.00154815       0.00017220      -0.00090422
Na      39.30480009      28.07485721      39.30480009       0.00154171      -0.00017234       0.00089830
Cl      42.11228581      28.07485721      39.30480009      -0.00154087       0.00017232      -0.00090429
Na      42.11228581      30.88234293      39.30480009       0.00154737      -0.00017352       0.00089834
Cl      44.91977153      30.88234293      39.30480009      -0.00154826       0.00017086      -0.00090426
Na      44.91977153      33.68982865      39.30480009       0.00154187      -0.00017026       0.00089817
Cl      47.72725725      33.68982865      39.30480009      -0.00154081       0.00017551      -0.00090465
Na      47.72725725      36.49731437      39.30480009       0.00154747      -0.00017271       0.00089846
Cl      50.53474298      36.49731437      39.30480009      -0.00154825       0.00017273      -0.00090432
Na      50.53474298      39.30480009      39.30480009       0.00154182      -0.00017493       0.00089839
Cl      53.34222870      39.30480009      39.30480009      -0.00154093       0.00016941      -0.00090448
Na      53.34222870      42.11228581      39.30480009       0.00154727      -0.00017042       0.00089840
Cl      56.14971442      42.11228581      39.30480009      -0.00154805       0.00017566      -0.00090459
Na      56.14971442      44.91977153      39.30480009       0.00154191      -0.00017475       0.00089820
Cl      58.95720014      44.91977153      39.30480009      -0.00154251       0.00016806      -0.00090367
Na      28.07485721      14.03742860      42.11228581       0.00154582      -0.00017159       0.00090252
Cl      30.88234293      14.03742860      42.11228581      -0.00154633       0.00017224      -0.00089778
Na      30.88234293      16.84491433      42.11228581       0.00154318      -0.00017107       0.00090363
Cl      33.68982865      16.84491433      42.11228581      -0.00154057       0.00017501      -0.00089763
Na      33.68982865      19.65240005      42.11228581       0.00154724      -0.00017361       0.00090364
Cl      36.49731437      19.65240005      42.11228581      -0.00154460       0.00017083      -0.00089729
Na      36.49731437      22.45988577      42.11228581       0.00154457      -0.00017230       0.00090337
Cl      39.30480009      22.45988577      42.11228581      -0.00154795       0.00017215      -0.00089734
Na      39.30480009      25.26737149      42.11228581       0.00154159      -0.00017224       0.00090344
Cl      42.11228581      25.26737149      42.11228581      -0.00154100       0.00017217      -0.00089741
Na      42.11228581      28.07485721      42.11228581       0.00154728      -0.00017221       0.00090341
Cl      44.91977153      28.07485721      42.11228581      -0.00154812       0.00017214      -0.00089732
Na      44.91977153      30.88234293      42.11228581       0.00154192      -0.00017330       0.00090329
Cl      47.72725725      30.88234293      42.11228581      -0.00154095       0.00017064      -0.00089748
Na      47.72725725      33.68982865      42.11228581       0.00154724      -0.00016998       0.00090358
Cl      50.53474298      33.68982865      42.11228581      -0.00154835       0.00017541      -0.00089735
Na      50.53474298      36.49731437      42.11228581       0.00154188      -0.00017229       0.00090353
Cl      53.34222870      36.49731437      42.11228581      -0.00154093       0.00017255      -0.00089754
Na      53.34222870      39.30480009      42.11228581       0.00154726      -0.00017492       0.00090358
Cl      56.14971442      39.30480009      42.11228581      -0.00154811       0.00016937      -0.00089755
Na      56.14971442      42.11228581      42.11228581       0.00154164      -0.00017025       0.00090362
Cl      58.95720014      42.11228581      42.11228581      -0.00154049       0.00017550      -0.00089771
Na      58.95720014      44.91977153      42.11228581       0.00154709      -0.00017473       0.00090347
Cl      61.76468586      44.91977153      42.11228581      -0.00154802       0.00016775      -0.00089633
Na      30.88234293      14.03742860      44.91977153       0.00154619      -0.00017162       0.00089735
Cl      33.68982865      14.03742860      44.91977153      -0.00154205       0.00017323      -0.00090627
Na      33.68982865      16.84491433      44.91977153       0.00154709      -0.00017105       0.00089857
Cl      36.49731437      16.84491433      44.91977153      -0.00154761       0.00017620      -0.00090622
Na      36.49731437      19.65240005      44.91977153       0.00154412      -0.00017366       0.00089786
Cl      39.30480009      19.65240005      44.91977153      -0.00155061       0.00017145      -0.00090577
Na      39.30480009      22.45988577      44.91977153       0.00154160      -0.00017227       0.00089816
Cl      42.11228581      22.45988577      44.91977153      -0.00154474       0.00017326      -0.00090573
Na      42.11228581      25.26737149      44.91977153       0.00154738      -0.00017223       0.00089795
Cl      44.91977153      25.26737149      44.91977153      -0.00154940       0.00017299      -0.00090544
Na      44.91977153      28.07485721      44.91977153       0.00154186      -0.00017253       0.00089811
Cl      47.72725725      28.07485721      44.91977153      -0.00154433       0.00017328      -0.00090599
Na      47.72725725      30.88234293      44.91977153       0.00154733      -0.00017331       0.00089806
Cl      50.53474298      30.88234293      44.91977153      -0.00154971       0.00017139      -0.00090531
Na      50.53474298      33.68982865      44.91977153       0.00154201      -0.00017035       0.00089811
Cl      53.34222870      33.68982865      44.91977153      -0.00154305       0.00017644      -0.00090558
Na      53.34222870      36.49731437      44.91977153       0.00154751      -0.00017245       0.00089807
Cl      56.14971442      36.49731437      44.91977153      -0.00154886       0.00017302      -0.00090534
Na      56.14971442      39.30480009      44.91977153       0.00154167      -0.00017524       0.00089833
Cl      58.95720014      39.30480009      44.91977153      -0.00154271       0.00017002      -0.00090559
Na      58.95720014      42.11228581      44.91977153       0.00154726      -0.00017042       0.00089838
Cl      61.76468586      42.11228581      44.91977153      -0.00154815       0.00017675      -0.00090611
Na      61.76468586      44.91977153      44.91977153       0.00154457      -0.00017485       0.00089813
Cl      64.57217158      44.91977153      44.91977153      -0.00155431       0.00016834      -0.00090499
Na       0.00000000      16.84491433      16.84491433       0.00154903      -0.00016918       0.00090447
Cl       2.80748572      16.84491433      16.84491433      -0.00154473       0.00017482      -0.00089849
Na       2.80748572      19.65240005      16.84491433       0.00154483      -0.00017430       0.00090550
Cl       5.61497144      19.65240005      16.84491433      -0.00154519       0.00017105      -0.00089825
Na       5.61497144      22.45988577      16.84491433       0.00154672      -0.00017332       0.00090513
Cl       8.42245716      22.45988577      16.84491433      -0.00154294       0.00017234      -0.00089807
Na       8.42245716      25.26737149      16.84491433       0.00154834      -0.00017340       0.00090545
Cl      11.22994288      25.26737149      16.84491433      -0.00154576       0.00017239      -0.00089806
Na      11.22994288      28.07485721      16.84491433       0.00154735      -0.00017311       0.00090537
Cl      14.03742860      28.07485721      16.84491433      -0.00154524       0.00017241      -0.00089818
Na      14.03742860      30.88234293      16.84491433       0.00154564      -0.00017469       0.00090538
Cl      16.84491433      30.88234293      16.84491433      -0.00154224       0.00017094      -0.00089827
Na      16.84491433      33.68982865      16.84491433       0.00154907      -0.00017053       0.00090501
Cl      19.65240005      33.68982865      16.84491433      -0.00154617       0.00017519      -0.00089807
Na      19.65240005      36.49731437      16.84491433       0.00154625      -0.00017336       0.00090558
Cl      22.45988577      36.49731437      16.84491433      -0.00154501       0.00017291      -0.00089853
Na      22.45988577      39.30480009      16.84491433       0.00154539      -0.00017540       0.00090503
Cl      25.26737149      39.30480009      16.84491433      -0.00154462       0.00016938      -0.00089810
Na      25.26737149      42.11228581      16.84491433       0.00154619      -0.00017085       0.00090511
Cl      28.07485721      42.11228581      16.84491433      -0.00154518       0.00017587      -0.00089868
Na      28.07485721      44.91977153      16.84491433       0.00154551      -0.00017533       0.00090530
Cl      30.88234293      44.91977153      16.84491433      -0.00154656       0.00016919      -0.00089836
Na      30.88234293      47.72725725      16.84491433       0.00154558      -0.00017058       0.00090527
Cl      33.68982865      47.72725725      16.84491433      -0.00154269       0.00017221      -0.00089694
Na       2.80748572      16.84491433      19.65240005       0.00154494      -0.00016839       0.00089893
Cl       5.61497144      16.84491433      19.65240005      -0.00154507       0.00017476      -0.00090279
Na       5.61497144      19.65240005      19.65240005       0.00154393      -0.00017355       0.00089982
Cl       8.42245716      19.65240005      19.65240005      -0.00154317       0.00017098      -0.00090295
Na       8.42245716      22.45988577      19.65240005       0.00154556      -0.00017245       0.00089965
Cl      11.22994288      22.45988577      19.65240005      -0.00154543       0.00017244      -0.00090281
Na      11.22994288      25.26737149      19.65240005       0.00154387      -0.00017225       0.00089940
Cl      14.03742860      25.26737149      19.65240005      -0.00154558       0.00017211      -0.00090266
Na      14.03742860      28.07485721      19.65240005       0.00154360      -0.00017214       0.00089922
Cl      16.84491433      28.07485721      19.65240005      -0.00154170       0.00017222      -0.00090252
Na      16.84491433      30.88234293      19.65240005       0.00154674      -0.00017341       0.00089961
Cl      19.65240005      30.88234293      19.65240005      -0.00154687       0.00017086      -0.00090272
Na      19.65240005      33.68982865      19.65240005       0.00154315      -0.00016961       0.00089921
Cl      22.45988577      33.68982865      19.65240005      -0.00154452       0.00017544      -0.00090281
Na      22.45988577      36.49731437      19.65240005       0.00154440      -0.00017239       0.00089967
Cl      25.26737149      36.49731437      19.65240005      -0.00154459       0.00017262      -0.00090269
Na      25.26737149      39.30480009      19.65240005       0.00154455      -0.00017484       0.00089970
Cl      28.07485721      39.30480009      19.65240005      -0.00154456       0.00016946      -0.00090280
Na      28.07485721      42.11228581      19.65240005       0.00154444      -0.00017012       0.00089987
Cl      30.88234293      42.11228581      19.65240005      -0.00154626       0.00017554      -0.00090294
Na      30.88234293      44.91977153      19.65240005       0.00154290      -0.00017456       0.00089972
Cl      33.68982865      44.91977153      19.65240005      -0.00154060       0.00016943      -0.00090272
Na      33.68982865      47.72725725      19.65240005       0.00154653      -0.00017021       0.00089989
Cl      36.49731437      47.72725725      19.65240005      -0.00154813       0.00017233      -0.00090123
Na       5.61497144      16.84491433      22.45988577       0.00154688      -0.00016831       0.00090029
Cl       8.42245716      16.84491433      22.45988577      -0.00154295       0.00017503      -0.00090123
Na       8.42245716      19.65240005      22.45988577       0.00154561      -0.00017388       0.00090126
Cl      11.22994288      19.65240005      22.45988577      -0.00154563       0.00017131      -0.00090122
Na      11.22994288      22.45988577      22.45988577       0.00154392      -0.00017271       0.00090106
Cl      14.03742860      22.45988577      22.45988577      -0.00154566       0.00017259      -0.00090115
Na      14.03742860      25.26737149      22.45988577       0.00154417      -0.00017235       0.00090095
Cl      16.84491433      25.26737149      22.45988577      -0.00154188       0.00017236      -0.00090100
Na      16.84491433      28.07485721      22.45988577       0.00154680      -0.00017236       0.00090096
Cl      19.65240005      28.07485721      22.45988577      -0.00154678       0.00017257      -0.00090101
Na      19.65240005      30.88234293      22.45988577       0.00154311      -0.00017361       0.00090095
Cl      22.45988577      30.88234293      22.45988577      -0.00154477       0.00017088      -0.00090118
Na      22.45988577      33.68982865      22.45988577       0.00154478      -0.00017019       0.00090096
Cl      25.26737149      33.68982865      22.45988577      -0.00154496       0.00017565      -0.00090097
Na      25.26737149      36.49731437      22.45988577       0.00154468      -0.00017259       0.00090099
Cl      28.07485721      36.49731437      22.45988577      -0.00154467       0.00017289      -0.00090106
Na      28.07485721      39.30480009      22.45988577       0.00154485      -0.00017483       0.00090120
Cl      30.88234293      39.30480009      22.45988577      -0.00154639       0.00016941      -0.00090112
Na      30.88234293      42.11228581      22.45988577       0.00154314      -0.00017019       0.00090108
Cl      33.68982865      42.11228581      22.45988577      -0.00154080       0.00017580      -0.00090103
Na      33.68982865      44.91977153      22.45988577       0.00154731      -0.00017488       0.00090104
Cl      36.49731437      44.91977153      22.45988577      -0.00154460       0.00016956      -0.00090126
Na      36.49731437      47.72725725      22.45988577       0.00154384      -0.00017080       0.00090162
Cl      39.30480009      47.72725725      22.45988577      -0.00155136       0.00017251      -0.00090003
Na       8.42245716      16.84491433      25.26737149       0.00154872      -0.00016851       0.00089982
Cl      11.22994288      16.84491433      25.26737149      -0.00154548       0.00017495      -0.00090128
Na      11.22994288      19.65240005      25.26737149       0.00154391      -0.00017410       0.00090151
Cl      14.03742860      19.65240005      25.26737149      -0.00154553       0.00017121      -0.00090152
Na      14.03742860      22.45988577      25.26737149       0.00154411      -0.00017281       0.00090155
Cl      16.84491433      22.45988577      25.26737149      -0.00154190       0.00017253      -0.00090132
Na      16.84491433      25.26737149      25.26737149       0.00154695      -0.00017245       0.00090118
Cl      19.65240005      25.26737149      25.26737149      -0.00154683       0.00017260      -0.00090112
Na      19.65240005      28.07485721      25.26737149       0.00154337      -0.00017270       0.00090112
Cl      22.45988577      28.07485721      25.26737149      -0.00154512       0.00017257      -0.00090116
Na      22.45988577      30.88234293      25.26737149       0.00154515      -0.00017355       0.00090126
Cl      25.26737149      30.88234293      25.26737149      -0.00154503       0.00017096      -0.00090120
Na      25.26737149      33.68982865      25.26737149       0.00154503      -0.00017033       0.00090100
Cl      28.07485721      33.68982865      25.26737149      -0.00154493       0.00017586      -0.00090102
Na      28.07485721      36.49731437      25.26737149       0.00154482      -0.00017282       0.00090111
Cl      30.88234293      36.49731437      25.26737149      -0.00154659       0.00017281      -0.00090118
Na      30.88234293      39.30480009      25.26737149       0.00154347      -0.00017500       0.00090117
Cl      33.68982865      39.30480009      25.26737149      -0.00154126       0.00016957      -0.00090101
Na      33.68982865      42.11228581      25.26737149       0.00154754      -0.00017043       0.00090093
Cl      36.49731437      42.11228581      25.26737149      -0.00154444       0.00017577      -0.00090113
Na      36.49731437      44.91977153      25.26737149       0.00154452      -0.00017502       0.00090137
Cl      39.30480009      44.91977153      25.26737149      -0.00154814       0.00016960      -0.00090124
Na      39.30480009      47.72725725      25.26737149       0.00154143      -0.00017070       0.00090155
Cl      42.11228581      47.72725725      25.26737149      -0.00154497       0.00017245      -0.00089982
Na      11.22994288      16.84491433      28.07485721       0.00154720      -0.00016834       0.00090051
Cl      14.03742860      16.84491433      28.07485721      -0.00154507       0.00017479      -0.00090139
Na      14.03742860      19.65240005      28.07485721       0.00154388      -0.00017389       0.00090158
Cl      16.84491433      19.65240005      28.07485721      -0.00154164       0.00017105      -0.00090125
Na      16.84491433      22.45988577      28.07485721       0.00154668      -0.00017267       0.00090139
Cl      19.65240005      22.45988577      28.07485721      -0.00154662       0.00017258      -0.00090117
Na      19.65240005      25.26737149      28.07485721       0.00154332      -0.00017245       0.00090126
Cl      22.45988577      25.26737149      28.07485721      -0.00154502       0.00017245      -0.00090110
Na      22.45988577      28.07485721      28.07485721       0.00154496      -0.00017262       0.00090115
Cl      25.26737149      28.07485721      28.07485721      -0.00154496       0.00017243      -0.00090108
Na      25.26737149      30.88234293      28.07485721       0.00154508      -0.00017352       0.00090110
Cl      28.07485721      30.88234293      28.07485721      -0.00154472       0.00017094      -0.00090101
Na      28.07485721      33.68982865      28.07485721       0.00154486      -0.00017044       0.00090082
Cl      30.88234293      33.68982865      28.07485721      -0.00154638       0.00017594      -0.00090112
Na      30.88234293      36.49731437      28.07485721       0.00154343      -0.00017264       0.00090101
Cl      33.68982865      36.49731437      28.07485721      -0.00154115       0.00017279      -0.00090109
Na      33.68982865      39.30480009      28.07485721       0.00154774      -0.00017505       0.00090092
Cl      36.49731437      39.30480009      28.07485721      -0.00154497       0.00016959      -0.00090103
Na      36.49731437      42.11228581      28.07485721       0.00154477      -0.00017025       0.00090090
Cl      39.30480009      42.11228581      28.07485721      -0.00154837       0.00017602      -0.00090124
Na      39.30480009      44.91977153      28.07485721       0.00154172      -0.00017518       0.00090140
Cl      42.11228581      44.91977153      28.07485721      -0.00154092       0.00016966      -0.00090119
Na      42.11228581      47.72725725      28.07485721       0.00154680      -0.00017087       0.00090171
Cl      44.91977153      47.72725725      28.07485721      -0.00154973       0.00017270      -0.00090037
Na      14.03742860      16.84491433      30.88234293       0.00154563      -0.00016840       0.00089885
Cl      16.84491433      16.84491433      30.88234293      -0.00154191       0.00017510      -0.00090286
Na      16.84491433      19.65240005      30.88234293       0.00154651      -0.00017380       0.00089995
Cl      19.65240005      19.65240005      30.88234293      -0.00154668       0.00017115      -0.00090308
Na      19.65240005      22.45988577      30.88234293       0.00154321      -0.00017266       0.00089994
Cl      22.45988577      22.45988577      30.88234293      -0.00154489       0.00017244      -0.00090299
Na      22.45988577      25.26737149      30.88234293       0.00154484      -0.00017235       0.00089988
Cl      25.26737149      25.26737149      30.88234293      -0.00154485       0.00017239      -0.00090271
Na      25.26737149      28.07485721      30.88234293       0.00154488      -0.00017251       0.00089985
Cl      28.07485721      28.07485721      30.88234293      -0.00154498       0.00017247      -0.00090283
Na      28.07485721      30.88234293      30.88234293       0.00154477      -0.00017368       0.00089967
Cl      30.88234293      30.88234293      30.88234293      -0.00154643       0.00017092      -0.00090277
Na      30.88234293      33.68982865      30.88234293       0.00154341      -0.00017026       0.00089952
Cl      33.68982865      33.68982865      30.88234293      -0.00154110       0.00017570      -0.00090276
Na      33.68982865      36.49731437      30.88234293       0.00154772      -0.00017259       0.00089967
Cl      36.49731437      36.49731437      30.88234293      -0.00154491       0.00017264      -0.00090283
Na      36.49731437      39.30480009      30.88234293       0.00154494      -0.00017519       0.00089976
Cl      39.30480009      39.30480009      30.88234293      -0.00154835       0.00016956      -0.00090299
Na      39.30480009      42.11228581      30.88234293       0.00154165      -0.00017023       0.00089977
Cl      42.11228581      42.11228581      30.88234293      -0.00154076       0.00017576      -0.00090291
Na      42.11228581      44.91977153      30.88234293       0.00154713      -0.00017503       0.00089989
Cl      44.91977153      44.91977153      30.88234293      -0.00154825       0.00016951      -0.00090305
Na      44.91977153      47.72725725      30.88234293       0.00154170      -0.00017029       0.00089992
Cl      47.72725725      47.72725725      30.88234293      -0.00154507       0.00017235      -0.00090145
Na      16.84491433      16.84491433      33.68982865       0.00154902      -0.00016883       0.00090340
Cl      19.65240005      16.84491433      33.68982865      -0.00154611       0.00017518      -0.00089826
Na      19.65240005      19.65240005      33.68982865       0.00154322      -0.00017382       0.00090437
Cl      22.45988577      19.65240005      33.68982865      -0.00154478       0.00017116      -0.00089750
Na      22.45988577      22.45988577      33.68982865       0.00154451      -0.00017271       0.00090372
Cl      25.26737149      22.45988577      33.68982865      -0.00154493       0.00017253      -0.00089754
Na      25.26737149      25.26737149      33.68982865       0.00154490      -0.00017247       0.00090349
Cl      28.07485721      25.26737149      33.68982865      -0.00154504       0.00017255      -0.00089738
Na      28.07485721      28.07485721      33.68982865       0.00154495      -0.00017262       0.00090361
Cl      30.88234293      28.07485721      33.68982865      -0.00154666       0.00017243      -0.00089720
Na      30.88234293      30.88234293      33.68982865       0.00154350      -0.00017368       0.00090352
Cl      33.68982865      30.88234293      33.68982865      -0.00154106       0.00017091      -0.00089731
Na      33.68982865      33.68982865      33.68982865       0.00154755      -0.00017025       0.00090374
Cl      36.49731437      33.68982865      33.68982865      -0.00154485       0.00017580      -0.00089749
Na      36.49731437      36.49731437      33.68982865       0.00154477      -0.00017264       0.00090365
Cl      39.30480009      36.49731437      33.68982865      -0.00154844       0.00017269      -0.00089729
Na      39.30480009      39.30480009      33.68982865       0.00154177      -0.00017499       0.00090364
Cl      42.11228581      39.30480009      33.68982865      -0.00154101       0.00016953      -0.00089739
Na      42.11228581      42.11228581      33.68982865       0.00154731      -0.00017038       0.00090369
Cl      44.91977153      42.11228581      33.68982865      -0.00154830       0.00017578      -0.00089760
Na      44.91977153      44.91977153      33.68982865       0.00154181      -0.00017501       0.00090381
Cl      47.72725725      44.91977153      33.68982865      -0.00154095       0.00016962      -0.00089751
Na      47.72725725      47.72725725      33.68982865       0.00154686      -0.00017110       0.00090439
Cl      50.53474298      47.72725725      33.68982865      -0.00154993       0.00017289      -0.00089669
Na      19.65240005      16.84491433      36.49731437       0.00154621      -0.00016842       0.00090017
Cl      22.45988577      16.84491433      36.49731437      -0.00154464       0.00017488      -0.00090109
Na      22.45988577      19.65240005      36.49731437       0.00154422      -0.00017391       0.00090119
Cl      25.26737149      19.65240005      36.49731437      -0.00154451       0.00017112      -0.00090105
Na      25.26737149      22.45988577      36.49731437       0.00154474      -0.00017267       0.00090120
Cl      28.07485721      22.45988577      36.49731437      -0.00154474       0.00017253      -0.00090109
Na      28.07485721      25.26737149      36.49731437       0.00154479      -0.00017241       0.00090098
Cl      30.88234293      25.26737149      36.49731437      -0.00154670       0.00017255      -0.00090101
Na      30.88234293      28.07485721      36.49731437       0.00154337      -0.00017256       0.00090111
Cl      33.68982865      28.07485721      36.49731437      -0.00154109       0.00017248      -0.00090105
Na      33.68982865      30.88234293      36.49731437       0.00154761      -0.00017363       0.00090103
Cl      36.49731437      30.88234293      36.49731437      -0.00154478       0.00017085      -0.00090089
Na      36.49731437      33.68982865      36.49731437       0.00154480      -0.00017011       0.00090092
Cl      39.30480009      33.68982865      36.49731437      -0.00154833       0.00017589      -0.00090107
Na      39.30480009      36.49731437      36.49731437       0.00154177      -0.00017272       0.00090091
Cl      42.11228581      36.49731437      36.49731437      -0.00154100       0.00017277      -0.00090104
Na      42.11228581      39.30480009      36.49731437       0.00154760      -0.00017510       0.00090096
Cl      44.91977153      39.30480009      36.49731437      -0.00154864       0.00016952      -0.00090093
Na      44.91977153      42.11228581      36.49731437       0.00154193      -0.00017027       0.00090083
Cl      47.72725725      42.11228581      36.49731437      -0.00154094       0.00017584      -0.00090109
Na      47.72725725      44.91977153      36.49731437       0.00154738      -0.00017491       0.00090108
Cl      50.53474298      44.91977153      36.49731437      -0.00154858       0.00016939      -0.00090112
Na      50.53474298      47.72725725      36.49731437       0.00154158      -0.00017049       0.00090125
Cl      53.34222870      47.72725725      36.49731437      -0.00154322       0.00017272      -0.00090010
Na      22.45988577      16.84491433      39.30480009       0.00154521      -0.00016919       0.00089800
Cl      25.26737149      16.84491433      39.30480009      -0.00154438       0.00017515      -0.00090498
Na      25.26737149      19.65240005      39.30480009       0.00154465      -0.00017384       0.00089868
Cl      28.07485721      19.65240005      39.30480009      -0.00154454       0.00017129      -0.00090465
Na      28.07485721      22.45988577      39.30480009       0.00154477      -0.00017273       0.00089853
Cl      30.88234293      22.45988577      39.30480009      -0.00154655       0.00017248      -0.00090460
Na      30.88234293      25.26737149      39.30480009       0.00154354      -0.00017243       0.00089853
Cl      33.68982865      25.26737149      39.30480009      -0.00154116       0.00017254      -0.00090434
Na      33.68982865      28.07485721      39.30480009       0.00154761      -0.00017272       0.00089857
Cl      36.49731437      28.07485721      39.30480009      -0.00154482       0.00017248      -0.00090440
Na      36.49731437      30.88234293      39.30480009       0.00154493      -0.00017375       0.00089829
Cl      39.30480009      30.88234293      39.30480009      -0.00154834       0.00017109      -0.00090420
Na      39.30480009      33.68982865      39.30480009       0.00154183      -0.00017035       0.00089817
Cl      42.11228581      33.68982865      39.30480009      -0.00154083       0.00017555      -0.00090461
Na      42.11228581      36.49731437      39.30480009       0.00154752      -0.00017267       0.00089849
Cl      44.91977153      36.49731437      39.30480009      -0.00154827       0.00017277      -0.00090443
Na      44.91977153      39.30480009      39.30480009       0.00154190      -0.00017493       0.00089845
Cl      47.72725725      39.30480009      39.30480009      -0.00154098       0.00016949      -0.00090451
Na      47.72725725      42.11228581      39.30480009       0.00154737      -0.00017042       0.00089844
Cl      50.53474298      42.11228581      39.30480009      -0.00154824       0.00017597      -0.00090463
Na      50.53474298      44.91977153      39.30480009       0.00154190      -0.00017495       0.00089850
Cl      53.34222870      44.91977153      39.30480009      -0.00154112       0.00016934      -0.00090450
Na      53.34222870      47.72725725      39.30480009       0.00154704      -0.00017058       0.00089891
Cl      56.14971442      47.72725725      39.30480009      -0.00154909       0.00017323      -0.00090376
Na      25.26737149      16.84491433      42.11228581       0.00154619      -0.00016882       0.00090322
Cl      28.07485721      16.84491433      42.11228581      -0.00154493       0.00017451      -0.00089745
Na      28.07485721      19.65240005      42.11228581       0.00154454      -0.00017372       0.00090377
Cl      30.88234293      19.65240005      42.11228581      -0.00154623       0.00017109      -0.00089752
Na      30.88234293      22.45988577      42.11228581       0.00154331      -0.00017263       0.00090370
Cl      33.68982865      22.45988577      42.11228581      -0.00154095       0.00017240      -0.00089746
Na      33.68982865      25.26737149      42.11228581       0.00154745      -0.00017237       0.00090353
Cl      36.49731437      25.26737149      42.11228581      -0.00154461       0.00017238      -0.00089742
Na      36.49731437      28.07485721      42.11228581       0.00154464      -0.00017271       0.00090357
Cl      39.30480009      28.07485721      42.11228581      -0.00154807       0.00017229      -0.00089736
Na      39.30480009      30.88234293      42.11228581       0.00154196      -0.00017359       0.00090343
Cl      42.11228581      30.88234293      42.11228581      -0.00154101       0.00017079      -0.00089734
Na      42.11228581      33.68982865      42.11228581       0.00154729      -0.00017014       0.00090363
Cl      44.91977153      33.68982865      42.11228581      -0.00154811       0.00017540      -0.00089723
Na      44.91977153      36.49731437      42.11228581       0.00154187      -0.00017233       0.00090367
Cl      47.72725725      36.49731437      42.11228581      -0.00154095       0.00017249      -0.00089738
Na      47.72725725      39.30480009      42.11228581       0.00154736      -0.00017504       0.00090369
Cl      50.53474298      39.30480009      42.11228581      -0.00154830       0.00016932      -0.00089758
Na      50.53474298      42.11228581      42.11228581       0.00154203      -0.00017037       0.00090360
Cl      53.34222870      42.11228581      42.11228581      -0.00154088       0.00017562      -0.00089753
Na      53.34222870      44.91977153      42.11228581       0.00154721      -0.00017468       0.00090372
Cl      56.14971442      44.91977153      42.11228581      -0.00154812       0.00016921      -0.00089737
Na      56.14971442      47.72725725      42.11228581       0.00154164      -0.00017052       0.00090376
Cl      58.95720014      47.72725725      42.11228581      -0.00154321       0.00017264      -0.00089641
Na      28.07485721      16.84491433      44.91977153       0.00154527      -0.00016878       0.00089769
Cl      30.88234293      16.84491433      44.91977153      -0.00154621       0.00017505      -0.00090466
Na      30.88234293      19.65240005      44.91977153       0.00154301      -0.00017376       0.00089865
Cl      33.68982865      19.65240005      44.91977153      -0.00154068       0.00017113      -0.00090447
Na      33.68982865      22.45988577      44.91977153       0.00154734      -0.00017278       0.00089843
Cl      36.49731437      22.45988577      44.91977153      -0.00154453       0.00017241      -0.00090428
Na      36.49731437      25.26737149      44.91977153       0.00154456      -0.00017216       0.00089826
Cl      39.30480009      25.26737149      44.91977153      -0.00154801       0.00017221      -0.00090443
Na      39.30480009      28.07485721      44.91977153       0.00154156      -0.00017218       0.00089821
Cl      42.11228581      28.07485721      44.91977153      -0.00154109       0.00017220      -0.00090414
Na      42.11228581      30.88234293      44.91977153       0.00154728      -0.00017336       0.00089821
Cl      44.91977153      30.88234293      44.91977153      -0.00154826       0.00017091      -0.00090414
Na      44.91977153      33.68982865      44.91977153       0.00154172      -0.00017018       0.00089805
Cl      47.72725725      33.68982865      44.91977153      -0.00154073       0.00017557      -0.00090443
Na      47.72725725      36.49731437      44.91977153       0.00154743      -0.00017252       0.00089814
Cl      50.53474298      36.49731437      44.91977153      -0.00154842       0.00017265      -0.00090433
Na      50.53474298      39.30480009      44.91977153       0.00154180      -0.00017492       0.00089834
Cl      53.34222870      39.30480009      44.91977153      -0.00154085       0.00016925      -0.00090422
Na      53.34222870      42.11228581      44.91977153       0.00154722      -0.00017027       0.00089844
Cl      56.14971442      42.11228581      44.91977153      -0.00154817       0.00017585      -0.00090452
Na      56.14971442      44.91977153      44.91977153       0.00154157      -0.00017465       0.00089827
Cl      58.95720014      44.91977153      44.91977153      -0.00154079       0.00016935      -0.00090438
Na      58.95720014      47.72725725      44.91977153       0.00154645      -0.00017046       0.00089866
Cl      61.76468586      47.72725725      44.91977153      -0.00154844       0.00017245      -0.00090303
Na      30.88234293      16.84491433      47.72725725       0.00154552      -0.00016810       0.00090297
Cl      33.68982865      16.84491433      47.72725725      -0.00154257       0.00017634      -0.00090126
Na      33.68982865      19.65240005      47.72725725       0.00154633      -0.00017361       0.00090374
Cl      36.49731437      19.65240005      47.72725725      -0.00154806       0.00017246      -0.00090111
Na      36.49731437      22.45988577      47.72725725       0.00154373      -0.00017178       0.00090310
Cl      39.30480009      22.45988577      47.72725725      -0.00155101       0.00017357      -0.00090087
Na      39.30480009      25.26737149      47.72725725       0.00154112      -0.00017205       0.00090330
Cl      42.11228581      25.26737149      47.72725725      -0.00154489       0.00017369      -0.00090106
Na      42.11228581      28.07485721      47.72725725       0.00154683      -0.00017180       0.00090306
Cl      44.91977153      28.07485721      47.72725725      -0.00154965       0.00017341      -0.00090068
Na      44.91977153      30.88234293      47.72725725       0.00154163      -0.00017337       0.00090338
Cl      47.72725725      30.88234293      47.72725725      -0.00154483       0.00017198      -0.00090107
Na      47.72725725      33.68982865      47.72725725       0.00154663      -0.00016962       0.00090284
Cl      50.53474298      33.68982865      47.72725725      -0.00154989       0.00017667      -0.00090045
Na      50.53474298      36.49731437      47.72725725       0.00154150      -0.00017218       0.00090338
Cl      53.34222870      36.49731437      47.72725725      -0.00154339       0.00017366      -0.00090080
Na      53.34222870      39.30480009      47.72725725       0.00154685      -0.00017460       0.00090336
Cl      56.14971442      39.30480009      47.72725725      -0.00154904       0.00017024      -0.00090053
Na      56.14971442      42.11228581      47.72725725       0.00154137      -0.00016986       0.00090348
Cl      58.95720014      42.11228581      47.72725725      -0.00154304       0.00017685      -0.00090069
Na      58.95720014      44.91977153      47.72725725       0.00154652      -0.00017457       0.00090344
Cl      61.76468586      44.91977153      47.72725725      -0.00154856       0.00017066      -0.00090107
Na      61.76468586      47.72725725      47.72725725       0.00154351      -0.00017003       0.00090374
Cl      64.57217158      47.72725725      47.72725725      -0.00155487       0.00017376      -0.00089973
Na       0.00000000      19.65240005      19.65240005       0.00154997      -0.00017217       0.00090139
Cl       2.80748572      19.65240005      19.65240005      -0.00154373       0.00017130      -0.00090258
Na       2.80748572      22.45988577      19.65240005       0.00154576      -0.00017391       0.00090240
Cl       5.61497144      22.45988577      19.65240005      -0.00154483       0.00017213      -0.00090199
Na       5.61497144      25.26737149      19.65240005       0.00154709      -0.00017371       0.00090249
Cl       8.42245716      25.26737149      19.65240005      -0.00154242       0.00017188      -0.00090198
Na       8.42245716      28.07485721      19.65240005       0.00154903      -0.00017374       0.00090277
Cl      11.22994288      28.07485721      19.65240005      -0.00154500       0.00017199      -0.00090190
Na      11.22994288      30.88234293      19.65240005       0.00154756      -0.00017490       0.00090236
Cl      14.03742860      30.88234293      19.65240005      -0.00154466       0.00017036      -0.00090185
Na      14.03742860      33.68982865      19.65240005       0.00154590      -0.00017152       0.00090278
Cl      16.84491433      33.68982865      19.65240005      -0.00154168       0.00017529      -0.00090223
Na      16.84491433      36.49731437      19.65240005       0.00154953      -0.00017332       0.00090233
Cl      19.65240005      36.49731437      19.65240005      -0.00154555       0.00017161      -0.00090175
Na      19.65240005      39.30480009      19.65240005       0.00154665      -0.00017608       0.00090277
Cl      22.45988577      39.30480009      19.65240005      -0.00154428       0.00016921      -0.00090229
Na      22.45988577      42.11228581      19.65240005       0.00154567      -0.00017105       0.00090224
Cl      25.26737149      42.11228581      19.65240005      -0.00154400       0.00017506      -0.00090220
Na      25.26737149      44.91977153      19.65240005       0.00154677      -0.00017577       0.00090280
Cl      28.07485721      44.91977153      19.65240005      -0.00154426       0.00016931      -0.00090247
Na      28.07485721      47.72725725      19.65240005       0.00154587      -0.00017153       0.00090244
Cl      30.88234293      47.72725725      19.65240005      -0.00154594       0.00017511      -0.00090184
Na      30.88234293      50.53474298      19.65240005       0.00154655      -0.00017568       0.00090206
Cl      33.68982865      50.53474298      19.65240005      -0.00154151       0.00016714      -0.00090115
Na       2.80748572      19.65240005      22.45988577       0.00154557      -0.00017132       0.00089965
Cl       5.61497144      19.65240005      22.45988577      -0.00154485       0.00017175      -0.00090145
Na       5.61497144      22.45988577      22.45988577       0.00154446      -0.00017285       0.00090078
Cl       8.42245716      22.45988577      22.45988577      -0.00154325       0.00017262      -0.00090123
Na       8.42245716      25.26737149      22.45988577       0.00154573      -0.00017268       0.00090105
Cl      11.22994288      25.26737149      22.45988577      -0.00154568       0.00017267      -0.00090078
Na      11.22994288      28.07485721      22.45988577       0.00154419      -0.00017250       0.00090065
Cl      14.03742860      28.07485721      22.45988577      -0.00154574       0.00017211      -0.00090083
Na      14.03742860      30.88234293      22.45988577       0.00154420      -0.00017357       0.00090077
Cl      16.84491433      30.88234293      22.45988577      -0.00154175       0.00017070      -0.00090106
Na      16.84491433      33.68982865      22.45988577       0.00154695      -0.00017033       0.00090087
Cl      19.65240005      33.68982865      22.45988577      -0.00154672       0.00017540      -0.00090059
Na      19.65240005      36.49731437      22.45988577       0.00154337      -0.00017243       0.00090066
Cl      22.45988577      36.49731437      22.45988577      -0.00154450       0.00017272      -0.00090082
Na      22.45988577      39.30480009      22.45988577       0.00154467      -0.00017516       0.00090100
Cl      25.26737149      39.30480009      22.45988577      -0.00154486       0.00016938      -0.00090110
Na      25.26737149      42.11228581      22.45988577       0.00154497      -0.00017031       0.00090089
Cl      28.07485721      42.11228581      22.45988577      -0.00154489       0.00017550      -0.00090099
Na      28.07485721      44.91977153      22.45988577       0.00154481      -0.00017489       0.00090117
Cl      30.88234293      44.91977153      22.45988577      -0.00154627       0.00016951      -0.00090104
Na      30.88234293      47.72725725      22.45988577       0.00154330      -0.00017040       0.00090081
Cl      33.68982865      47.72725725      22.45988577      -0.00154062       0.00017562      -0.00090101
Na      33.68982865      50.53474298      22.45988577       0.00154709      -0.00017470       0.00090071
Cl      36.49731437      50.53474298      22.45988577      -0.00154768       0.00016768      -0.00089984
Na       5.61497144      19.65240005      25.26737149       0.00154704      -0.00017081       0.00089999
Cl       8.42245716      19.65240005      25.26737149      -0.00154252       0.00017210      -0.00090183
Na       8.42245716      22.45988577      25.26737149       0.00154575      -0.00017289       0.00090127
Cl      11.22994288      22.45988577      25.26737149      -0.00154568       0.00017304      -0.00090128
Na      11.22994288      25.26737149      25.26737149       0.00154401      -0.00017269       0.00090118
Cl      14.03742860      25.26737149      25.26737149      -0.00154587       0.00017242      -0.00090136
Na      14.03742860      28.07485721      25.26737149       0.00154415      -0.00017223       0.00090115
Cl      16.84491433      28.07485721      25.26737149      -0.00154191       0.00017247      -0.00090108
Na      16.84491433      30.88234293      25.26737149       0.00154672      -0.00017366       0.00090115
Cl      19.65240005      30.88234293      25.26737149      -0.00154695       0.00017110      -0.00090107
Na      19.65240005      33.68982865      25.26737149       0.00154352      -0.00017011       0.00090090
Cl      22.45988577      33.68982865      25.26737149      -0.00154506       0.00017568      -0.00090102
Na      22.45988577      36.49731437      25.26737149       0.00154470      -0.00017258       0.00090110
Cl      25.26737149      36.49731437      25.26737149      -0.00154480       0.00017286      -0.00090105
Na      25.26737149      39.30480009      25.26737149       0.00154490      -0.00017492       0.00090128
Cl      28.07485721      39.30480009      25.26737149      -0.00154489       0.00016947      -0.00090116
Na      28.07485721      42.11228581      25.26737149       0.00154477      -0.00017030       0.00090091
Cl      30.88234293      42.11228581      25.26737149      -0.00154629       0.00017567      -0.00090111
Na      30.88234293      44.91977153      25.26737149       0.00154330      -0.00017499       0.00090116
Cl      33.68982865      44.91977153      25.26737149      -0.00154102       0.00016950      -0.00090101
Na      33.68982865      47.72725725      25.26737149       0.00154731      -0.00017043       0.00090090
Cl      36.49731437      47.72725725      25.26737149      -0.00154441       0.00017588      -0.00090119
Na      36.49731437      50.53474298      25.26737149       0.00154439      -0.00017509       0.00090148
Cl      39.30480009      50.53474298      25.26737149      -0.00155090       0.00016782      -0.00090066
Na       8.42245716      19.65240005      28.07485721       0.00154934      -0.00017087       0.00089983
Cl      11.22994288      19.65240005      28.07485721      -0.00154541       0.00017224      -0.00090175
Na      11.22994288      22.45988577      28.07485721       0.00154423      -0.00017305       0.00090132
Cl      14.03742860      22.45988577      28.07485721      -0.00154570       0.00017293      -0.00090157
Na      14.03742860      25.26737149      28.07485721       0.00154416      -0.00017276       0.00090162
Cl      16.84491433      25.26737149      28.07485721      -0.00154189       0.00017249      -0.00090122
Na      16.84491433      28.07485721      28.07485721       0.00154691      -0.00017263       0.00090116
Cl      19.65240005      28.07485721      28.07485721      -0.00154684       0.00017265      -0.00090114
Na      19.65240005      30.88234293      28.07485721       0.00154332      -0.00017383       0.00090119
Cl      22.45988577      30.88234293      28.07485721      -0.00154504       0.00017111      -0.00090115
Na      22.45988577      33.68982865      28.07485721       0.00154499      -0.00017042       0.00090094
Cl      25.26737149      33.68982865      28.07485721      -0.00154503       0.00017590      -0.00090093
Na      25.26737149      36.49731437      28.07485721       0.00154488      -0.00017280       0.00090100
Cl      28.07485721      36.49731437      28.07485721      -0.00154476       0.00017297      -0.00090096
Na      28.07485721      39.30480009      28.07485721       0.00154506      -0.00017487       0.00090111
Cl      30.88234293      39.30480009      28.07485721      -0.00154656       0.00016936      -0.00090108
Na      30.88234293      42.11228581      28.07485721       0.00154326      -0.00017028       0.00090101
Cl      33.68982865      42.11228581      28.07485721      -0.00154094       0.00017575      -0.00090094
Na      33.68982865      44.91977153      28.07485721       0.00154766      -0.00017495       0.00090103
Cl      36.49731437      44.91977153      28.07485721      -0.00154483       0.00016953      -0.00090111
Na      36.49731437      47.72725725      28.07485721       0.00154465      -0.00017041       0.00090114
Cl      39.30480009      47.72725725      28.07485721      -0.00154823       0.00017593      -0.00090130
Na      39.30480009      50.53474298      28.07485721       0.00154165      -0.00017508       0.00090148
Cl      42.11228581      50.53474298      28.07485721      -0.00154448       0.00016785      -0.00090015
Na      11.22994288      19.65240005      30.88234293       0.00154740      -0.00017096       0.00089854
Cl      14.03742860      19.65240005      30.88234293      -0.00154467       0.00017190      -0.00090331
Na      14.03742860      22.45988577      30.88234293       0.00154398      -0.00017294       0.00089994
Cl      16.84491433      22.45988577      30.88234293      -0.00154175       0.00017276      -0.00090312
Na      16.84491433      25.26737149      30.88234293       0.00154676      -0.00017276       0.00089988
Cl      19.65240005      25.26737149      30.88234293      -0.00154670       0.00017274      -0.00090290
Na      19.65240005      28.07485721      30.88234293       0.00154339      -0.00017258       0.00089974
Cl      22.45988577      28.07485721      30.88234293      -0.00154500       0.00017249      -0.00090282
Na      22.45988577      30.88234293      30.88234293       0.00154490      -0.00017368       0.00089976
Cl      25.26737149      30.88234293      30.88234293      -0.00154491       0.00017113      -0.00090258
Na      25.26737149      33.68982865      30.88234293       0.00154487      -0.00017055       0.00089961
Cl      28.07485721      33.68982865      30.88234293      -0.00154479       0.00017585      -0.00090272
Na      28.07485721      36.49731437      30.88234293       0.00154471      -0.00017264       0.00089985
Cl      30.88234293      36.49731437      30.88234293      -0.00154635       0.00017271      -0.00090282
Na      30.88234293      39.30480009      30.88234293       0.00154327      -0.00017486       0.00089967
Cl      33.68982865      39.30480009      30.88234293      -0.00154123       0.00016931      -0.00090265
Na      33.68982865      42.11228581      30.88234293       0.00154754      -0.00017021       0.00089967
Cl      36.49731437      42.11228581      30.88234293      -0.00154468       0.00017574      -0.00090285
Na      36.49731437      44.91977153      30.88234293       0.00154492      -0.00017486       0.00089981
Cl      39.30480009      44.91977153      30.88234293      -0.00154827       0.00016965      -0.00090307
Na      39.30480009      47.72725725      30.88234293       0.00154158      -0.00017046       0.00089991
Cl      42.11228581      47.72725725      30.88234293      -0.00154079       0.00017559      -0.00090297
Na      42.11228581      50.53474298      30.88234293       0.00154734      -0.00017487       0.00090012
Cl      44.91977153      50.53474298      30.88234293      -0.00154943       0.00016794      -0.00090254
Na      14.03742860      19.65240005      33.68982865       0.00154594      -0.00017104       0.00090245
Cl      16.84491433      19.65240005      33.68982865      -0.00154179       0.00017182      -0.00089804
Na      16.84491433      22.45988577      33.68982865       0.00154669      -0.00017288       0.00090377
Cl      19.65240005      22.45988577      33.68982865      -0.00154648       0.00017291      -0.00089760
Na      19.65240005      25.26737149      33.68982865       0.00154313      -0.00017284       0.00090375
Cl      22.45988577      25.26737149      33.68982865      -0.00154487       0.00017270      -0.00089739
Na      22.45988577      28.07485721      33.68982865       0.00154476      -0.00017260       0.00090363
Cl      25.26737149      28.07485721      33.68982865      -0.00154495       0.00017251      -0.00089731
Na      25.26737149      30.88234293      33.68982865       0.00154486      -0.00017375       0.00090356
Cl      28.07485721      30.88234293      33.68982865      -0.00154500       0.00017105      -0.00089727
Na      28.07485721      33.68982865      33.68982865       0.00154480      -0.00017029       0.00090373
Cl      30.88234293      33.68982865      33.68982865      -0.00154661       0.00017565      -0.00089743
Na      30.88234293      36.49731437      33.68982865       0.00154334      -0.00017242       0.00090370
Cl      33.68982865      36.49731437      33.68982865      -0.00154104       0.00017266      -0.00089737
Na      33.68982865      39.30480009      33.68982865       0.00154749      -0.00017500       0.00090375
Cl      36.49731437      39.30480009      33.68982865      -0.00154478       0.00016937      -0.00089740
Na      36.49731437      42.11228581      33.68982865       0.00154476      -0.00017016       0.00090373
Cl      39.30480009      42.11228581      33.68982865      -0.00154825       0.00017566      -0.00089746
Na      39.30480009      44.91977153      33.68982865       0.00154186      -0.00017483       0.00090363
Cl      42.11228581      44.91977153      33.68982865      -0.00154098       0.00016937      -0.00089751
Na      42.11228581      47.72725725      33.68982865       0.00154722      -0.00017037       0.00090382
Cl      44.91977153      47.72725725      33.68982865      -0.00154827       0.00017585      -0.00089752
Na      44.91977153      50.53474298      33.68982865       0.00154173      -0.00017464       0.00090346
Cl      47.72725725      50.53474298      33.68982865      -0.00154413       0.00016792      -0.00089642
Na      16.84491433      19.65240005      36.49731437       0.00154929      -0.00017119       0.00090020
Cl      19.65240005      19.65240005      36.49731437      -0.00154544       0.00017224      -0.00090205
Na      19.65240005      22.45988577      36.49731437       0.00154324      -0.00017315       0.00090117
Cl      22.45988577      22.45988577      36.49731437      -0.00154454       0.00017290      -0.00090115
Na      22.45988577      25.26737149      36.49731437       0.00154455      -0.00017259       0.00090097
Cl      25.26737149      25.26737149      36.49731437      -0.00154474       0.00017245      -0.00090110
Na      25.26737149      28.07485721      36.49731437       0.00154483      -0.00017243       0.00090096
Cl      28.07485721      28.07485721      36.49731437      -0.00154487       0.00017242      -0.00090106
Na      28.07485721      30.88234293      36.49731437       0.00154485      -0.00017371       0.00090102
Cl      30.88234293      30.88234293      36.49731437      -0.00154650       0.00017108      -0.00090081
Na      30.88234293      33.68982865      36.49731437       0.00154340      -0.00017026       0.00090084
Cl      33.68982865      33.68982865      36.49731437      -0.00154107       0.00017572      -0.00090113
Na      33.68982865      36.49731437      36.49731437       0.00154772      -0.00017272       0.00090093
Cl      36.49731437      36.49731437      36.49731437      -0.00154466       0.00017274      -0.00090098
Na      36.49731437      39.30480009      36.49731437       0.00154464      -0.00017491       0.00090106
Cl      39.30480009      39.30480009      36.49731437      -0.00154846       0.00016939      -0.00090105
Na      39.30480009      42.11228581      36.49731437       0.00154175      -0.00017021       0.00090095
Cl      42.11228581      42.11228581      36.49731437      -0.00154090       0.00017580      -0.00090104
Na      42.11228581      44.91977153      36.49731437       0.00154752      -0.00017494       0.00090108
Cl      44.91977153      44.91977153      36.49731437      -0.00154848       0.00016942      -0.00090105
Na      44.91977153      47.72725725      36.49731437       0.00154189      -0.00017044       0.00090106
Cl      47.72725725      47.72725725      36.49731437      -0.00154096       0.00017580      -0.00090125
Na      47.72725725      50.53474298      36.49731437       0.00154737      -0.00017516       0.00090138
Cl      50.53474298      50.53474298      36.49731437      -0.00154952       0.00016819      -0.00090073
Na      19.65240005      19.65240005      39.30480009       0.00154647      -0.00017090       0.00089703
Cl      22.45988577      19.65240005      39.30480009      -0.00154435       0.00017164      -0.00090501
Na      22.45988577      22.45988577      39.30480009       0.00154466      -0.00017284       0.00089859
Cl      25.26737149      22.45988577      39.30480009      -0.00154470       0.00017257      -0.00090470
Na      25.26737149      25.26737149      39.30480009       0.00154475      -0.00017265       0.00089845
Cl      28.07485721      25.26737149      39.30480009      -0.00154481       0.00017248      -0.00090457
Na      28.07485721      28.07485721      39.30480009       0.00154483      -0.00017259       0.00089843
Cl      30.88234293      28.07485721      39.30480009      -0.00154650       0.00017236      -0.00090467
Na      30.88234293      30.88234293      39.30480009       0.00154331      -0.00017373       0.00089834
Cl      33.68982865      30.88234293      39.30480009      -0.00154103       0.00017082      -0.00090464
Na      33.68982865      33.68982865      39.30480009       0.00154773      -0.00017031       0.00089853
Cl      36.49731437      33.68982865      39.30480009      -0.00154472       0.00017595      -0.00090450
Na      36.49731437      36.49731437      39.30480009       0.00154465      -0.00017261       0.00089839
Cl      39.30480009      36.49731437      39.30480009      -0.00154823       0.00017272      -0.00090447
Na      39.30480009      39.30480009      39.30480009       0.00154182      -0.00017493       0.00089855
Cl      42.11228581      39.30480009      39.30480009      -0.00154107       0.00016947      -0.00090459
Na      42.11228581      42.11228581      39.30480009       0.00154740      -0.00017048       0.00089840
Cl      44.91977153      42.11228581      39.30480009      -0.00154822       0.00017590      -0.00090462
Na      44.91977153      44.91977153      39.30480009       0.00154196      -0.00017482       0.00089843
Cl      47.72725725      44.91977153      39.30480009      -0.00154099       0.00016938      -0.00090455
Na      47.72725725      47.72725725      39.30480009       0.00154729      -0.00017054       0.00089855
Cl      50.53474298      47.72725725      39.30480009      -0.00154826       0.00017589      -0.00090473
Na      50.53474298      50.53474298      39.30480009       0.00154218      -0.00017467       0.00089825
Cl      53.34222870      50.53474298      39.30480009      -0.00154292       0.00016807      -0.00090382
Na      22.45988577      19.65240005      42.11228581       0.00154579      -0.00017148       0.00090297
Cl      25.26737149      19.65240005      42.11228581      -0.00154420       0.00017207      -0.00089806
Na      25.26737149      22.45988577      42.11228581       0.00154484      -0.00017304       0.00090375
Cl      28.07485721      22.45988577      42.11228581      -0.00154481       0.00017278      -0.00089753
Na      28.07485721      25.26737149      42.11228581       0.00154488      -0.00017269       0.00090364
Cl      30.88234293      25.26737149      42.11228581      -0.00154655       0.00017257      -0.00089756
Na      30.88234293      28.07485721      42.11228581       0.00154345      -0.00017251       0.00090361
Cl      33.68982865      28.07485721      42.11228581      -0.00154108       0.00017259      -0.00089758
Na      33.68982865      30.88234293      42.11228581       0.00154760      -0.00017370       0.00090370
Cl      36.49731437      30.88234293      42.11228581      -0.00154492       0.00017092      -0.00089748
Na      36.49731437      33.68982865      42.11228581       0.00154465      -0.00017002       0.00090371
Cl      39.30480009      33.68982865      42.11228581      -0.00154821       0.00017554      -0.00089734
Na      39.30480009      36.49731437      42.11228581       0.00154174      -0.00017241       0.00090350
Cl      42.11228581      36.49731437      42.11228581      -0.00154093       0.00017254      -0.00089740
Na      42.11228581      39.30480009      42.11228581       0.00154732      -0.00017504       0.00090373
Cl      44.91977153      39.30480009      42.11228581      -0.00154831       0.00016937      -0.00089763
Na      44.91977153      42.11228581      42.11228581       0.00154207      -0.00017043       0.00090361
Cl      47.72725725      42.11228581      42.11228581      -0.00154105       0.00017572      -0.00089752
Na      47.72725725      44.91977153      42.11228581       0.00154731      -0.00017476       0.00090371
Cl      50.53474298      44.91977153      42.11228581      -0.00154823       0.00016933      -0.00089762
Na      50.53474298      47.72725725      42.11228581       0.00154205      -0.00017037       0.00090384
Cl      53.34222870      47.72725725      42.11228581      -0.00154102       0.00017562      -0.00089758
Na      53.34222870      50.53474298      42.11228581       0.00154763      -0.00017471       0.00090358
Cl      56.14971442      50.53474298      42.11228581      -0.00154877       0.00016848      -0.00089705
Na      25.26737149      19.65240005      44.91977153       0.00154653      -0.00017114       0.00089741
Cl      28.07485721      19.65240005      44.91977153      -0.00154439       0.00017162      -0.00090497
Na      28.07485721      22.45988577      44.91977153       0.00154488      -0.00017279       0.00089840
Cl      30.88234293      22.45988577      44.91977153      -0.00154639       0.00017254      -0.00090464
Na      30.88234293      25.26737149      44.91977153       0.00154334      -0.00017251       0.00089841
Cl      33.68982865      25.26737149      44.91977153      -0.00154093       0.00017257      -0.00090446
Na      33.68982865      28.07485721      44.91977153       0.00154764      -0.00017271       0.00089837
Cl      36.49731437      28.07485721      44.91977153      -0.00154473       0.00017248      -0.00090435
Na      36.49731437      30.88234293      44.91977153       0.00154487      -0.00017378       0.00089832
Cl      39.30480009      30.88234293      44.91977153      -0.00154829       0.00017087      -0.00090431
Na      39.30480009      33.68982865      44.91977153       0.00154183      -0.00017031       0.00089816
Cl      42.11228581      33.68982865      44.91977153      -0.00154079       0.00017548      -0.00090453
Na      42.11228581      36.49731437      44.91977153       0.00154765      -0.00017264       0.00089831
Cl      44.91977153      36.49731437      44.91977153      -0.00154835       0.00017269      -0.00090448
Na      44.91977153      39.30480009      44.91977153       0.00154186      -0.00017509       0.00089856
Cl      47.72725725      39.30480009      44.91977153      -0.00154098       0.00016940      -0.00090433
Na      47.72725725      42.11228581      44.91977153       0.00154735      -0.00017036       0.00089847
Cl      50.53474298      42.11228581      44.91977153      -0.00154817       0.00017589      -0.00090460
Na      50.53474298      44.91977153      44.91977153       0.00154182      -0.00017486       0.00089838
Cl      53.34222870      44.91977153      44.91977153      -0.00154090       0.00016936      -0.00090443
Na      53.34222870      47.72725725      44.91977153       0.00154729      -0.00017047       0.00089847
Cl      56.14971442      47.72725725      44.91977153      -0.00154809       0.00017575      -0.00090458
Na      56.14971442      50.53474298      44.91977153       0.00154179      -0.00017458       0.00089846
Cl      58.95720014      50.53474298      44.91977153      -0.00154254       0.00016801      -0.00090381
Na      28.07485721      19.65240005      47.72725725       0.00154575      -0.00017118       0.00090271
Cl      30.88234293      19.65240005      47.72725725      -0.00154606       0.00017184      -0.00089819
Na      30.88234293      22.45988577      47.72725725       0.00154341      -0.00017278       0.00090358
Cl      33.68982865      22.45988577      47.72725725      -0.00154077       0.00017267      -0.00089768
Na      33.68982865      25.26737149      47.72725725       0.00154725      -0.00017243       0.00090364
Cl      36.49731437      25.26737149      47.72725725      -0.00154452       0.00017226      -0.00089754
Na      36.49731437      28.07485721      47.72725725       0.00154442      -0.00017253       0.00090334
Cl      39.30480009      28.07485721      47.72725725      -0.00154801       0.00017218      -0.00089753
Na      39.30480009      30.88234293      47.72725725       0.00154183      -0.00017337       0.00090339
Cl      42.11228581      30.88234293      47.72725725      -0.00154092       0.00017061      -0.00089750
Na      42.11228581      33.68982865      47.72725725       0.00154723      -0.00016990       0.00090357
Cl      44.91977153      33.68982865      47.72725725      -0.00154820       0.00017534      -0.00089740
Na      44.91977153      36.49731437      47.72725725       0.00154176      -0.00017217       0.00090352
Cl      47.72725725      36.49731437      47.72725725      -0.00154099       0.00017240      -0.00089726
Na      47.72725725      39.30480009      47.72725725       0.00154723      -0.00017484       0.00090353
Cl      50.53474298      39.30480009      47.72725725      -0.00154822       0.00016929      -0.00089752
Na      50.53474298      42.11228581      47.72725725       0.00154195      -0.00017024       0.00090372
Cl      53.34222870      42.11228581      47.72725725      -0.00154078       0.00017563      -0.00089759
Na      53.34222870      44.91977153      47.72725725       0.00154723      -0.00017468       0.00090364
Cl      56.14971442      44.91977153      47.72725725      -0.00154807       0.00016923      -0.00089760
Na      56.14971442      47.72725725      47.72725725       0.00154173      -0.00017027       0.00090364
Cl      58.95720014      47.72725725      47.72725725      -0.00154053       0.00017556      -0.00089767
Na      58.95720014      50.53474298      47.72725725       0.00154704      -0.00017469       0.00090346
Cl      61.76468586      50.53474298      47.72725725      -0.00154789       0.00016774      -0.00089633
Na      30.88234293      19.65240005      50.53474298       0.00154642      -0.00017124       0.00089760
Cl      33.68982865      19.65240005      50.53474298      -0.00154150       0.00017276      -0.00090667
Na      33.68982865      22.45988577      50.53474298       0.00154719      -0.00017309       0.00089874
Cl      36.49731437      22.45988577      50.53474298      -0.00154740       0.00017357      -0.00090631
Na      36.49731437      25.26737149      50.53474298       0.00154416      -0.00017235       0.00089811
Cl      39.30480009      25.26737149      50.53474298      -0.00155022       0.00017314      -0.00090596
Na      39.30480009      28.07485721      50.53474298       0.00154158      -0.00017223       0.00089828
Cl      42.11228581      28.07485721      50.53474298      -0.00154450       0.00017302      -0.00090606
Na      42.11228581      30.88234293      50.53474298       0.00154722      -0.00017334       0.00089817
Cl      44.91977153      30.88234293      50.53474298      -0.00154930       0.00017140      -0.00090573
Na      44.91977153      33.68982865      50.53474298       0.00154170      -0.00017044       0.00089842
Cl      47.72725725      33.68982865      50.53474298      -0.00154405       0.00017672      -0.00090600
Na      47.72725725      36.49731437      50.53474298       0.00154722      -0.00017221       0.00089789
Cl      50.53474298      36.49731437      50.53474298      -0.00154961       0.00017282      -0.00090551
Na      50.53474298      39.30480009      50.53474298       0.00154192      -0.00017505       0.00089859
Cl      53.34222870      39.30480009      50.53474298      -0.00154276       0.00016967      -0.00090582
Na      53.34222870      42.11228581      50.53474298       0.00154732      -0.00017023       0.00089854
Cl      56.14971442      42.11228581      50.53474298      -0.00154860       0.00017630      -0.00090574
Na      56.14971442      44.91977153      50.53474298       0.00154164      -0.00017524       0.00089859
Cl      58.95720014      44.91977153      50.53474298      -0.00154254       0.00016979      -0.00090597
Na      58.95720014      47.72725725      50.53474298       0.00154711      -0.00017026       0.00089866
Cl      61.76468586      47.72725725      50.53474298      -0.00154785       0.00017664      -0.00090633
Na      61.76468586      50.53474298      50.53474298       0.00154441      -0.00017474       0.00089823
Cl      64.57217158      50.53474298      50.53474298      -0.00155402       0.00016814      -0.00090522
Na       0.00000000      22.45988577      22.45988577       0.00154901      -0.00017232       0.00090122
Cl       2.80748572      22.45988577      22.45988577      -0.00154493       0.00017269      -0.00090101
Na       2.80748572      25.26737149      22.45988577       0.00154523      -0.00017316       0.00090187
Cl       5.61497144      25.26737149      22.45988577      -0.00154545       0.00017266      -0.00090098
Na       5.61497144      28.07485721      22.45988577       0.00154666      -0.00017320       0.00090187
Cl       8.42245716      28.07485721      22.45988577      -0.00154299       0.00017229      -0.00090089
Na       8.42245716      30.88234293      22.45988577       0.00154856      -0.00017437       0.00090201
Cl      11.22994288      30.88234293      22.45988577      -0.00154597       0.00017098      -0.00090071
Na      11.22994288      33.68982865      22.45988577       0.00154723      -0.00017079       0.00090162
Cl      14.03742860      33.68982865      22.45988577      -0.00154541       0.00017578      -0.00090105
Na      14.03742860      36.49731437      22.45988577       0.00154537      -0.00017324       0.00090208
Cl      16.84491433      36.49731437      22.45988577      -0.00154225       0.00017281      -0.00090116
Na      16.84491433      39.30480009      22.45988577       0.00154881      -0.00017513       0.00090155
Cl      19.65240005      39.30480009      22.45988577      -0.00154606       0.00016918      -0.00090054
Na      19.65240005      42.11228581      22.45988577       0.00154598      -0.00017096       0.00090197
Cl      22.45988577      42.11228581      22.45988577      -0.00154496       0.00017591      -0.00090122
Na      22.45988577      44.91977153      22.45988577       0.00154542      -0.00017506       0.00090172
Cl      25.26737149      44.91977153      22.45988577      -0.00154470       0.00016948      -0.00090105
Na      25.26737149      47.72725725      22.45988577       0.00154602      -0.00017088       0.00090179
Cl      28.07485721      47.72725725      22.45988577      -0.00154505       0.00017601      -0.00090130
Na      28.07485721      50.53474298      22.45988577       0.00154542      -0.00017525       0.00090198
Cl      30.88234293      50.53474298      22.45988577      -0.00154653       0.00016929      -0.00090077
Na      30.88234293      53.34222870      22.45988577       0.00154574      -0.00017055       0.00090162
Cl      33.68982865      53.34222870      22.45988577      -0.00154239       0.00017363      -0.00089975
Na       2.80748572      22.45988577      25.26737149       0.00154519      -0.00017167       0.00090062
Cl       5.61497144      22.45988577      25.26737149      -0.00154547       0.00017275      -0.00090116
Na       5.61497144      25.26737149      25.26737149       0.00154433      -0.00017254       0.00090131
Cl       8.42245716      25.26737149      25.26737149      -0.00154331       0.00017258      -0.00090140
Na       8.42245716      28.07485721      25.26737149       0.00154569      -0.00017236       0.00090136
Cl      11.22994288      28.07485721      25.26737149      -0.00154574       0.00017244      -0.00090121
Na      11.22994288      30.88234293      25.26737149       0.00154422      -0.00017338       0.00090125
Cl      14.03742860      30.88234293      25.26737149      -0.00154561       0.00017086      -0.00090107
Na      14.03742860      33.68982865      25.26737149       0.00154384      -0.00017038       0.00090100
Cl      16.84491433      33.68982865      25.26737149      -0.00154168       0.00017572      -0.00090105
Na      16.84491433      36.49731437      25.26737149       0.00154690      -0.00017252       0.00090112
Cl      19.65240005      36.49731437      25.26737149      -0.00154690       0.00017231      -0.00090092
Na      19.65240005      39.30480009      25.26737149       0.00154334      -0.00017461       0.00090088
Cl      22.45988577      39.30480009      25.26737149      -0.00154459       0.00016946      -0.00090109
Na      22.45988577      42.11228581      25.26737149       0.00154451      -0.00017031       0.00090113
Cl      25.26737149      42.11228581      25.26737149      -0.00154495       0.00017558      -0.00090114
Na      25.26737149      44.91977153      25.26737149       0.00154498      -0.00017477       0.00090119
Cl      28.07485721      44.91977153      25.26737149      -0.00154480       0.00016958      -0.00090115
Na      28.07485721      47.72725725      25.26737149       0.00154472      -0.00017040       0.00090124
Cl      30.88234293      47.72725725      25.26737149      -0.00154631       0.00017596      -0.00090124
Na      30.88234293      50.53474298      25.26737149       0.00154331      -0.00017487       0.00090122
Cl      33.68982865      50.53474298      25.26737149      -0.00154079       0.00016937      -0.00090097
Na      33.68982865      53.34222870      25.26737149       0.00154688      -0.00017012       0.00090100
Cl      36.49731437      53.34222870      25.26737149      -0.00154790       0.00017355      -0.00089977
Na       5.61497144      22.45988577      28.07485721       0.00154664      -0.00017159       0.00090067
Cl       8.42245716      22.45988577      28.07485721      -0.00154304       0.00017282      -0.00090137
Na       8.42245716      25.26737149      28.07485721       0.00154576      -0.00017274       0.00090146
Cl      11.22994288      25.26737149      28.07485721      -0.00154570       0.00017288      -0.00090135
Na      11.22994288      28.07485721      28.07485721       0.00154410      -0.00017253       0.00090139
Cl      14.03742860      28.07485721      28.07485721      -0.00154567       0.00017239      -0.00090149
Na      14.03742860      30.88234293      28.07485721       0.00154417      -0.00017363       0.00090108
Cl      16.84491433      30.88234293      28.07485721      -0.00154179       0.00017087      -0.00090110
Na      16.84491433      33.68982865      28.07485721       0.00154683      -0.00017018       0.00090110
Cl      19.65240005      33.68982865      28.07485721      -0.00154690       0.00017569      -0.00090105
Na      19.65240005      36.49731437      28.07485721       0.00154320      -0.00017245       0.00090083
Cl      22.45988577      36.49731437      28.07485721      -0.00154476       0.00017275      -0.00090095
Na      22.45988577      39.30480009      28.07485721       0.00154477      -0.00017489       0.00090113
Cl      25.26737149      39.30480009      28.07485721      -0.00154486       0.00016939      -0.00090112
Na      25.26737149      42.11228581      28.07485721       0.00154490      -0.00017028       0.00090095
Cl      28.07485721      42.11228581      28.07485721      -0.00154499       0.00017559      -0.00090101
Na      28.07485721      44.91977153      28.07485721       0.00154490      -0.00017481       0.00090108
Cl      30.88234293      44.91977153      28.07485721      -0.00154645       0.00016942      -0.00090102
Na      30.88234293      47.72725725      28.07485721       0.00154321      -0.00017032       0.00090105
Cl      33.68982865      47.72725725      28.07485721      -0.00154078       0.00017579      -0.00090101
Na      33.68982865      50.53474298      28.07485721       0.00154746      -0.00017480       0.00090108
Cl      36.49731437      50.53474298      28.07485721      -0.00154463       0.00016942      -0.00090130
Na      36.49731437      53.34222870      28.07485721       0.00154394      -0.00017058       0.00090146
Cl      39.30480009      53.34222870      28.07485721      -0.00155120       0.00017392      -0.00090025
Na       8.42245716      22.45988577      30.88234293       0.00154860      -0.00017145       0.00089909
Cl      11.22994288      22.45988577      30.88234293      -0.00154598       0.00017294      -0.00090299
Na      11.22994288      25.26737149      30.88234293       0.00154396      -0.00017273       0.00089998
Cl      14.03742860      25.26737149      30.88234293      -0.00154540       0.00017266      -0.00090313
Na      14.03742860      28.07485721      30.88234293       0.00154393      -0.00017259       0.00089998
Cl      16.84491433      28.07485721      30.88234293      -0.00154180       0.00017269      -0.00090295
Na      16.84491433      30.88234293      30.88234293       0.00154694      -0.00017373       0.00089979
Cl      19.65240005      30.88234293      30.88234293      -0.00154696       0.00017113      -0.00090296
Na      19.65240005      33.68982865      30.88234293       0.00154338      -0.00017037       0.00089979
Cl      22.45988577      33.68982865      30.88234293      -0.00154476       0.00017576      -0.00090289
Na      22.45988577      36.49731437      30.88234293       0.00154470      -0.00017263       0.00089985
Cl      25.26737149      36.49731437      30.88234293      -0.00154481       0.00017274      -0.00090282
Na      25.26737149      39.30480009      30.88234293       0.00154476      -0.00017482       0.00089984
Cl      28.07485721      39.30480009      30.88234293      -0.00154489       0.00016949      -0.00090279
Na      28.07485721      42.11228581      30.88234293       0.00154484      -0.00017033       0.00089972
Cl      30.88234293      42.11228581      30.88234293      -0.00154634       0.00017581      -0.00090286
Na      30.88234293      44.91977153      30.88234293       0.00154318      -0.00017480       0.00089967
Cl      33.68982865      44.91977153      30.88234293      -0.00154119       0.00016934      -0.00090282
Na      33.68982865      47.72725725      30.88234293       0.00154743      -0.00017033       0.00089968
Cl      36.49731437      47.72725725      30.88234293      -0.00154451       0.00017579      -0.00090300
Na      36.49731437      50.53474298      30.88234293       0.00154474      -0.00017499       0.00089991
Cl      39.30480009      50.53474298      30.88234293      -0.00154823       0.00016944      -0.00090300
Na      39.30480009      53.34222870      30.88234293       0.00154153      -0.00017056       0.00090004
Cl      42.11228581      53.34222870      30.88234293      -0.00154474       0.00017372      -0.00090182
Na      11.22994288      22.45988577      33.68982865       0.00154696      -0.00017159       0.00090311
Cl      14.03742860      22.45988577      33.68982865      -0.00154513       0.00017253      -0.00089750
Na      14.03742860      25.26737149      33.68982865       0.00154385      -0.00017257       0.00090391
Cl      16.84491433      25.26737149      33.68982865      -0.00154186       0.00017280      -0.00089763
Na      16.84491433      28.07485721      33.68982865       0.00154670      -0.00017275       0.00090369
Cl      19.65240005      28.07485721      33.68982865      -0.00154663       0.00017262      -0.00089737
Na      19.65240005      30.88234293      33.68982865       0.00154339      -0.00017396       0.00090374
Cl      22.45988577      30.88234293      33.68982865      -0.00154483       0.00017107      -0.00089732
Na      22.45988577      33.68982865      33.68982865       0.00154478      -0.00017029       0.00090376
Cl      25.26737149      33.68982865      33.68982865      -0.00154502       0.00017578      -0.00089738
Na      25.26737149      36.49731437      33.68982865       0.00154483      -0.00017252       0.00090376
Cl      28.07485721      36.49731437      33.68982865      -0.00154500       0.00017263      -0.00089727
Na      28.07485721      39.30480009      33.68982865       0.00154498      -0.00017482       0.00090371
Cl      30.88234293      39.30480009      33.68982865      -0.00154653       0.00016949      -0.00089737
Na      30.88234293      42.11228581      33.68982865       0.00154327      -0.00017028       0.00090371
Cl      33.68982865      42.11228581      33.68982865      -0.00154098       0.00017562      -0.00089759
Na      33.68982865      44.91977153      33.68982865       0.00154748      -0.00017459       0.00090382
Cl      36.49731437      44.91977153      33.68982865      -0.00154486       0.00016930      -0.00089745
Na      36.49731437      47.72725725      33.68982865       0.00154470      -0.00017019       0.00090380
Cl      39.30480009      47.72725725      33.68982865      -0.00154817       0.00017582      -0.00089761
Na      39.30480009      50.53474298      33.68982865       0.00154164      -0.00017489       0.00090378
Cl      42.11228581      50.53474298      33.68982865      -0.00154092       0.00016939      -0.00089743
Na      42.11228581      53.34222870      33.68982865       0.00154713      -0.00017077       0.00090402
Cl      44.91977153      53.34222870      33.68982865      -0.00154935       0.00017407      -0.00089666
Na      14.03742860      22.45988577      36.49731437       0.00154551      -0.00017149       0.00090028
Cl      16.84491433      22.45988577      36.49731437      -0.00154220       0.00017244      -0.00090108
Na      16.84491433      25.26737149      36.49731437       0.00154663      -0.00017254       0.00090108
Cl      19.65240005      25.26737149      36.49731437      -0.00154636       0.00017271      -0.00090118
Na      19.65240005      28.07485721      36.49731437       0.00154311      -0.00017269       0.00090095
Cl      22.45988577      28.07485721      36.49731437      -0.00154462       0.00017245      -0.00090110
Na      22.45988577      30.88234293      36.49731437       0.00154481      -0.00017367       0.00090096
Cl      25.26737149      30.88234293      36.49731437      -0.00154483       0.00017102      -0.00090101
Na      25.26737149      33.68982865      36.49731437       0.00154486      -0.00017028       0.00090096
Cl      28.07485721      33.68982865      36.49731437      -0.00154494       0.00017582      -0.00090108
Na      28.07485721      36.49731437      36.49731437       0.00154480      -0.00017279       0.00090071
Cl      30.88234293      36.49731437      36.49731437      -0.00154664       0.00017275      -0.00090081
Na      30.88234293      39.30480009      36.49731437       0.00154334      -0.00017501       0.00090096
Cl      33.68982865      39.30480009      36.49731437      -0.00154105       0.00016954      -0.00090103
Na      33.68982865      42.11228581      36.49731437       0.00154769      -0.00017043       0.00090107
Cl      36.49731437      42.11228581      36.49731437      -0.00154457       0.00017575      -0.00090113
Na      36.49731437      44.91977153      36.49731437       0.00154462      -0.00017486       0.00090114
Cl      39.30480009      44.91977153      36.49731437      -0.00154849       0.00016938      -0.00090104
Na      39.30480009      47.72725725      36.49731437       0.00154172      -0.00017026       0.00090099
Cl      42.11228581      47.72725725      36.49731437      -0.00154088       0.00017590      -0.00090111
Na      42.11228581      50.53474298      36.49731437       0.00154737      -0.00017491       0.00090115
Cl      44.91977153      50.53474298      36.49731437      -0.00154844       0.00016937      -0.00090115
Na      44.91977153      53.34222870      36.49731437       0.00154163      -0.00017024       0.00090099
Cl      47.72725725      53.34222870      36.49731437      -0.00154440       0.00017380      -0.00089991
Na      16.84491433      22.45988577      39.30480009       0.00154889      -0.00017191       0.00089807
Cl      19.65240005      22.45988577      39.30480009      -0.00154616       0.00017306      -0.00090493
Na      19.65240005      25.26737149      39.30480009       0.00154324      -0.00017288       0.00089859
Cl      22.45988577      25.26737149      39.30480009      -0.00154460       0.00017275      -0.00090471
Na      22.45988577      28.07485721      39.30480009       0.00154475      -0.00017275       0.00089855
Cl      25.26737149      28.07485721      39.30480009      -0.00154475       0.00017255      -0.00090453
Na      25.26737149      30.88234293      39.30480009       0.00154503      -0.00017382       0.00089833
Cl      28.07485721      30.88234293      39.30480009      -0.00154488       0.00017120      -0.00090452
Na      28.07485721      33.68982865      39.30480009       0.00154496      -0.00017035       0.00089832
Cl      30.88234293      33.68982865      39.30480009      -0.00154657       0.00017582      -0.00090453
Na      30.88234293      36.49731437      39.30480009       0.00154342      -0.00017253       0.00089821
Cl      33.68982865      36.49731437      39.30480009      -0.00154112       0.00017274      -0.00090444
Na      33.68982865      39.30480009      39.30480009       0.00154769      -0.00017511       0.00089841
Cl      36.49731437      39.30480009      39.30480009      -0.00154483       0.00016956      -0.00090475
Na      36.49731437      42.11228581      39.30480009       0.00154463      -0.00017020       0.00089842
Cl      39.30480009      42.11228581      39.30480009      -0.00154808       0.00017582      -0.00090462
Na      39.30480009      44.91977153      39.30480009       0.00154171      -0.00017473       0.00089845
Cl      42.11228581      44.91977153      39.30480009      -0.00154106       0.00016941      -0.00090450
Na      42.11228581      47.72725725      39.30480009       0.00154736      -0.00017044       0.00089848
Cl      44.91977153      47.72725725      39.30480009      -0.00154824       0.00017589      -0.00090471
Na      44.91977153      50.53474298      39.30480009       0.00154183      -0.00017486       0.00089851
Cl      47.72725725      50.53474298      39.30480009      -0.00154106       0.00016943      -0.00090466
Na      47.72725725      53.34222870      39.30480009       0.00154715      -0.00017079       0.00089883
Cl      50.53474298      53.34222870      39.30480009      -0.00154982       0.00017421      -0.00090399
Na      19.65240005      22.45988577      42.11228581       0.00154612      -0.00017154       0.00090295
Cl      22.45988577      22.45988577      42.11228581      -0.00154506       0.00017246      -0.00089733
Na      22.45988577      25.26737149      42.11228581       0.00154448      -0.00017264       0.00090383
Cl      25.26737149      25.26737149      42.11228581      -0.00154482       0.00017267      -0.00089751
Na      25.26737149      28.07485721      42.11228581       0.00154475      -0.00017265       0.00090378
Cl      28.07485721      28.07485721      42.11228581      -0.00154491       0.00017254      -0.00089756
Na      28.07485721      30.88234293      42.11228581       0.00154497      -0.00017379       0.00090370
Cl      30.88234293      30.88234293      42.11228581      -0.00154667       0.00017082      -0.00089749
Na      30.88234293      33.68982865      42.11228581       0.00154351      -0.00017027       0.00090360
Cl      33.68982865      33.68982865      42.11228581      -0.00154095       0.00017567      -0.00089764
Na      33.68982865      36.49731437      42.11228581       0.00154790      -0.00017260       0.00090359
Cl      36.49731437      36.49731437      42.11228581      -0.00154493       0.00017246      -0.00089742
Na      36.49731437      39.30480009      42.11228581       0.00154489      -0.00017512       0.00090391
Cl      39.30480009      39.30480009      42.11228581      -0.00154826       0.00016945      -0.00089762
Na      39.30480009      42.11228581      42.11228581       0.00154186      -0.00017037       0.00090369
Cl      42.11228581      42.11228581      42.11228581      -0.00154098       0.00017567      -0.00089752
Na      42.11228581      44.91977153      42.11228581       0.00154729      -0.00017468       0.00090367
Cl      44.91977153      44.91977153      42.11228581      -0.00154831       0.00016932      -0.00089760
Na      44.91977153      47.72725725      42.11228581       0.00154205      -0.00017031       0.00090363
Cl      47.72725725      47.72725725      42.11228581      -0.00154103       0.00017572      -0.00089770
Na      47.72725725      50.53474298      42.11228581       0.00154736      -0.00017474       0.00090388
Cl      50.53474298      50.53474298      42.11228581      -0.00154844       0.00016942      -0.00089750
Na      50.53474298      53.34222870      42.11228581       0.00154214      -0.00017035       0.00090361
Cl      53.34222870      53.34222870      42.11228581      -0.00154317       0.00017382      -0.00089665
Na      22.45988577      22.45988577      44.91977153       0.00154536      -0.00017216       0.00089803
Cl      25.26737149      22.45988577      44.91977153      -0.00154473       0.00017260      -0.00090446
Na      25.26737149      25.26737149      44.91977153       0.00154478      -0.00017261       0.00089851
Cl      28.07485721      25.26737149      44.91977153      -0.00154476       0.00017260      -0.00090473
Na      28.07485721      28.07485721      44.91977153       0.00154476      -0.00017268       0.00089852
Cl      30.88234293      28.07485721      44.91977153      -0.00154652       0.00017241      -0.00090465
Na      30.88234293      30.88234293      44.91977153       0.00154330      -0.00017368       0.00089846
Cl      33.68982865      30.88234293      44.91977153      -0.00154101       0.00017082      -0.00090455
Na      33.68982865      33.68982865      44.91977153       0.00154754      -0.00017032       0.00089851
Cl      36.49731437      33.68982865      44.91977153      -0.00154454       0.00017597      -0.00090465
Na      36.49731437      36.49731437      44.91977153       0.00154455      -0.00017255       0.00089849
Cl      39.30480009      36.49731437      44.91977153      -0.00154823       0.00017270      -0.00090449
Na      39.30480009      39.30480009      44.91977153       0.00154175      -0.00017501       0.00089843
Cl      42.11228581      39.30480009      44.91977153      -0.00154109       0.00016950      -0.00090452
Na      42.11228581      42.11228581      44.91977153       0.00154738      -0.00017038       0.00089855
Cl      44.91977153      42.11228581      44.91977153      -0.00154830       0.00017599      -0.00090465
Na      44.91977153      44.91977153      44.91977153       0.00154192      -0.00017488       0.00089851
Cl      47.72725725      44.91977153      44.91977153      -0.00154102       0.00016943      -0.00090445
Na      47.72725725      47.72725725      44.91977153       0.00154730      -0.00017046       0.00089856
Cl      50.53474298      47.72725725      44.91977153      -0.00154823       0.00017596      -0.00090474
Na      50.53474298      50.53474298      44.91977153       0.00154189      -0.00017483       0.00089848
Cl      53.34222870      50.53474298      44.91977153      -0.00154105       0.00016933      -0.00090449
Na      53.34222870      53.34222870      44.91977153       0.00154718      -0.00017044       0.00089846
Cl      56.14971442      53.34222870      44.91977153      -0.00154891       0.00017436      -0.00090397
Na      25.26737149      22.45988577      47.72725725       0.00154607      -0.00017178       0.00090299
Cl      28.07485721      22.45988577      47.72725725      -0.00154515       0.00017232      -0.00089712
Na      28.07485721      25.26737149      47.72725725       0.00154490      -0.00017260       0.00090372
Cl      30.88234293      25.26737149      47.72725725      -0.00154656       0.00017253      -0.00089752
Na      30.88234293      28.07485721      47.72725725       0.00154344      -0.00017256       0.00090365
Cl      33.68982865      28.07485721      47.72725725      -0.00154089       0.00017259      -0.00089755
Na      33.68982865      30.88234293      47.72725725       0.00154757      -0.00017376       0.00090379
Cl      36.49731437      30.88234293      47.72725725      -0.00154477       0.00017082      -0.00089731
Na      36.49731437      33.68982865      47.72725725       0.00154461      -0.00016997       0.00090368
Cl      39.30480009      33.68982865      47.72725725      -0.00154807       0.00017544      -0.00089729
Na      39.30480009      36.49731437      47.72725725       0.00154166      -0.00017237       0.00090348
Cl      42.11228581      36.49731437      47.72725725      -0.00154084       0.00017246      -0.00089724
Na      42.11228581      39.30480009      47.72725725       0.00154737      -0.00017506       0.00090375
Cl      44.91977153      39.30480009      47.72725725      -0.00154822       0.00016930      -0.00089760
Na      44.91977153      42.11228581      47.72725725       0.00154202      -0.00017040       0.00090363
Cl      47.72725725      42.11228581      47.72725725      -0.00154098       0.00017557      -0.00089758
Na      47.72725725      44.91977153      47.72725725       0.00154736      -0.00017472       0.00090375
Cl      50.53474298      44.91977153      47.72725725      -0.00154826       0.00016928      -0.00089755
Na      50.53474298      47.72725725      47.72725725       0.00154204      -0.00017029       0.00090369
Cl      53.34222870      47.72725725      47.72725725      -0.00154096       0.00017561      -0.00089759
Na      53.34222870      50.53474298      47.72725725       0.00154728      -0.00017479       0.00090371
Cl      56.14971442      50.53474298      47.72725725      -0.00154817       0.00016928      -0.00089754
Na      56.14971442      53.34222870      47.72725725       0.00154174      -0.00017023       0.00090355
Cl      58.95720014      53.34222870      47.72725725      -0.00154283       0.00017389      -0.00089674
Na      28.07485721      22.45988577      50.53474298       0.00154537      -0.00017186       0.00089781
Cl      30.88234293      22.45988577      50.53474298      -0.00154679       0.00017258      -0.00090449
Na      30.88234293      25.26737149      50.53474298       0.00154347      -0.00017255       0.00089855
Cl      33.68982865      25.26737149      50.53474298      -0.00154090       0.00017274      -0.00090459
Na      33.68982865      28.07485721      50.53474298       0.00154734      -0.00017271       0.00089834
Cl      36.49731437      28.07485721      50.53474298      -0.00154469       0.00017244      -0.00090429
Na      36.49731437      30.88234293      50.53474298       0.00154469      -0.00017365       0.00089818
Cl      39.30480009      30.88234293      50.53474298      -0.00154822       0.00017079      -0.00090430
Na      39.30480009      33.68982865      50.53474298       0.00154162      -0.00017013       0.00089804
Cl      42.11228581      33.68982865      50.53474298      -0.00154084       0.00017566      -0.00090448
Na      42.11228581      36.49731437      50.53474298       0.00154747      -0.00017257       0.00089821
Cl      44.91977153      36.49731437      50.53474298      -0.00154826       0.00017275      -0.00090442
Na      44.91977153      39.30480009      50.53474298       0.00154177      -0.00017498       0.00089837
Cl      47.72725725      39.30480009      50.53474298      -0.00154093       0.00016918      -0.00090433
Na      47.72725725      42.11228581      50.53474298       0.00154733      -0.00017023       0.00089842
Cl      50.53474298      42.11228581      50.53474298      -0.00154826       0.00017577      -0.00090465
Na      50.53474298      44.91977153      50.53474298       0.00154175      -0.00017478       0.00089847
Cl      53.34222870      44.91977153      50.53474298      -0.00154090       0.00016943      -0.00090451
Na      53.34222870      47.72725725      50.53474298       0.00154727      -0.00017038       0.00089846
Cl      56.14971442      47.72725725      50.53474298      -0.00154809       0.00017588      -0.00090460
Na      56.14971442      50.53474298      50.53474298       0.00154155      -0.00017477       0.00089847
Cl      58.95720014      50.53474298      50.53474298      -0.00154079       0.00016942      -0.00090445
Na      58.95720014      53.34222870      50.53474298       0.00154685      -0.00017049       0.00089844
Cl      61.76468586      53.34222870      50.53474298      -0.00154829       0.00017374      -0.00090352
Na      30.88234293      22.45988577      53.34222870       0.00154591      -0.00017165       0.00090325
Cl      33.68982865      22.45988577      53.34222870      -0.00154248       0.00017378      -0.00089992
Na      33.68982865      25.26737149      53.34222870       0.00154683      -0.00017271       0.00090377
Cl      36.49731437      25.26737149      53.34222870      -0.00154778       0.00017375      -0.00089970
Na      36.49731437      28.07485721      53.34222870       0.00154385      -0.00017211       0.00090324
Cl      39.30480009      28.07485721      53.34222870      -0.00155060       0.00017340      -0.00089935
Na      39.30480009      30.88234293      53.34222870       0.00154155      -0.00017339       0.00090331
Cl      42.11228581      30.88234293      53.34222870      -0.00154468       0.00017170      -0.00089960
Na      42.11228581      33.68982865      53.34222870       0.00154699      -0.00016971       0.00090308
Cl      44.91977153      33.68982865      53.34222870      -0.00154928       0.00017648      -0.00089903
Na      44.91977153      36.49731437      53.34222870       0.00154143      -0.00017247       0.00090359
Cl      47.72725725      36.49731437      53.34222870      -0.00154431       0.00017353      -0.00089977
Na      47.72725725      39.30480009      53.34222870       0.00154713      -0.00017437       0.00090332
Cl      50.53474298      39.30480009      53.34222870      -0.00154977       0.00016980      -0.00089923
Na      50.53474298      42.11228581      53.34222870       0.00154199      -0.00017021       0.00090366
Cl      53.34222870      42.11228581      53.34222870      -0.00154298       0.00017649      -0.00089961
Na      53.34222870      44.91977153      53.34222870       0.00154716      -0.00017475       0.00090378
Cl      56.14971442      44.91977153      53.34222870      -0.00154886       0.00016987      -0.00089930
Na      56.14971442      47.72725725      53.34222870       0.00154170      -0.00017018       0.00090371
Cl      58.95720014      47.72725725      53.34222870      -0.00154292       0.00017662      -0.00089962
Na      58.95720014      50.53474298      53.34222870       0.00154685      -0.00017478       0.00090371
Cl      61.76468586      50.53474298      53.34222870      -0.00154842       0.00017040      -0.00089965
Na      61.76468586      53.34222870      53.34222870       0.00154420      -0.00017021       0.00090358
Cl      64.57217158      53.34222870      53.34222870      -0.00155448       0.00017471      -0.00089848
Na       0.00000000      25.26737149      25.26737149       0.00154929      -0.00017153       0.00090200
Cl       2.80748572      25.26737149      25.26737149      -0.00154451       0.00017260      -0.00090104
Na       2.80748572      28.07485721      25.26737149       0.00154540      -0.00017323       0.00090277
Cl       5.61497144      28.07485721      25.26737149      -0.00154515       0.00017223      -0.00090083
Na       5.61497144      30.88234293      25.26737149       0.00154670      -0.00017442       0.00090288
Cl       8.42245716      30.88234293      25.26737149      -0.00154263       0.00017032      -0.00090055
Na       8.42245716      33.68982865      25.26737149       0.00154851      -0.00017120       0.00090324
Cl      11.22994288      33.68982865      25.26737149      -0.00154534       0.00017527      -0.00090065
Na      11.22994288      36.49731437      25.26737149       0.00154728      -0.00017313       0.00090286
Cl      14.03742860      36.49731437      25.26737149      -0.00154498       0.00017249      -0.00090079
Na      14.03742860      39.30480009      25.26737149       0.00154560      -0.00017568       0.00090298
Cl      16.84491433      39.30480009      25.26737149      -0.00154205       0.00016907      -0.00090086
Na      16.84491433      42.11228581      25.26737149       0.00154901      -0.00017060       0.00090246
Cl      19.65240005      42.11228581      25.26737149      -0.00154587       0.00017495      -0.00090028
Na      19.65240005      44.91977153      25.26737149       0.00154631      -0.00017564       0.00090313
Cl      22.45988577      44.91977153      25.26737149      -0.00154473       0.00016952      -0.00090102
Na      22.45988577      47.72725725      25.26737149       0.00154551      -0.00017093       0.00090251
Cl      25.26737149      47.72725725      25.26737149      -0.00154436       0.00017532      -0.00090074
Na      25.26737149      50.53474298      25.26737149       0.00154639      -0.00017551       0.00090304
Cl      28.07485721      50.53474298      25.26737149      -0.00154477       0.00016964      -0.00090101
Na      28.07485721      53.34222870      25.26737149       0.00154541      -0.00017121       0.00090270
Cl      30.88234293      53.34222870      25.26737149      -0.00154623       0.00017529      -0.00090088
Na      30.88234293      56.14971442      25.26737149       0.00154604      -0.00017531       0.00090253
Cl      33.68982865      56.14971442      25.26737149      -0.00154176       0.00016795      -0.00089972
Na       2.80748572      25.26737149      28.07485721       0.00154535      -0.00017098       0.00090029
Cl       5.61497144      25.26737149      28.07485721      -0.00154523       0.00017289      -0.00090145
Na       5.61497144      28.07485721      28.07485721       0.00154454      -0.00017260       0.00090131
Cl       8.42245716      28.07485721      28.07485721      -0.00154335       0.00017251      -0.00090148
Na       8.42245716      30.88234293      28.07485721       0.00154601      -0.00017353       0.00090117
Cl      11.22994288      30.88234293      28.07485721      -0.00154594       0.00017095      -0.00090129
Na      11.22994288      33.68982865      28.07485721       0.00154399      -0.00017017       0.00090112
Cl      14.03742860      33.68982865      28.07485721      -0.00154548       0.00017563      -0.00090119
Na      14.03742860      36.49731437      28.07485721       0.00154376      -0.00017241       0.00090108
Cl      16.84491433      36.49731437      28.07485721      -0.00154167       0.00017242      -0.00090098
Na      16.84491433      39.30480009      28.07485721       0.00154690      -0.00017479       0.00090118
Cl      19.65240005      39.30480009      28.07485721      -0.00154675       0.00016927      -0.00090093
Na      19.65240005      42.11228581      28.07485721       0.00154346      -0.00016999       0.00090083
Cl      22.45988577      42.11228581      28.07485721      -0.00154466       0.00017559      -0.00090101
Na      22.45988577      44.91977153      28.07485721       0.00154458      -0.00017494       0.00090125
Cl      25.26737149      44.91977153      28.07485721      -0.00154489       0.00016937      -0.00090101
Na      25.26737149      47.72725725      28.07485721       0.00154487      -0.00017030       0.00090093
Cl      28.07485721      47.72725725      28.07485721      -0.00154489       0.00017565      -0.00090112
Na      28.07485721      50.53474298      28.07485721       0.00154484      -0.00017500       0.00090125
Cl      30.88234293      50.53474298      28.07485721      -0.00154644       0.00016939      -0.00090113
Na      30.88234293      53.34222870      28.07485721       0.00154322      -0.00017024       0.00090116
Cl      33.68982865      53.34222870      28.07485721      -0.00154050       0.00017551      -0.00090102
Na      33.68982865      56.14971442      28.07485721       0.00154704      -0.00017478       0.00090101
Cl      36.49731437      56.14971442      28.07485721      -0.00154750       0.00016831      -0.00090021
Na       5.61497144      25.26737149      30.88234293       0.00154686      -0.00017055       0.00089896
Cl       8.42245716      25.26737149      30.88234293      -0.00154291       0.00017281      -0.00090350
Na       8.42245716      28.07485721      30.88234293       0.00154577      -0.00017259       0.00090000
Cl      11.22994288      28.07485721      30.88234293      -0.00154575       0.00017263      -0.00090295
Na      11.22994288      30.88234293      30.88234293       0.00154401      -0.00017350       0.00090012
Cl      14.03742860      30.88234293      30.88234293      -0.00154543       0.00017094      -0.00090284
Na      14.03742860      33.68982865      30.88234293       0.00154381      -0.00017014       0.00089996
Cl      16.84491433      33.68982865      30.88234293      -0.00154179       0.00017567      -0.00090300
Na      16.84491433      36.49731437      30.88234293       0.00154660      -0.00017237       0.00090003
Cl      19.65240005      36.49731437      30.88234293      -0.00154666       0.00017266      -0.00090280
Na      19.65240005      39.30480009      30.88234293       0.00154314      -0.00017467       0.00089978
Cl      22.45988577      39.30480009      30.88234293      -0.00154456       0.00016943      -0.00090285
Na      22.45988577      42.11228581      30.88234293       0.00154454      -0.00017019       0.00089979
Cl      25.26737149      42.11228581      30.88234293      -0.00154463       0.00017551      -0.00090305
Na      25.26737149      44.91977153      30.88234293       0.00154462      -0.00017471       0.00089983
Cl      28.07485721      44.91977153      30.88234293      -0.00154477       0.00016950      -0.00090291
Na      28.07485721      47.72725725      30.88234293       0.00154474      -0.00017033       0.00089983
Cl      30.88234293      47.72725725      30.88234293      -0.00154626       0.00017574      -0.00090297
Na      30.88234293      50.53474298      30.88234293       0.00154308      -0.00017483       0.00089965
Cl      33.68982865      50.53474298      30.88234293      -0.00154107       0.00016936      -0.00090283
Na      33.68982865      53.34222870      30.88234293       0.00154716      -0.00017033       0.00089985
Cl      36.49731437      53.34222870      30.88234293      -0.00154431       0.00017579      -0.00090311
Na      36.49731437      56.14971442      30.88234293       0.00154427      -0.00017504       0.00090023
Cl      39.30480009      56.14971442      30.88234293      -0.00155067       0.00016860      -0.00090252
Na       8.42245716      25.26737149      33.68982865       0.00154881      -0.00017059       0.00090285
Cl      11.22994288      25.26737149      33.68982865      -0.00154551       0.00017294      -0.00089774
Na      11.22994288      28.07485721      33.68982865       0.00154398      -0.00017250       0.00090381
Cl      14.03742860      28.07485721      33.68982865      -0.00154538       0.00017251      -0.00089727
Na      14.03742860      30.88234293      33.68982865       0.00154385      -0.00017360       0.00090377
Cl      16.84491433      30.88234293      33.68982865      -0.00154185       0.00017082      -0.00089750
Na      16.84491433      33.68982865      33.68982865       0.00154651      -0.00017015       0.00090397
Cl      19.65240005      33.68982865      33.68982865      -0.00154673       0.00017557      -0.00089765
Na      19.65240005      36.49731437      33.68982865       0.00154313      -0.00017227       0.00090385
Cl      22.45988577      36.49731437      33.68982865      -0.00154469       0.00017268      -0.00089744
Na      22.45988577      39.30480009      33.68982865       0.00154468      -0.00017467       0.00090377
Cl      25.26737149      39.30480009      33.68982865      -0.00154496       0.00016933      -0.00089740
Na      25.26737149      42.11228581      33.68982865       0.00154469      -0.00017012       0.00090392
Cl      28.07485721      42.11228581      33.68982865      -0.00154487       0.00017548      -0.00089748
Na      28.07485721      44.91977153      33.68982865       0.00154471      -0.00017461       0.00090391
Cl      30.88234293      44.91977153      33.68982865      -0.00154637       0.00016939      -0.00089742
Na      30.88234293      47.72725725      33.68982865       0.00154317      -0.00017025       0.00090376
Cl      33.68982865      47.72725725      33.68982865      -0.00154086       0.00017552      -0.00089760
Na      33.68982865      50.53474298      33.68982865       0.00154740      -0.00017447       0.00090391
Cl      36.49731437      50.53474298      33.68982865      -0.00154462       0.00016929      -0.00089764
Na      36.49731437      53.34222870      33.68982865       0.00154453      -0.00017023       0.00090407
Cl      39.30480009      53.34222870      33.68982865      -0.00154825       0.00017576      -0.00089770
Na      39.30480009      56.14971442      33.68982865       0.00154156      -0.00017496       0.00090398
Cl      42.11228581      56.14971442      33.68982865      -0.00154418       0.00016845      -0.00089684
Na      11.22994288      25.26737149      36.49731437       0.00154716      -0.00017057       0.00090023
Cl      14.03742860      25.26737149      36.49731437      -0.00154496       0.00017282      -0.00090123
Na      14.03742860      28.07485721      36.49731437       0.00154374      -0.00017284       0.00090097
Cl      16.84491433      28.07485721      36.49731437      -0.00154185       0.00017254      -0.00090116
Na      16.84491433      30.88234293      36.49731437       0.00154675      -0.00017339       0.00090111
Cl      19.65240005      30.88234293      36.49731437      -0.00154647       0.00017093      -0.00090107
Na      19.65240005      33.68982865      36.49731437       0.00154306      -0.00017010       0.00090123
Cl      22.45988577      33.68982865      36.49731437      -0.00154468       0.00017575      -0.00090115
Na      22.45988577      36.49731437      36.49731437       0.00154458      -0.00017266       0.00090084
Cl      25.26737149      36.49731437      36.49731437      -0.00154469       0.00017254      -0.00090115
Na      25.26737149      39.30480009      36.49731437       0.00154488      -0.00017472       0.00090114
Cl      28.07485721      39.30480009      36.49731437      -0.00154476       0.00016961      -0.00090124
Na      28.07485721      42.11228581      36.49731437       0.00154460      -0.00017018       0.00090112
Cl      30.88234293      42.11228581      36.49731437      -0.00154655       0.00017554      -0.00090108
Na      30.88234293      44.91977153      36.49731437       0.00154329      -0.00017459       0.00090125
Cl      33.68982865      44.91977153      36.49731437      -0.00154101       0.00016932      -0.00090113
Na      33.68982865      47.72725725      36.49731437       0.00154757      -0.00017032       0.00090116
Cl      36.49731437      47.72725725      36.49731437      -0.00154453       0.00017573      -0.00090118
Na      36.49731437      50.53474298      36.49731437       0.00154455      -0.00017472       0.00090128
Cl      39.30480009      50.53474298      36.49731437      -0.00154834       0.00016929      -0.00090111
Na      39.30480009      53.34222870      36.49731437       0.00154151      -0.00017022       0.00090113
Cl      42.11228581      53.34222870      36.49731437      -0.00154080       0.00017577      -0.00090116
Na      42.11228581      56.14971442      36.49731437       0.00154724      -0.00017514       0.00090152
Cl      44.91977153      56.14971442      36.49731437      -0.00154929       0.00016868      -0.00090067
Na      14.03742860      25.26737149      39.30480009       0.00154561      -0.00017049       0.00089747
Cl      16.84491433      25.26737149      39.30480009      -0.00154183       0.00017280      -0.00090497
Na      16.84491433      28.07485721      39.30480009       0.00154653      -0.00017252       0.00089864
Cl      19.65240005      28.07485721      39.30480009      -0.00154636       0.00017275      -0.00090471
Na      19.65240005      30.88234293      39.30480009       0.00154306      -0.00017369       0.00089859
Cl      22.45988577      30.88234293      39.30480009      -0.00154481       0.00017114      -0.00090468
Na      22.45988577      33.68982865      39.30480009       0.00154452      -0.00017018       0.00089859
Cl      25.26737149      33.68982865      39.30480009      -0.00154468       0.00017590      -0.00090482
Na      25.26737149      36.49731437      39.30480009       0.00154466      -0.00017264       0.00089858
Cl      28.07485721      36.49731437      39.30480009      -0.00154472       0.00017245      -0.00090461
Na      28.07485721      39.30480009      39.30480009       0.00154461      -0.00017466       0.00089862
Cl      30.88234293      39.30480009      39.30480009      -0.00154656       0.00016935      -0.00090448
Na      30.88234293      42.11228581      39.30480009       0.00154338      -0.00017006       0.00089862
Cl      33.68982865      42.11228581      39.30480009      -0.00154093       0.00017565      -0.00090478
Na      33.68982865      44.91977153      39.30480009       0.00154746      -0.00017471       0.00089861
Cl      36.49731437      44.91977153      39.30480009      -0.00154480       0.00016941      -0.00090487
Na      36.49731437      47.72725725      39.30480009       0.00154454      -0.00017010       0.00089849
Cl      39.30480009      47.72725725      39.30480009      -0.00154795       0.00017564      -0.00090467
Na      39.30480009      50.53474298      39.30480009       0.00154146      -0.00017458       0.00089857
Cl      42.11228581      50.53474298      39.30480009      -0.00154091       0.00016937      -0.00090465
Na      42.11228581      53.34222870      39.30480009       0.00154714      -0.00017037       0.00089861
Cl      44.91977153      53.34222870      39.30480009      -0.00154816       0.00017591      -0.00090468
Na      44.91977153      56.14971442      39.30480009       0.00154165      -0.00017469       0.00089839
Cl      47.72725725      56.14971442      39.30480009      -0.00154405       0.00016834      -0.00090377
Na      16.84491433      25.26737149      42.11228581       0.00154912      -0.00017083       0.00090332
Cl      19.65240005      25.26737149      42.11228581      -0.00154587       0.00017333      -0.00089813
Na      19.65240005      28.07485721      42.11228581       0.00154309      -0.00017286       0.00090409
Cl      22.45988577      28.07485721      42.11228581      -0.00154472       0.00017253      -0.00089766
Na      22.45988577      30.88234293      42.11228581       0.00154453      -0.00017370       0.00090401
Cl      25.26737149      30.88234293      42.11228581      -0.00154477       0.00017113      -0.00089762
Na      25.26737149      33.68982865      42.11228581       0.00154464      -0.00017014       0.00090384
Cl      28.07485721      33.68982865      42.11228581      -0.00154489       0.00017571      -0.00089758
Na      28.07485721      36.49731437      42.11228581       0.00154459      -0.00017227       0.00090380
Cl      30.88234293      36.49731437      42.11228581      -0.00154651       0.00017266      -0.00089765
Na      30.88234293      39.30480009      42.11228581       0.00154342      -0.00017471       0.00090389
Cl      33.68982865      39.30480009      42.11228581      -0.00154129       0.00016939      -0.00089757
Na      33.68982865      42.11228581      42.11228581       0.00154736      -0.00017021       0.00090385
Cl      36.49731437      42.11228581      42.11228581      -0.00154471       0.00017563      -0.00089755
Na      36.49731437      44.91977153      42.11228581       0.00154472      -0.00017475       0.00090399
Cl      39.30480009      44.91977153      42.11228581      -0.00154818       0.00016935      -0.00089766
Na      39.30480009      47.72725725      42.11228581       0.00154174      -0.00017026       0.00090386
Cl      42.11228581      47.72725725      42.11228581      -0.00154093       0.00017560      -0.00089762
Na      42.11228581      50.53474298      42.11228581       0.00154720      -0.00017457       0.00090370
Cl      44.91977153      50.53474298      42.11228581      -0.00154825       0.00016932      -0.00089770
Na      44.91977153      53.34222870      42.11228581       0.00154186      -0.00017027       0.00090388
Cl      47.72725725      53.34222870      42.11228581      -0.00154105       0.00017572      -0.00089782
Na      47.72725725      56.14971442      42.11228581       0.00154723      -0.00017510       0.00090416
Cl      50.53474298      56.14971442      42.11228581      -0.00154946       0.00016870      -0.00089731
Na      19.65240005      25.26737149      44.91977153       0.00154606      -0.00017052       0.00089748
Cl      22.45988577      25.26737149      44.91977153      -0.00154440       0.00017272      -0.00090481
Na      22.45988577      28.07485721      44.91977153       0.00154450      -0.00017265       0.00089854
Cl      25.26737149      28.07485721      44.91977153      -0.00154466       0.00017249      -0.00090486
Na      25.26737149      30.88234293      44.91977153       0.00154467      -0.00017367       0.00089864
Cl      28.07485721      30.88234293      44.91977153      -0.00154479       0.00017117      -0.00090484
Na      28.07485721      33.68982865      44.91977153       0.00154472      -0.00017012       0.00089880
Cl      30.88234293      33.68982865      44.91977153      -0.00154634       0.00017573      -0.00090471
Na      30.88234293      36.49731437      44.91977153       0.00154333      -0.00017249       0.00089855
Cl      33.68982865      36.49731437      44.91977153      -0.00154102       0.00017261      -0.00090454
Na      33.68982865      39.30480009      44.91977153       0.00154763      -0.00017484       0.00089847
Cl      36.49731437      39.30480009      44.91977153      -0.00154481       0.00016946      -0.00090472
Na      36.49731437      42.11228581      44.91977153       0.00154441      -0.00017011       0.00089843
Cl      39.30480009      42.11228581      44.91977153      -0.00154801       0.00017573      -0.00090480
Na      39.30480009      44.91977153      44.91977153       0.00154146      -0.00017461       0.00089867
Cl      42.11228581      44.91977153      44.91977153      -0.00154090       0.00016933      -0.00090453
Na      42.11228581      47.72725725      44.91977153       0.00154715      -0.00017039       0.00089859
Cl      44.91977153      47.72725725      44.91977153      -0.00154811       0.00017593      -0.00090469
Na      44.91977153      50.53474298      44.91977153       0.00154185      -0.00017477       0.00089858
Cl      47.72725725      50.53474298      44.91977153      -0.00154101       0.00016942      -0.00090457
Na      47.72725725      53.34222870      44.91977153       0.00154727      -0.00017046       0.00089876
Cl      50.53474298      53.34222870      44.91977153      -0.00154830       0.00017577      -0.00090472
Na      50.53474298      56.14971442      44.91977153       0.00154202      -0.00017472       0.00089845
Cl      53.34222870      56.14971442      44.91977153      -0.00154279       0.00016872      -0.00090395
Na      22.45988577      25.26737149      47.72725725       0.00154545      -0.00017120       0.00090327
Cl      25.26737149      25.26737149      47.72725725      -0.00154446       0.00017309      -0.00089794
Na      25.26737149      28.07485721      47.72725725       0.00154470      -0.00017268       0.00090389
Cl      28.07485721      28.07485721      47.72725725      -0.00154487       0.00017250      -0.00089759
Na      28.07485721      30.88234293      47.72725725       0.00154482      -0.00017372       0.00090390
Cl      30.88234293      30.88234293      47.72725725      -0.00154654       0.00017076      -0.00089764
Na      30.88234293      33.68982865      47.72725725       0.00154329      -0.00017011       0.00090375
Cl      33.68982865      33.68982865      47.72725725      -0.00154090       0.00017570      -0.00089776
Na      33.68982865      36.49731437      47.72725725       0.00154772      -0.00017252       0.00090363
Cl      36.49731437      36.49731437      47.72725725      -0.00154487       0.00017237      -0.00089740
Na      36.49731437      39.30480009      47.72725725       0.00154479      -0.00017502       0.00090389
Cl      39.30480009      39.30480009      47.72725725      -0.00154815       0.00016946      -0.00089769
Na      39.30480009      42.11228581      47.72725725       0.00154176      -0.00017024       0.00090392
Cl      42.11228581      42.11228581      47.72725725      -0.00154091       0.00017567      -0.00089766
Na      42.11228581      44.91977153      47.72725725       0.00154714      -0.00017452       0.00090367
Cl      44.91977153      44.91977153      47.72725725      -0.00154830       0.00016924      -0.00089765
Na      44.91977153      47.72725725      47.72725725       0.00154200      -0.00017021       0.00090373
Cl      47.72725725      47.72725725      47.72725725      -0.00154097       0.00017568      -0.00089768
Na      47.72725725      50.53474298      47.72725725       0.00154728      -0.00017455       0.00090374
Cl      50.53474298      50.53474298      47.72725725      -0.00154824       0.00016940      -0.00089764
Na      50.53474298      53.34222870      47.72725725       0.00154183      -0.00017026       0.00090382
Cl      53.34222870      53.34222870      47.72725725      -0.00154085       0.00017559      -0.00089760
Na      53.34222870      56.14971442      47.72725725       0.00154734      -0.00017469       0.00090371
Cl      56.14971442      56.14971442      47.72725725      -0.00154849       0.00016885      -0.00089724
Na      25.26737149      25.26737149      50.53474298       0.00154627      -0.00017080       0.00089783
Cl      28.07485721      25.26737149      50.53474298      -0.00154474       0.00017269      -0.00090478
Na      28.07485721      28.07485721      50.53474298       0.00154481      -0.00017249       0.00089851
Cl      30.88234293      28.07485721      50.53474298      -0.00154633       0.00017252      -0.00090455
Na      30.88234293      30.88234293      50.53474298       0.00154317      -0.00017360       0.00089860
Cl      33.68982865      30.88234293      50.53474298      -0.00154091       0.00017071      -0.00090456
Na      33.68982865      33.68982865      50.53474298       0.00154732      -0.00017018       0.00089859
Cl      36.49731437      33.68982865      50.53474298      -0.00154434       0.00017583      -0.00090465
Na      36.49731437      36.49731437      50.53474298       0.00154439      -0.00017244       0.00089852
Cl      39.30480009      36.49731437      50.53474298      -0.00154807       0.00017251      -0.00090450
Na      39.30480009      39.30480009      50.53474298       0.00154160      -0.00017486       0.00089849
Cl      42.11228581      39.30480009      50.53474298      -0.00154097       0.00016936      -0.00090443
Na      42.11228581      42.11228581      50.53474298       0.00154718      -0.00017030       0.00089854
Cl      44.91977153      42.11228581      50.53474298      -0.00154817       0.00017583      -0.00090470
Na      44.91977153      44.91977153      50.53474298       0.00154188      -0.00017469       0.00089859
Cl      47.72725725      44.91977153      50.53474298      -0.00154099       0.00016931      -0.00090454
Na      47.72725725      47.72725725      50.53474298       0.00154720      -0.00017034       0.00089861
Cl      50.53474298      47.72725725      50.53474298      -0.00154813       0.00017585      -0.00090473
Na      50.53474298      50.53474298      50.53474298       0.00154181      -0.00017484       0.00089849
Cl      53.34222870      50.53474298      50.53474298      -0.00154090       0.00016938      -0.00090456
Na      53.34222870      53.34222870      50.53474298       0.00154725      -0.00017046       0.00089871
Cl      56.14971442      53.34222870      50.53474298      -0.00154812       0.00017576      -0.00090457
Na      56.14971442      56.14971442      50.53474298       0.00154162      -0.00017470       0.00089838
Cl      58.95720014      56.14971442      50.53474298      -0.00154247       0.00016865      -0.00090387
Na      28.07485721      25.26737149      53.34222870       0.00154548      -0.00017084       0.00090301
Cl      30.88234293      25.26737149      53.34222870      -0.00154629       0.00017276      -0.00089782
Na      30.88234293      28.07485721      53.34222870       0.00154328      -0.00017229       0.00090363
Cl      33.68982865      28.07485721      53.34222870      -0.00154076       0.00017273      -0.00089756
Na      33.68982865      30.88234293      53.34222870       0.00154718      -0.00017359       0.00090373
Cl      36.49731437      30.88234293      53.34222870      -0.00154450       0.00017066      -0.00089722
Na      36.49731437      33.68982865      53.34222870       0.00154445      -0.00016977       0.00090355
Cl      39.30480009      33.68982865      53.34222870      -0.00154799       0.00017540      -0.00089732
Na      39.30480009      36.49731437      53.34222870       0.00154159      -0.00017207       0.00090357
Cl      42.11228581      36.49731437      53.34222870      -0.00154094       0.00017237      -0.00089739
Na      42.11228581      39.30480009      53.34222870       0.00154710      -0.00017475       0.00090363
Cl      44.91977153      39.30480009      53.34222870      -0.00154820       0.00016916      -0.00089764
Na      44.91977153      42.11228581      53.34222870       0.00154191      -0.00017000       0.00090380
Cl      47.72725725      42.11228581      53.34222870      -0.00154101       0.00017538      -0.00089758
Na      47.72725725      44.91977153      53.34222870       0.00154726      -0.00017444       0.00090374
Cl      50.53474298      44.91977153      53.34222870      -0.00154824       0.00016921      -0.00089763
Na      50.53474298      47.72725725      53.34222870       0.00154190      -0.00017015       0.00090374
Cl      53.34222870      47.72725725      53.34222870      -0.00154086       0.00017558      -0.00089765
Na      53.34222870      50.53474298      53.34222870       0.00154724      -0.00017452       0.00090375
Cl      56.14971442      50.53474298      53.34222870      -0.00154804       0.00016924      -0.00089778
Na      56.14971442      53.34222870      53.34222870       0.00154161      -0.00017018       0.00090371
Cl      58.95720014      53.34222870      53.34222870      -0.00154065       0.00017550      -0.00089756
Na      58.95720014      56.14971442      53.34222870       0.00154705      -0.00017465       0.00090375
Cl      61.76468586      56.14971442      53.34222870      -0.00154800       0.00016840      -0.00089659
Na      30.88234293      25.26737149      56.14971442       0.00154584      -0.00017094       0.00089784
Cl      33.68982865      25.26737149      56.14971442      -0.00154183       0.00017371      -0.00090572
Na      33.68982865      28.07485721      56.14971442       0.00154704      -0.00017269       0.00089863
Cl      36.49731437      28.07485721      56.14971442      -0.00154748       0.00017338      -0.00090560
Na      36.49731437      30.88234293      56.14971442       0.00154417      -0.00017332       0.00089809
Cl      39.30480009      30.88234293      56.14971442      -0.00155062       0.00017143      -0.00090533
Na      39.30480009      33.68982865      56.14971442       0.00154134      -0.00016997       0.00089831
Cl      42.11228581      33.68982865      56.14971442      -0.00154427       0.00017647      -0.00090537
Na      42.11228581      36.49731437      56.14971442       0.00154708      -0.00017210       0.00089794
Cl      44.91977153      36.49731437      56.14971442      -0.00154908       0.00017282      -0.00090488
Na      44.91977153      39.30480009      56.14971442       0.00154156      -0.00017496       0.00089867
Cl      47.72725725      39.30480009      56.14971442      -0.00154399       0.00017006      -0.00090538
Na      47.72725725      42.11228581      56.14971442       0.00154714      -0.00016994       0.00089811
Cl      50.53474298      42.11228581      56.14971442      -0.00154932       0.00017601      -0.00090494
Na      50.53474298      44.91977153      56.14971442       0.00154184      -0.00017489       0.00089857
Cl      53.34222870      44.91977153      56.14971442      -0.00154287       0.00016993      -0.00090530
Na      53.34222870      47.72725725      56.14971442       0.00154722      -0.00017022       0.00089861
Cl      56.14971442      47.72725725      56.14971442      -0.00154842       0.00017605      -0.00090510
Na      56.14971442      50.53474298      56.14971442       0.00154167      -0.00017499       0.00089866
Cl      58.95720014      50.53474298      56.14971442      -0.00154265       0.00016987      -0.00090541
Na      58.95720014      53.34222870      56.14971442       0.00154690      -0.00017032       0.00089870
Cl      61.76468586      53.34222870      56.14971442      -0.00154785       0.00017653      -0.00090565
Na      61.76468586      56.14971442      56.14971442       0.00154425      -0.00017480       0.00089830
Cl      64.57217158      56.14971442      56.14971442      -0.00155402       0.00016890      -0.00090474
Na       0.00000000      28.07485721      28.07485721       0.00154883      -0.00017222       0.00090126
Cl       2.80748572      28.07485721      28.07485721      -0.00154488       0.00017230      -0.00090139
Na       2.80748572      30.88234293      28.07485721       0.00154527      -0.00017382       0.00090203
Cl       5.61497144      30.88234293      28.07485721      -0.00154549       0.00017068      -0.00090108
Na       5.61497144      33.68982865      28.07485721       0.00154656      -0.00017032       0.00090201
Cl       8.42245716      33.68982865      28.07485721      -0.00154272       0.00017549      -0.00090107
Na       8.42245716      36.49731437      28.07485721       0.00154826      -0.00017348       0.00090241
Cl      11.22994288      36.49731437      28.07485721      -0.00154562       0.00017245      -0.00090126
Na      11.22994288      39.30480009      28.07485721       0.00154685      -0.00017542       0.00090225
Cl      14.03742860      39.30480009      28.07485721      -0.00154498       0.00016914      -0.00090133
Na      14.03742860      42.11228581      28.07485721       0.00154503      -0.00017089       0.00090215
Cl      16.84491433      42.11228581      28.07485721      -0.00154204       0.00017559      -0.00090142
Na      16.84491433      44.91977153      28.07485721       0.00154887      -0.00017488       0.00090165
Cl      19.65240005      44.91977153      28.07485721      -0.00154599       0.00016891      -0.00090083
Na      19.65240005      47.72725725      28.07485721       0.00154573      -0.00017104       0.00090225
Cl      22.45988577      47.72725725      28.07485721      -0.00154488       0.00017578      -0.00090144
Na      22.45988577      50.53474298      28.07485721       0.00154555      -0.00017469       0.00090169
Cl      25.26737149      50.53474298      28.07485721      -0.00154463       0.00016940      -0.00090109
Na      25.26737149      53.34222870      28.07485721       0.00154589      -0.00017078       0.00090175
Cl      28.07485721      53.34222870      28.07485721      -0.00154504       0.00017600      -0.00090146
Na      28.07485721      56.14971442      28.07485721       0.00154530      -0.00017511       0.00090205
Cl      30.88234293      56.14971442      28.07485721      -0.00154640       0.00016908      -0.00090094
Na      30.88234293      58.95720014      28.07485721       0.00154544      -0.00017049       0.00090163
Cl      33.68982865      58.95720014      28.07485721      -0.00154205       0.00017360      -0.00089998
Na       2.80748572      28.07485721      30.88234293       0.00154525      -0.00017162       0.00089955
Cl       5.61497144      28.07485721      30.88234293      -0.00154551       0.00017249      -0.00090289
Na       5.61497144      30.88234293      30.88234293       0.00154432      -0.00017353       0.00090003
Cl       8.42245716      30.88234293      30.88234293      -0.00154325       0.00017087      -0.00090316
Na       8.42245716      33.68982865      30.88234293       0.00154563      -0.00016998       0.00089992
Cl      11.22994288      33.68982865      30.88234293      -0.00154551       0.00017547      -0.00090326
Na      11.22994288      36.49731437      30.88234293       0.00154386      -0.00017229       0.00090037
Cl      14.03742860      36.49731437      30.88234293      -0.00154529       0.00017240      -0.00090306
Na      14.03742860      39.30480009      30.88234293       0.00154379      -0.00017462       0.00090011
Cl      16.84491433      39.30480009      30.88234293      -0.00154171       0.00016920      -0.00090311
Na      16.84491433      42.11228581      30.88234293       0.00154653      -0.00017016       0.00090016
Cl      19.65240005      42.11228581      30.88234293      -0.00154664       0.00017546      -0.00090287
Na      19.65240005      44.91977153      30.88234293       0.00154334      -0.00017445       0.00089975
Cl      22.45988577      44.91977153      30.88234293      -0.00154444       0.00016941      -0.00090298
Na      22.45988577      47.72725725      30.88234293       0.00154437      -0.00017042       0.00090026
Cl      25.26737149      47.72725725      30.88234293      -0.00154465       0.00017556      -0.00090314
Na      25.26737149      50.53474298      30.88234293       0.00154487      -0.00017479       0.00089998
Cl      28.07485721      50.53474298      30.88234293      -0.00154483       0.00016956      -0.00090303
Na      28.07485721      53.34222870      30.88234293       0.00154478      -0.00017031       0.00089998
Cl      30.88234293      53.34222870      30.88234293      -0.00154624       0.00017582      -0.00090309
Na      30.88234293      56.14971442      30.88234293       0.00154309      -0.00017476       0.00089986
Cl      33.68982865      56.14971442      30.88234293      -0.00154075       0.00016942      -0.00090293
Na      33.68982865      58.95720014      30.88234293       0.00154678      -0.00017010       0.00090001
Cl      36.49731437      58.95720014      30.88234293      -0.00154796       0.00017336      -0.00090193
Na       5.61497144      28.07485721      33.68982865       0.00154657      -0.00017121       0.00090335
Cl       8.42245716      28.07485721      33.68982865      -0.00154297       0.00017268      -0.00089764
Na       8.42245716      30.88234293      33.68982865       0.00154572      -0.00017364       0.00090413
Cl      11.22994288      30.88234293      33.68982865      -0.00154567       0.00017071      -0.00089766
Na      11.22994288      33.68982865      33.68982865       0.00154386      -0.00016985       0.00090415
Cl      14.03742860      33.68982865      33.68982865      -0.00154513       0.00017552      -0.00089767
Na      14.03742860      36.49731437      33.68982865       0.00154355      -0.00017239       0.00090423
Cl      16.84491433      36.49731437      33.68982865      -0.00154173       0.00017253      -0.00089769
Na      16.84491433      39.30480009      33.68982865       0.00154650      -0.00017476       0.00090393
Cl      19.65240005      39.30480009      33.68982865      -0.00154669       0.00016900      -0.00089730
Na      19.65240005      42.11228581      33.68982865       0.00154311      -0.00017001       0.00090393
Cl      22.45988577      42.11228581      33.68982865      -0.00154471       0.00017529      -0.00089754
Na      22.45988577      44.91977153      33.68982865       0.00154472      -0.00017431       0.00090375
Cl      25.26737149      44.91977153      33.68982865      -0.00154482       0.00016930      -0.00089756
Na      25.26737149      47.72725725      33.68982865       0.00154447      -0.00017036       0.00090413
Cl      28.07485721      47.72725725      33.68982865      -0.00154477       0.00017546      -0.00089757
Na      28.07485721      50.53474298      33.68982865       0.00154463      -0.00017462       0.00090378
Cl      30.88234293      50.53474298      33.68982865      -0.00154629       0.00016927      -0.00089746
Na      30.88234293      53.34222870      33.68982865       0.00154318      -0.00017018       0.00090374
Cl      33.68982865      53.34222870      33.68982865      -0.00154070       0.00017545      -0.00089780
Na      33.68982865      56.14971442      33.68982865       0.00154730      -0.00017469       0.00090398
Cl      36.49731437      56.14971442      33.68982865      -0.00154447       0.00016925      -0.00089774
Na      36.49731437      58.95720014      33.68982865       0.00154396      -0.00017051       0.00090437
Cl      39.30480009      58.95720014      33.68982865      -0.00155083       0.00017362      -0.00089676
Na       8.42245716      28.07485721      36.49731437       0.00154848      -0.00017126       0.00090034
Cl      11.22994288      28.07485721      36.49731437      -0.00154551       0.00017245      -0.00090129
Na      11.22994288      30.88234293      36.49731437       0.00154384      -0.00017325       0.00090113
Cl      14.03742860      30.88234293      36.49731437      -0.00154555       0.00017068      -0.00090112
Na      14.03742860      33.68982865      36.49731437       0.00154373      -0.00016989       0.00090124
Cl      16.84491433      33.68982865      36.49731437      -0.00154174       0.00017551      -0.00090137
Na      16.84491433      36.49731437      36.49731437       0.00154644      -0.00017269       0.00090137
Cl      19.65240005      36.49731437      36.49731437      -0.00154645       0.00017264      -0.00090128
Na      19.65240005      39.30480009      36.49731437       0.00154327      -0.00017461       0.00090099
Cl      22.45988577      39.30480009      36.49731437      -0.00154461       0.00016938      -0.00090123
Na      22.45988577      42.11228581      36.49731437       0.00154431      -0.00017011       0.00090111
Cl      25.26737149      42.11228581      36.49731437      -0.00154468       0.00017541      -0.00090123
Na      25.26737149      44.91977153      36.49731437       0.00154485      -0.00017439       0.00090101
Cl      28.07485721      44.91977153      36.49731437      -0.00154468       0.00016918      -0.00090130
Na      28.07485721      47.72725725      36.49731437       0.00154433      -0.00017029       0.00090121
Cl      30.88234293      47.72725725      36.49731437      -0.00154642       0.00017568      -0.00090112
Na      30.88234293      50.53474298      36.49731437       0.00154325      -0.00017459       0.00090114
Cl      33.68982865      50.53474298      36.49731437      -0.00154106       0.00016926      -0.00090115
Na      33.68982865      53.34222870      36.49731437       0.00154742      -0.00017017       0.00090121
Cl      36.49731437      53.34222870      36.49731437      -0.00154433       0.00017572      -0.00090131
Na      36.49731437      56.14971442      36.49731437       0.00154429      -0.00017467       0.00090130
Cl      39.30480009      56.14971442      36.49731437      -0.00154819       0.00016937      -0.00090130
Na      39.30480009      58.95720014      36.49731437       0.00154125      -0.00017039       0.00090154
Cl      42.11228581      58.95720014      36.49731437      -0.00154445       0.00017369      -0.00090022
Na      11.22994288      28.07485721      39.30480009       0.00154703      -0.00017143       0.00089785
Cl      14.03742860      28.07485721      39.30480009      -0.00154506       0.00017245      -0.00090466
Na      14.03742860      30.88234293      39.30480009       0.00154389      -0.00017366       0.00089873
Cl      16.84491433      30.88234293      39.30480009      -0.00154161       0.00017068      -0.00090490
Na      16.84491433      33.68982865      39.30480009       0.00154666      -0.00017004       0.00089838
Cl      19.65240005      33.68982865      39.30480009      -0.00154636       0.00017581      -0.00090493
Na      19.65240005      36.49731437      39.30480009       0.00154307      -0.00017263       0.00089859
Cl      22.45988577      36.49731437      39.30480009      -0.00154455       0.00017250      -0.00090465
Na      22.45988577      39.30480009      39.30480009       0.00154462      -0.00017483       0.00089868
Cl      25.26737149      39.30480009      39.30480009      -0.00154461       0.00016931      -0.00090472
Na      25.26737149      42.11228581      39.30480009       0.00154481      -0.00017012       0.00089862
Cl      28.07485721      42.11228581      39.30480009      -0.00154469       0.00017551      -0.00090496
Na      28.07485721      44.91977153      39.30480009       0.00154471      -0.00017464       0.00089861
Cl      30.88234293      44.91977153      39.30480009      -0.00154634       0.00016916      -0.00090471
Na      30.88234293      47.72725725      39.30480009       0.00154318      -0.00017031       0.00089871
Cl      33.68982865      47.72725725      39.30480009      -0.00154087       0.00017573      -0.00090475
Na      33.68982865      50.53474298      39.30480009       0.00154756      -0.00017480       0.00089844
Cl      36.49731437      50.53474298      39.30480009      -0.00154462       0.00016932      -0.00090494
Na      36.49731437      53.34222870      39.30480009       0.00154458      -0.00017008       0.00089848
Cl      39.30480009      53.34222870      39.30480009      -0.00154805       0.00017571      -0.00090484
Na      39.30480009      56.14971442      39.30480009       0.00154151      -0.00017484       0.00089869
Cl      42.11228581      56.14971442      39.30480009      -0.00154084       0.00016930      -0.00090474
Na      42.11228581      58.95720014      39.30480009       0.00154698      -0.00017073       0.00089896
Cl      44.91977153      58.95720014      39.30480009      -0.00154939       0.00017395      -0.00090402
Na      14.03742860      28.07485721      42.11228581       0.00154526      -0.00017127       0.00090297
Cl      16.84491433      28.07485721      42.11228581      -0.00154212       0.00017244      -0.00089756
Na      16.84491433      30.88234293      42.11228581       0.00154662      -0.00017360       0.00090382
Cl      19.65240005      30.88234293      42.11228581      -0.00154643       0.00017087      -0.00089774
Na      19.65240005      33.68982865      42.11228581       0.00154311      -0.00016995       0.00090380
Cl      22.45988577      33.68982865      42.11228581      -0.00154466       0.00017567      -0.00089771
Na      22.45988577      36.49731437      42.11228581       0.00154436      -0.00017235       0.00090388
Cl      25.26737149      36.49731437      42.11228581      -0.00154459       0.00017240      -0.00089766
Na      25.26737149      39.30480009      42.11228581       0.00154476      -0.00017462       0.00090383
Cl      28.07485721      39.30480009      42.11228581      -0.00154499       0.00016932      -0.00089759
Na      28.07485721      42.11228581      42.11228581       0.00154460      -0.00017025       0.00090385
Cl      30.88234293      42.11228581      42.11228581      -0.00154632       0.00017542      -0.00089759
Na      30.88234293      44.91977153      42.11228581       0.00154338      -0.00017437       0.00090351
Cl      33.68982865      44.91977153      42.11228581      -0.00154118       0.00016923      -0.00089764
Na      33.68982865      47.72725725      42.11228581       0.00154719      -0.00017021       0.00090383
Cl      36.49731437      47.72725725      42.11228581      -0.00154465       0.00017571      -0.00089760
Na      36.49731437      50.53474298      42.11228581       0.00154468      -0.00017466       0.00090368
Cl      39.30480009      50.53474298      42.11228581      -0.00154811       0.00016927      -0.00089772
Na      39.30480009      53.34222870      42.11228581       0.00154153      -0.00017019       0.00090364
Cl      42.11228581      53.34222870      42.11228581      -0.00154078       0.00017562      -0.00089765
Na      42.11228581      56.14971442      42.11228581       0.00154704      -0.00017468       0.00090365
Cl      44.91977153      56.14971442      42.11228581      -0.00154823       0.00016939      -0.00089773
Na      44.91977153      58.95720014      42.11228581       0.00154155      -0.00017018       0.00090347
Cl      47.72725725      58.95720014      42.11228581      -0.00154422       0.00017347      -0.00089661
Na      16.84491433      28.07485721      44.91977153       0.00154895      -0.00017199       0.00089816
Cl      19.65240005      28.07485721      44.91977153      -0.00154605       0.00017289      -0.00090521
Na      19.65240005      30.88234293      44.91977153       0.00154331      -0.00017393       0.00089896
Cl      22.45988577      30.88234293      44.91977153      -0.00154443       0.00017117      -0.00090491
Na      22.45988577      33.68982865      44.91977153       0.00154458      -0.00017029       0.00089883
Cl      25.26737149      33.68982865      44.91977153      -0.00154459       0.00017579      -0.00090515
Na      25.26737149      36.49731437      44.91977153       0.00154458      -0.00017274       0.00089879
Cl      28.07485721      36.49731437      44.91977153      -0.00154457       0.00017240      -0.00090496
Na      28.07485721      39.30480009      44.91977153       0.00154482      -0.00017482       0.00089877
Cl      30.88234293      39.30480009      44.91977153      -0.00154640       0.00016935      -0.00090481
Na      30.88234293      42.11228581      44.91977153       0.00154336      -0.00017035       0.00089861
Cl      33.68982865      42.11228581      44.91977153      -0.00154095       0.00017569      -0.00090473
Na      33.68982865      44.91977153      44.91977153       0.00154775      -0.00017474       0.00089847
Cl      36.49731437      44.91977153      44.91977153      -0.00154459       0.00016920      -0.00090499
Na      36.49731437      47.72725725      44.91977153       0.00154450      -0.00017041       0.00089874
Cl      39.30480009      47.72725725      44.91977153      -0.00154803       0.00017590      -0.00090486
Na      39.30480009      50.53474298      44.91977153       0.00154171      -0.00017487       0.00089859
Cl      42.11228581      50.53474298      44.91977153      -0.00154086       0.00016940      -0.00090459
Na      42.11228581      53.34222870      44.91977153       0.00154732      -0.00017055       0.00089858
Cl      44.91977153      53.34222870      44.91977153      -0.00154828       0.00017579      -0.00090486
Na      44.91977153      56.14971442      44.91977153       0.00154201      -0.00017473       0.00089874
Cl      47.72725725      56.14971442      44.91977153      -0.00154106       0.00016936      -0.00090485
Na      47.72725725      58.95720014      44.91977153       0.00154711      -0.00017084       0.00089907
Cl      50.53474298      58.95720014      44.91977153      -0.00154965       0.00017424      -0.00090419
Na      19.65240005      28.07485721      47.72725725       0.00154583      -0.00017151       0.00090279
Cl      22.45988577      28.07485721      47.72725725      -0.00154484       0.00017214      -0.00089730
Na      22.45988577      30.88234293      47.72725725       0.00154426      -0.00017327       0.00090358
Cl      25.26737149      30.88234293      47.72725725      -0.00154466       0.00017100      -0.00089762
Na      25.26737149      33.68982865      47.72725725       0.00154451      -0.00017016       0.00090398
Cl      28.07485721      33.68982865      47.72725725      -0.00154479       0.00017557      -0.00089772
Na      28.07485721      36.49731437      47.72725725       0.00154448      -0.00017218       0.00090398
Cl      30.88234293      36.49731437      47.72725725      -0.00154638       0.00017248      -0.00089758
Na      30.88234293      39.30480009      47.72725725       0.00154321      -0.00017465       0.00090365
Cl      33.68982865      39.30480009      47.72725725      -0.00154124       0.00016940      -0.00089751
Na      33.68982865      42.11228581      47.72725725       0.00154725      -0.00017017       0.00090367
Cl      36.49731437      42.11228581      47.72725725      -0.00154468       0.00017570      -0.00089742
Na      36.49731437      44.91977153      47.72725725       0.00154465      -0.00017442       0.00090367
Cl      39.30480009      44.91977153      47.72725725      -0.00154806       0.00016918      -0.00089770
Na      39.30480009      47.72725725      47.72725725       0.00154139      -0.00017020       0.00090381
Cl      42.11228581      47.72725725      47.72725725      -0.00154086       0.00017547      -0.00089766
Na      42.11228581      50.53474298      47.72725725       0.00154712      -0.00017454       0.00090362
Cl      44.91977153      50.53474298      47.72725725      -0.00154829       0.00016926      -0.00089762
Na      44.91977153      53.34222870      47.72725725       0.00154182      -0.00017011       0.00090364
Cl      47.72725725      53.34222870      47.72725725      -0.00154083       0.00017552      -0.00089775
Na      47.72725725      56.14971442      47.72725725       0.00154708      -0.00017463       0.00090361
Cl      50.53474298      56.14971442      47.72725725      -0.00154821       0.00016924      -0.00089767
Na      50.53474298      58.95720014      47.72725725       0.00154172      -0.00017017       0.00090351
Cl      53.34222870      58.95720014      47.72725725      -0.00154314       0.00017389      -0.00089678
Na      22.45988577      28.07485721      50.53474298       0.00154538      -0.00017202       0.00089827
Cl      25.26737149      28.07485721      50.53474298      -0.00154463       0.00017236      -0.00090468
Na      25.26737149      30.88234293      50.53474298       0.00154494      -0.00017363       0.00089863
Cl      28.07485721      30.88234293      50.53474298      -0.00154475       0.00017095      -0.00090479
Na      28.07485721      33.68982865      50.53474298       0.00154476      -0.00017017       0.00089859
Cl      30.88234293      33.68982865      50.53474298      -0.00154617       0.00017574      -0.00090481
Na      30.88234293      36.49731437      50.53474298       0.00154307      -0.00017277       0.00089866
Cl      33.68982865      36.49731437      50.53474298      -0.00154082       0.00017255      -0.00090470
Na      33.68982865      39.30480009      50.53474298       0.00154775      -0.00017499       0.00089852
Cl      36.49731437      39.30480009      50.53474298      -0.00154473       0.00016941      -0.00090473
Na      36.49731437      42.11228581      50.53474298       0.00154456      -0.00017040       0.00089839
Cl      39.30480009      42.11228581      50.53474298      -0.00154808       0.00017578      -0.00090472
Na      39.30480009      44.91977153      50.53474298       0.00154182      -0.00017464       0.00089838
Cl      42.11228581      44.91977153      50.53474298      -0.00154096       0.00016927      -0.00090451
Na      42.11228581      47.72725725      50.53474298       0.00154721      -0.00017057       0.00089876
Cl      44.91977153      47.72725725      50.53474298      -0.00154820       0.00017588      -0.00090480
Na      44.91977153      50.53474298      50.53474298       0.00154184      -0.00017478       0.00089851
Cl      47.72725725      50.53474298      50.53474298      -0.00154093       0.00016938      -0.00090448
Na      47.72725725      53.34222870      50.53474298       0.00154736      -0.00017055       0.00089868
Cl      50.53474298      53.34222870      50.53474298      -0.00154826       0.00017587      -0.00090492
Na      50.53474298      56.14971442      50.53474298       0.00154200      -0.00017477       0.00089859
Cl      53.34222870      56.14971442      50.53474298      -0.00154099       0.00016931      -0.00090459
Na      53.34222870      58.95720014      50.53474298       0.00154723      -0.00017058       0.00089869
Cl      56.14971442      58.95720014      50.53474298      -0.00154882       0.00017443      -0.00090404
Na      25.26737149      28.07485721      53.34222870       0.00154606      -0.00017153       0.00090313
Cl      28.07485721      28.07485721      53.34222870      -0.00154510       0.00017204      -0.00089717
Na      28.07485721      30.88234293      53.34222870       0.00154472      -0.00017349       0.00090371
Cl      30.88234293      30.88234293      53.34222870      -0.00154633       0.00017056      -0.00089768
Na      30.88234293      33.68982865      53.34222870       0.00154307      -0.00017010       0.00090377
Cl      33.68982865      33.68982865      53.34222870      -0.00154074       0.00017552      -0.00089781
Na      33.68982865      36.49731437      53.34222870       0.00154733      -0.00017253       0.00090384
Cl      36.49731437      36.49731437      53.34222870      -0.00154467       0.00017229      -0.00089733
Na      36.49731437      39.30480009      53.34222870       0.00154467      -0.00017480       0.00090365
Cl      39.30480009      39.30480009      53.34222870      -0.00154806       0.00016924      -0.00089766
Na      39.30480009      42.11228581      53.34222870       0.00154159      -0.00017030       0.00090386
Cl      42.11228581      42.11228581      53.34222870      -0.00154088       0.00017553      -0.00089756
Na      42.11228581      44.91977153      53.34222870       0.00154738      -0.00017456       0.00090351
Cl      44.91977153      44.91977153      53.34222870      -0.00154823       0.00016907      -0.00089771
Na      44.91977153      47.72725725      53.34222870       0.00154176      -0.00017021       0.00090392
Cl      47.72725725      47.72725725      53.34222870      -0.00154082       0.00017562      -0.00089765
Na      47.72725725      50.53474298      53.34222870       0.00154724      -0.00017476       0.00090361
Cl      50.53474298      50.53474298      53.34222870      -0.00154827       0.00016916      -0.00089767
Na      50.53474298      53.34222870      53.34222870       0.00154188      -0.00017021       0.00090389
Cl      53.34222870      53.34222870      53.34222870      -0.00154094       0.00017556      -0.00089766
Na      53.34222870      56.14971442      53.34222870       0.00154723      -0.00017462       0.00090373
Cl      56.14971442      56.14971442      53.34222870      -0.00154808       0.00016912      -0.00089770
Na      56.14971442      58.95720014      53.34222870       0.00154152      -0.00017017       0.00090380
Cl      58.95720014      58.95720014      53.34222870      -0.00154282       0.00017373      -0.00089698
Na      28.07485721      28.07485721      56.14971442       0.00154536      -0.00017162       0.00089810
Cl      30.88234293      28.07485721      56.14971442      -0.00154646       0.00017241      -0.00090464
Na      30.88234293      30.88234293      56.14971442       0.00154323      -0.00017340       0.00089865
Cl      33.68982865      30.88234293      56.14971442      -0.00154063       0.00017074      -0.00090456
Na      33.68982865      33.68982865      56.14971442       0.00154724      -0.00016997       0.00089861
Cl      36.49731437      33.68982865      56.14971442      -0.00154428       0.00017564      -0.00090474
Na      36.49731437      36.49731437      56.14971442       0.00154429      -0.00017227       0.00089867
Cl      39.30480009      36.49731437      56.14971442      -0.00154793       0.00017239      -0.00090459
Na      39.30480009      39.30480009      56.14971442       0.00154153      -0.00017469       0.00089849
Cl      42.11228581      39.30480009      56.14971442      -0.00154068       0.00016919      -0.00090449
Na      42.11228581      42.11228581      56.14971442       0.00154708      -0.00017032       0.00089866
Cl      44.91977153      42.11228581      56.14971442      -0.00154809       0.00017556      -0.00090471
Na      44.91977153      44.91977153      56.14971442       0.00154195      -0.00017438       0.00089847
Cl      47.72725725      44.91977153      56.14971442      -0.00154095       0.00016923      -0.00090454
Na      47.72725725      47.72725725      56.14971442       0.00154708      -0.00017043       0.00089860
Cl      50.53474298      47.72725725      56.14971442      -0.00154824       0.00017572      -0.00090473
Na      50.53474298      50.53474298      56.14971442       0.00154187      -0.00017468       0.00089859
Cl      53.34222870      50.53474298      56.14971442      -0.00154083       0.00016925      -0.00090452
Na      53.34222870      53.34222870      56.14971442       0.00154717      -0.00017039       0.00089867
Cl      56.14971442      53.34222870      56.14971442      -0.00154810       0.00017572      -0.00090484
Na      56.14971442      56.14971442      56.14971442       0.00154156      -0.00017451       0.00089868
Cl      58.95720014      56.14971442      56.14971442      -0.00154048       0.00016923      -0.00090466
Na      58.95720014      58.95720014      56.14971442       0.00154677      -0.00017039       0.00089874
Cl      61.76468586      58.95720014      56.14971442      -0.00154818       0.00017359      -0.00090357
Na      30.88234293      28.07485721      58.95720014       0.00154549      -0.00017149       0.00090344
Cl      33.68982865      28.07485721      58.95720014      -0.00154224       0.00017355      -0.00090006
Na      33.68982865      30.88234293      58.95720014       0.00154658      -0.00017350       0.00090363
Cl      36.49731437      30.88234293      58.95720014      -0.00154771       0.00017153      -0.00089981
Na      36.49731437      33.68982865      58.95720014       0.00154389      -0.00016909       0.00090336
Cl      39.30480009      33.68982865      58.95720014      -0.00155047       0.00017631      -0.00089961
Na      39.30480009      36.49731437      58.95720014       0.00154073      -0.00017213       0.00090376
Cl      42.11228581      36.49731437      58.95720014      -0.00154429       0.00017338      -0.00089987
Na      42.11228581      39.30480009      58.95720014       0.00154678      -0.00017435       0.00090338
Cl      44.91977153      39.30480009      58.95720014      -0.00154934       0.00016950      -0.00089966
Na      44.91977153      42.11228581      58.95720014       0.00154141      -0.00016996       0.00090387
Cl      47.72725725      42.11228581      58.95720014      -0.00154419       0.00017641      -0.00089965
Na      47.72725725      44.91977153      58.95720014       0.00154700      -0.00017416       0.00090321
Cl      50.53474298      44.91977153      58.95720014      -0.00154955       0.00016950      -0.00089922
Na      50.53474298      47.72725725      58.95720014       0.00154161      -0.00017001       0.00090384
Cl      53.34222870      47.72725725      58.95720014      -0.00154293       0.00017656      -0.00089970
Na      53.34222870      50.53474298      58.95720014       0.00154694      -0.00017475       0.00090346
Cl      56.14971442      50.53474298      58.95720014      -0.00154877       0.00016975      -0.00089938
Na      56.14971442      53.34222870      58.95720014       0.00154139      -0.00016999       0.00090398
Cl      58.95720014      53.34222870      58.95720014      -0.00154262       0.00017660      -0.00089977
Na      58.95720014      56.14971442      58.95720014       0.00154664      -0.00017465       0.00090387
Cl      61.76468586      56.14971442      58.95720014      -0.00154831       0.00017013      -0.00089988
Na      61.76468586      58.95720014      58.95720014       0.00154376      -0.00016997       0.00090369
Cl      64.57217158      58.95720014      58.95720014      -0.00155406       0.00017445      -0.00089877
Na       0.00000000      30.88234293      30.88234293       0.00154953      -0.00017301       0.00090049
Cl       2.80748572      30.88234293      30.88234293      -0.00154478       0.00017120      -0.00090269
Na       2.80748572      33.68982865      30.88234293       0.00154583      -0.00017227       0.00090084
Cl       5.61497144      33.68982865      30.88234293      -0.00154514       0.00017531      -0.00090266
Na       5.61497144      36.49731437      30.88234293       0.00154749      -0.00017603       0.00090070
Cl       8.42245716      36.49731437      30.88234293      -0.00154242       0.00017163      -0.00090276
Na       8.42245716      39.30480009      30.88234293       0.00154940      -0.00017869       0.00090123
Cl      11.22994288      39.30480009      30.88234293      -0.00154561       0.00016903      -0.00090254
Na      11.22994288      42.11228581      30.88234293       0.00154827      -0.00017371       0.00090056
Cl      14.03742860      42.11228581      30.88234293      -0.00154475       0.00017505      -0.00090287
Na      14.03742860      44.91977153      30.88234293       0.00154633      -0.00017681       0.00090119
Cl      16.84491433      44.91977153      30.88234293      -0.00154244       0.00016932      -0.00090227
Na      16.84491433      47.72725725      30.88234293       0.00154970      -0.00017302       0.00090038
Cl      19.65240005      47.72725725      30.88234293      -0.00154541       0.00017473      -0.00090264
Na      19.65240005      50.53474298      30.88234293       0.00154637      -0.00017706       0.00090131
Cl      22.45988577      50.53474298      30.88234293      -0.00154482       0.00016971      -0.00090257
Na      22.45988577      53.34222870      30.88234293       0.00154585      -0.00017175       0.00090039
Cl      25.26737149      53.34222870      30.88234293      -0.00154435       0.00017528      -0.00090261
Na      25.26737149      56.14971442      30.88234293       0.00154658      -0.00017576       0.00090115
Cl      28.07485721      56.14971442      30.88234293      -0.00154492       0.00016940      -0.00090266
Na      28.07485721      58.95720014      30.88234293       0.00154567      -0.00017222       0.00090100
Cl      30.88234293      58.95720014      30.88234293      -0.00154593       0.00017524      -0.00090256
Na      30.88234293      61.76468586      30.88234293       0.00154619      -0.00017586       0.00090086
Cl      33.68982865      61.76468586      30.88234293      -0.00154198       0.00016816      -0.00090129
Na       2.80748572      30.88234293      33.68982865       0.00154589      -0.00017257       0.00090128
Cl       5.61497144      30.88234293      33.68982865      -0.00154520       0.00017098      -0.00089785
Na       5.61497144      33.68982865      33.68982865       0.00154490      -0.00017166       0.00090205
Cl       8.42245716      33.68982865      33.68982865      -0.00154314       0.00017532      -0.00089804
Na       8.42245716      36.49731437      33.68982865       0.00154690      -0.00017525       0.00090186
Cl      11.22994288      36.49731437      33.68982865      -0.00154518       0.00017177      -0.00089818
Na      11.22994288      39.30480009      33.68982865       0.00154484      -0.00017748       0.00090186
Cl      14.03742860      39.30480009      33.68982865      -0.00154501       0.00016909      -0.00089784
Na      14.03742860      42.11228581      33.68982865       0.00154484      -0.00017286       0.00090148
Cl      16.84491433      42.11228581      33.68982865      -0.00154124       0.00017498      -0.00089816
Na      16.84491433      44.91977153      33.68982865       0.00154763      -0.00017615       0.00090184
Cl      19.65240005      44.91977153      33.68982865      -0.00154684       0.00016921      -0.00089750
Na      19.65240005      47.72725725      33.68982865       0.00154450      -0.00017243       0.00090152
Cl      22.45988577      47.72725725      33.68982865      -0.00154423       0.00017461      -0.00089828
Na      22.45988577      50.53474298      33.68982865       0.00154492      -0.00017628       0.00090195
Cl      25.26737149      50.53474298      33.68982865      -0.00154465       0.00016960      -0.00089762
Na      25.26737149      53.34222870      33.68982865       0.00154563      -0.00017155       0.00090171
Cl      28.07485721      53.34222870      33.68982865      -0.00154464       0.00017513      -0.00089783
Na      28.07485721      56.14971442      33.68982865       0.00154528      -0.00017522       0.00090219
Cl      30.88234293      56.14971442      33.68982865      -0.00154640       0.00016945      -0.00089776
Na      30.88234293      58.95720014      33.68982865       0.00154379      -0.00017169       0.00090200
Cl      33.68982865      58.95720014      33.68982865      -0.00154051       0.00017521      -0.00089814
Na      33.68982865      61.76468586      33.68982865       0.00154759      -0.00017523       0.00090206
Cl      36.49731437      61.76468586      33.68982865      -0.00154759       0.00016831      -0.00089667
Na       5.61497144      30.88234293      36.49731437       0.00154769      -0.00017246       0.00089729
Cl       8.42245716      30.88234293      36.49731437      -0.00154244       0.00017102      -0.00090178
Na       8.42245716      33.68982865      36.49731437       0.00154672      -0.00017198       0.00089784
Cl      11.22994288      33.68982865      36.49731437      -0.00154505       0.00017498      -0.00090182
Na      11.22994288      36.49731437      36.49731437       0.00154500      -0.00017558       0.00089761
Cl      14.03742860      36.49731437      36.49731437      -0.00154467       0.00017174      -0.00090206
Na      14.03742860      39.30480009      36.49731437       0.00154485      -0.00017758       0.00089791
Cl      16.84491433      39.30480009      36.49731437      -0.00154140       0.00016894      -0.00090166
Na      16.84491433      42.11228581      36.49731437       0.00154794      -0.00017310       0.00089747
Cl      19.65240005      42.11228581      36.49731437      -0.00154568       0.00017454      -0.00090178
Na      19.65240005      44.91977153      36.49731437       0.00154447      -0.00017624       0.00089753
Cl      22.45988577      44.91977153      36.49731437      -0.00154442       0.00016906      -0.00090129
Na      22.45988577      47.72725725      36.49731437       0.00154589      -0.00017268       0.00089758
Cl      25.26737149      47.72725725      36.49731437      -0.00154393       0.00017461      -0.00090199
Na      25.26737149      50.53474298      36.49731437       0.00154532      -0.00017633       0.00089789
Cl      28.07485721      50.53474298      36.49731437      -0.00154433       0.00016933      -0.00090145
Na      28.07485721      53.34222870      36.49731437       0.00154572      -0.00017188       0.00089770
Cl      30.88234293      53.34222870      36.49731437      -0.00154602       0.00017498      -0.00090159
Na      30.88234293      56.14971442      36.49731437       0.00154414      -0.00017560       0.00089798
Cl      33.68982865      56.14971442      36.49731437      -0.00154073       0.00016909      -0.00090132
Na      33.68982865      58.95720014      36.49731437       0.00154830      -0.00017212       0.00089809
Cl      36.49731437      58.95720014      36.49731437      -0.00154381       0.00017531      -0.00090195
Na      36.49731437      61.76468586      36.49731437       0.00154492      -0.00017615       0.00089849
Cl      39.30480009      61.76468586      36.49731437      -0.00155035       0.00016807      -0.00090128
Na       8.42245716      30.88234293      39.30480009       0.00154966      -0.00017248       0.00089471
Cl      11.22994288      30.88234293      39.30480009      -0.00154556       0.00017125      -0.00090487
Na      11.22994288      33.68982865      39.30480009       0.00154507      -0.00017178       0.00089569
Cl      14.03742860      33.68982865      39.30480009      -0.00154532       0.00017556      -0.00090496
Na      14.03742860      36.49731437      39.30480009       0.00154495      -0.00017557       0.00089546
Cl      16.84491433      36.49731437      39.30480009      -0.00154145       0.00017223      -0.00090503
Na      16.84491433      39.30480009      39.30480009       0.00154779      -0.00017789       0.00089572
Cl      19.65240005      39.30480009      39.30480009      -0.00154672       0.00016953      -0.00090482
Na      19.65240005      42.11228581      39.30480009       0.00154465      -0.00017311       0.00089502
Cl      22.45988577      42.11228581      39.30480009      -0.00154440       0.00017514      -0.00090495
Na      22.45988577      44.91977153      39.30480009       0.00154570      -0.00017602       0.00089583
Cl      25.26737149      44.91977153      39.30480009      -0.00154501       0.00016953      -0.00090441
Na      25.26737149      47.72725725      39.30480009       0.00154585      -0.00017306       0.00089536
Cl      28.07485721      47.72725725      39.30480009      -0.00154437       0.00017515      -0.00090523
Na      28.07485721      50.53474298      39.30480009       0.00154559      -0.00017640       0.00089610
Cl      30.88234293      50.53474298      39.30480009      -0.00154662       0.00016986      -0.00090440
Na      30.88234293      53.34222870      39.30480009       0.00154436      -0.00017181       0.00089559
Cl      33.68982865      53.34222870      39.30480009      -0.00154076       0.00017546      -0.00090480
Na      33.68982865      56.14971442      39.30480009       0.00154816      -0.00017562       0.00089560
Cl      36.49731437      56.14971442      39.30480009      -0.00154485       0.00016945      -0.00090453
Na      36.49731437      58.95720014      39.30480009       0.00154564      -0.00017208       0.00089558
Cl      39.30480009      58.95720014      39.30480009      -0.00154797       0.00017559      -0.00090493
Na      39.30480009      61.76468586      39.30480009       0.00154224      -0.00017577       0.00089605
Cl      42.11228581      61.76468586      39.30480009      -0.00154435       0.00016847      -0.00090386
Na      11.22994288      30.88234293      42.11228581       0.00154829      -0.00017268       0.00090002
Cl      14.03742860      30.88234293      42.11228581      -0.00154480       0.00017088      -0.00089817
Na      14.03742860      33.68982865      42.11228581       0.00154498      -0.00017236       0.00090065
Cl      16.84491433      33.68982865      42.11228581      -0.00154142       0.00017518      -0.00089812
Na      16.84491433      36.49731437      42.11228581       0.00154805      -0.00017576       0.00090047
Cl      19.65240005      36.49731437      42.11228581      -0.00154593       0.00017166      -0.00089844
Na      19.65240005      39.30480009      42.11228581       0.00154473      -0.00017798       0.00090040
Cl      22.45988577      39.30480009      42.11228581      -0.00154446       0.00016892      -0.00089809
Na      22.45988577      42.11228581      42.11228581       0.00154610      -0.00017353       0.00090008
Cl      25.26737149      42.11228581      42.11228581      -0.00154430       0.00017473      -0.00089830
Na      25.26737149      44.91977153      42.11228581       0.00154595      -0.00017641       0.00090035
Cl      28.07485721      44.91977153      42.11228581      -0.00154483       0.00016915      -0.00089775
Na      28.07485721      47.72725725      42.11228581       0.00154601      -0.00017315       0.00090014
Cl      30.88234293      47.72725725      42.11228581      -0.00154569       0.00017474      -0.00089851
Na      30.88234293      50.53474298      42.11228581       0.00154435      -0.00017658       0.00090029
Cl      33.68982865      50.53474298      42.11228581      -0.00154100       0.00016922      -0.00089765
Na      33.68982865      53.34222870      42.11228581       0.00154888      -0.00017214       0.00090034
Cl      36.49731437      53.34222870      42.11228581      -0.00154419       0.00017524      -0.00089806
Na      36.49731437      56.14971442      42.11228581       0.00154580      -0.00017604       0.00090062
Cl      39.30480009      56.14971442      42.11228581      -0.00154791       0.00016913      -0.00089818
Na      39.30480009      58.95720014      42.11228581       0.00154279      -0.00017217       0.00090046
Cl      42.11228581      58.95720014      42.11228581      -0.00154055       0.00017511      -0.00089821
Na      42.11228581      61.76468586      42.11228581       0.00154821      -0.00017625       0.00090111
Cl      44.91977153      61.76468586      42.11228581      -0.00154892       0.00016845      -0.00089759
Na      14.03742860      30.88234293      44.91977153       0.00154600      -0.00017243       0.00089638
Cl      16.84491433      30.88234293      44.91977153      -0.00154230       0.00017134      -0.00090460
Na      16.84491433      33.68982865      44.91977153       0.00154746      -0.00017169       0.00089711
Cl      19.65240005      33.68982865      44.91977153      -0.00154655       0.00017575      -0.00090488
Na      19.65240005      36.49731437      44.91977153       0.00154431      -0.00017563       0.00089712
Cl      22.45988577      36.49731437      44.91977153      -0.00154452       0.00017219      -0.00090489
Na      22.45988577      39.30480009      44.91977153       0.00154572      -0.00017748       0.00089737
Cl      25.26737149      39.30480009      44.91977153      -0.00154503       0.00016972      -0.00090470
Na      25.26737149      42.11228581      44.91977153       0.00154599      -0.00017327       0.00089682
Cl      28.07485721      42.11228581      44.91977153      -0.00154472       0.00017552      -0.00090493
Na      28.07485721      44.91977153      44.91977153       0.00154566      -0.00017615       0.00089709
Cl      30.88234293      44.91977153      44.91977153      -0.00154687       0.00016975      -0.00090400
Na      30.88234293      47.72725725      44.91977153       0.00154445      -0.00017304       0.00089696
Cl      33.68982865      47.72725725      44.91977153      -0.00154084       0.00017543      -0.00090492
Na      33.68982865      50.53474298      44.91977153       0.00154831      -0.00017646       0.00089728
Cl      36.49731437      50.53474298      44.91977153      -0.00154505       0.00017003      -0.00090437
Na      36.49731437      53.34222870      44.91977153       0.00154571      -0.00017169       0.00089704
Cl      39.30480009      53.34222870      44.91977153      -0.00154822       0.00017580      -0.00090441
Na      39.30480009      56.14971442      44.91977153       0.00154238      -0.00017560       0.00089755
Cl      42.11228581      56.14971442      44.91977153      -0.00154141       0.00016975      -0.00090433
Na      42.11228581      58.95720014      44.91977153       0.00154791      -0.00017162       0.00089751
Cl      44.91977153      58.95720014      44.91977153      -0.00154820       0.00017579      -0.00090457
Na      44.91977153      61.76468586      44.91977153       0.00154225      -0.00017562       0.00089746
Cl      47.72725725      61.76468586      44.91977153      -0.00154435       0.00016872      -0.00090359
Na      16.84491433      30.88234293      47.72725725       0.00154977      -0.00017296       0.00090043
Cl      19.65240005      30.88234293      47.72725725      -0.00154555       0.00017129      -0.00089859
Na      19.65240005      33.68982865      47.72725725       0.00154421      -0.00017205       0.00090111
Cl      22.45988577      33.68982865      47.72725725      -0.00154416       0.00017513      -0.00089843
Na      22.45988577      36.49731437      47.72725725       0.00154581      -0.00017577       0.00090066
Cl      25.26737149      36.49731437      47.72725725      -0.00154408       0.00017163      -0.00089850
Na      25.26737149      39.30480009      47.72725725       0.00154599      -0.00017776       0.00090088
Cl      28.07485721      39.30480009      47.72725725      -0.00154446       0.00016877      -0.00089811
Na      28.07485721      42.11228581      47.72725725       0.00154592      -0.00017343       0.00090042
Cl      30.88234293      42.11228581      47.72725725      -0.00154570       0.00017487      -0.00089854
Na      30.88234293      44.91977153      47.72725725       0.00154439      -0.00017618       0.00090057
Cl      33.68982865      44.91977153      47.72725725      -0.00154095       0.00016885      -0.00089776
Na      33.68982865      47.72725725      47.72725725       0.00154883      -0.00017299       0.00090065
Cl      36.49731437      47.72725725      47.72725725      -0.00154380       0.00017467      -0.00089842
Na      36.49731437      50.53474298      47.72725725       0.00154574      -0.00017651       0.00090105
Cl      39.30480009      50.53474298      47.72725725      -0.00154791       0.00016915      -0.00089807
Na      39.30480009      53.34222870      47.72725725       0.00154289      -0.00017182       0.00090066
Cl      42.11228581      53.34222870      47.72725725      -0.00154059       0.00017505      -0.00089819
Na      42.11228581      56.14971442      47.72725725       0.00154813      -0.00017565       0.00090127
Cl      44.91977153      56.14971442      47.72725725      -0.00154798       0.00016896      -0.00089826
Na      44.91977153      58.95720014      47.72725725       0.00154282      -0.00017181       0.00090092
Cl      47.72725725      58.95720014      47.72725725      -0.00154042       0.00017507      -0.00089826
Na      47.72725725      61.76468586      47.72725725       0.00154792      -0.00017613       0.00090152
Cl      50.53474298      61.76468586      47.72725725      -0.00154894       0.00016859      -0.00089795
Na      19.65240005      30.88234293      50.53474298       0.00154642      -0.00017227       0.00089612
Cl      22.45988577      30.88234293      50.53474298      -0.00154487       0.00017104      -0.00090417
Na      22.45988577      33.68982865      50.53474298       0.00154521      -0.00017143       0.00089708
Cl      25.26737149      33.68982865      50.53474298      -0.00154480       0.00017566      -0.00090470
Na      25.26737149      36.49731437      50.53474298       0.00154549      -0.00017534       0.00089684
Cl      28.07485721      36.49731437      50.53474298      -0.00154449       0.00017211      -0.00090479
Na      28.07485721      39.30480009      50.53474298       0.00154556      -0.00017732       0.00089701
Cl      30.88234293      39.30480009      50.53474298      -0.00154657       0.00016963      -0.00090451
Na      30.88234293      42.11228581      50.53474298       0.00154416      -0.00017305       0.00089679
Cl      33.68982865      42.11228581      50.53474298      -0.00154081       0.00017541      -0.00090452
Na      33.68982865      44.91977153      50.53474298       0.00154825      -0.00017591       0.00089699
Cl      36.49731437      44.91977153      50.53474298      -0.00154510       0.00016965      -0.00090401
Na      36.49731437      47.72725725      50.53474298       0.00154567      -0.00017284       0.00089645
Cl      39.30480009      47.72725725      50.53474298      -0.00154787       0.00017532      -0.00090478
Na      39.30480009      50.53474298      50.53474298       0.00154213      -0.00017628       0.00089716
Cl      42.11228581      50.53474298      50.53474298      -0.00154112       0.00017000      -0.00090406
Na      42.11228581      53.34222870      50.53474298       0.00154787      -0.00017147       0.00089695
Cl      44.91977153      53.34222870      50.53474298      -0.00154820       0.00017562      -0.00090451
Na      44.91977153      56.14971442      50.53474298       0.00154227      -0.00017531       0.00089740
Cl      47.72725725      56.14971442      50.53474298      -0.00154124       0.00016969      -0.00090414
Na      47.72725725      58.95720014      50.53474298       0.00154772      -0.00017148       0.00089715
Cl      50.53474298      58.95720014      50.53474298      -0.00154824       0.00017575      -0.00090461
Na      50.53474298      61.76468586      50.53474298       0.00154231      -0.00017541       0.00089733
Cl      53.34222870      61.76468586      50.53474298      -0.00154298       0.00016905      -0.00090358
Na      22.45988577      30.88234293      53.34222870       0.00154615      -0.00017293       0.00090175
Cl      25.26737149      30.88234293      53.34222870      -0.00154431       0.00017105      -0.00089796
Na      25.26737149      33.68982865      53.34222870       0.00154562      -0.00017203       0.00090217
Cl      28.07485721      33.68982865      53.34222870      -0.00154451       0.00017529      -0.00089789
Na      28.07485721      36.49731437      53.34222870       0.00154590      -0.00017557       0.00090194
Cl      30.88234293      36.49731437      53.34222870      -0.00154591       0.00017213      -0.00089834
Na      30.88234293      39.30480009      53.34222870       0.00154426      -0.00017765       0.00090189
Cl      33.68982865      39.30480009      53.34222870      -0.00154096       0.00016930      -0.00089768
Na      33.68982865      42.11228581      53.34222870       0.00154879      -0.00017322       0.00090173
Cl      36.49731437      42.11228581      53.34222870      -0.00154428       0.00017514      -0.00089792
Na      36.49731437      44.91977153      53.34222870       0.00154585      -0.00017622       0.00090209
Cl      39.30480009      44.91977153      53.34222870      -0.00154847       0.00016924      -0.00089753
Na      39.30480009      47.72725725      53.34222870       0.00154298      -0.00017254       0.00090165
Cl      42.11228581      47.72725725      53.34222870      -0.00154056       0.00017478      -0.00089832
Na      42.11228581      50.53474298      53.34222870       0.00154809      -0.00017627       0.00090224
Cl      44.91977153      50.53474298      53.34222870      -0.00154835       0.00016948      -0.00089769
Na      44.91977153      53.34222870      53.34222870       0.00154292      -0.00017171       0.00090184
Cl      47.72725725      53.34222870      53.34222870      -0.00154080       0.00017535      -0.00089800
Na      47.72725725      56.14971442      53.34222870       0.00154796      -0.00017549       0.00090241
Cl      50.53474298      56.14971442      53.34222870      -0.00154838       0.00016918      -0.00089781
Na      50.53474298      58.95720014      53.34222870       0.00154265      -0.00017162       0.00090221
Cl      53.34222870      58.95720014      53.34222870      -0.00154074       0.00017527      -0.00089802
Na      53.34222870      61.76468586      53.34222870       0.00154809      -0.00017555       0.00090245
Cl      56.14971442      61.76468586      53.34222870      -0.00154858       0.00016878      -0.00089757
Na      25.26737149      30.88234293      56.14971442       0.00154650      -0.00017233       0.00089731
Cl      28.07485721      30.88234293      56.14971442      -0.00154486       0.00017105      -0.00090451
Na      28.07485721      33.68982865      56.14971442       0.00154523      -0.00017150       0.00089782
Cl      30.88234293      33.68982865      56.14971442      -0.00154629       0.00017537      -0.00090469
Na      30.88234293      36.49731437      56.14971442       0.00154404      -0.00017515       0.00089778
Cl      33.68982865      36.49731437      56.14971442      -0.00154057       0.00017209      -0.00090501
Na      33.68982865      39.30480009      56.14971442       0.00154815      -0.00017745       0.00089784
Cl      36.49731437      39.30480009      56.14971442      -0.00154467       0.00016947      -0.00090460
Na      36.49731437      42.11228581      56.14971442       0.00154548      -0.00017300       0.00089732
Cl      39.30480009      42.11228581      56.14971442      -0.00154777       0.00017526      -0.00090500
Na      39.30480009      44.91977153      56.14971442       0.00154235      -0.00017592       0.00089772
Cl      42.11228581      44.91977153      56.14971442      -0.00154131       0.00016952      -0.00090402
Na      42.11228581      47.72725725      56.14971442       0.00154830      -0.00017242       0.00089771
Cl      44.91977153      47.72725725      56.14971442      -0.00154783       0.00017518      -0.00090496
Na      44.91977153      50.53474298      56.14971442       0.00154234      -0.00017611       0.00089779
Cl      47.72725725      50.53474298      56.14971442      -0.00154113       0.00016974      -0.00090424
Na      47.72725725      53.34222870      56.14971442       0.00154806      -0.00017154       0.00089769
Cl      50.53474298      53.34222870      56.14971442      -0.00154819       0.00017570      -0.00090484
Na      50.53474298      56.14971442      56.14971442       0.00154214      -0.00017528       0.00089810
Cl      53.34222870      56.14971442      56.14971442      -0.00154110       0.00016946      -0.00090444
Na      53.34222870      58.95720014      56.14971442       0.00154783      -0.00017146       0.00089794
Cl      56.14971442      58.95720014      56.14971442      -0.00154791       0.00017548      -0.00090488
Na      56.14971442      61.76468586      56.14971442       0.00154192      -0.00017527       0.00089789
Cl      58.95720014      61.76468586      56.14971442      -0.00154261       0.00016886      -0.00090395
Na      28.07485721      30.88234293      58.95720014       0.00154591      -0.00017260       0.00090143
Cl      30.88234293      30.88234293      58.95720014      -0.00154609       0.00017108      -0.00089813
Na      30.88234293      33.68982865      58.95720014       0.00154404      -0.00017177       0.00090202
Cl      33.68982865      33.68982865      58.95720014      -0.00154057       0.00017505      -0.00089803
Na      33.68982865      36.49731437      58.95720014       0.00154822      -0.00017506       0.00090195
Cl      36.49731437      36.49731437      58.95720014      -0.00154379       0.00017157      -0.00089826
Na      36.49731437      39.30480009      58.95720014       0.00154551      -0.00017756       0.00090185
Cl      39.30480009      39.30480009      58.95720014      -0.00154790       0.00016902      -0.00089779
Na      39.30480009      42.11228581      58.95720014       0.00154264      -0.00017287       0.00090155
Cl      42.11228581      42.11228581      58.95720014      -0.00154028       0.00017489      -0.00089822
Na      42.11228581      44.91977153      58.95720014       0.00154805      -0.00017578       0.00090197
Cl      44.91977153      44.91977153      58.95720014      -0.00154826       0.00016912      -0.00089746
Na      44.91977153      47.72725725      58.95720014       0.00154280      -0.00017242       0.00090160
Cl      47.72725725      47.72725725      58.95720014      -0.00154038       0.00017465      -0.00089817
Na      47.72725725      50.53474298      58.95720014       0.00154798      -0.00017591       0.00090218
Cl      50.53474298      50.53474298      58.95720014      -0.00154814       0.00016919      -0.00089755
Na      50.53474298      53.34222870      58.95720014       0.00154262      -0.00017155       0.00090192
Cl      53.34222870      53.34222870      58.95720014      -0.00154056       0.00017521      -0.00089820
Na      53.34222870      56.14971442      58.95720014       0.00154779      -0.00017533       0.00090239
Cl      56.14971442      56.14971442      58.95720014      -0.00154792       0.00016900      -0.00089792
Na      56.14971442      58.95720014      58.95720014       0.00154224      -0.00017162       0.00090209
Cl      58.95720014      58.95720014      58.95720014      -0.00154039       0.00017525      -0.00089820
Na      58.95720014      61.76468586      58.95720014       0.00154752      -0.00017535       0.00090252
Cl      61.76468586      61.76468586      58.95720014      -0.00154785       0.00016830      -0.00089696
Na      30.88234293      30.88234293      61.76468586       0.00154614      -0.00017251       0.00089730
Cl      33.68982865      30.88234293      61.76468586      -0.00154191       0.00017224      -0.00090569
Na      33.68982865      33.68982865      61.76468586       0.00154755      -0.00017160       0.00089799
Cl      36.49731437      33.68982865      61.76468586      -0.00154745       0.00017624      -0.00090565
Na      36.49731437      36.49731437      61.76468586       0.00154498      -0.00017485       0.00089728
Cl      39.30480009      36.49731437      61.76468586      -0.00155020       0.00017255      -0.00090571
Na      39.30480009      39.30480009      61.76468586       0.00154210      -0.00017736       0.00089760
Cl      42.11228581      39.30480009      61.76468586      -0.00154409       0.00017015      -0.00090544
Na      42.11228581      42.11228581      61.76468586       0.00154809      -0.00017236       0.00089735
Cl      44.91977153      42.11228581      61.76468586      -0.00154875       0.00017567      -0.00090527
Na      44.91977153      44.91977153      61.76468586       0.00154235      -0.00017597       0.00089768
Cl      47.72725725      44.91977153      61.76468586      -0.00154415       0.00017028      -0.00090525
Na      47.72725725      47.72725725      61.76468586       0.00154783      -0.00017206       0.00089731
Cl      50.53474298      47.72725725      61.76468586      -0.00154893       0.00017537      -0.00090528
Na      50.53474298      50.53474298      61.76468586       0.00154222      -0.00017606       0.00089779
Cl      53.34222870      50.53474298      61.76468586      -0.00154308       0.00017028      -0.00090488
Na      53.34222870      53.34222870      61.76468586       0.00154800      -0.00017135       0.00089777
Cl      56.14971442      53.34222870      61.76468586      -0.00154821       0.00017556      -0.00090489
Na      56.14971442      56.14971442      61.76468586       0.00154193      -0.00017523       0.00089800
Cl      58.95720014      56.14971442      61.76468586      -0.00154269       0.00016991      -0.00090517
Na      58.95720014      58.95720014      61.76468586       0.00154735      -0.00017149       0.00089818
Cl      61.76468586      58.95720014      61.76468586      -0.00154761       0.00017615      -0.00090572
Na      61.76468586      61.76468586      61.76468586       0.00154451      -0.00017521       0.00089800
Cl      64.57217158      61.76468586      61.76468586      -0.00155395       0.00016920      -0.00090454
