128
Lattice="4.719805306571097e-18 11.22994288344669 11.22994288344669 11.22994288344669 -1.7291413326955308e-17 11.22994288344669 11.22994288344669 11.22994288344669 -8.968510958929107e-18" Properties=species:S:1:pos:R:3:forces:R:3 energy=-439.65264892578125 stress="6.174155231519762e-08 -1.0592034982437326e-06 -3.298424599051941e-05 -1.0592034982437326e-06 -7.744971526335576e-07 -2.567061710578855e-05 -3.298424599051941e-05 -2.567061710578855e-05 -7.190886663011042e-06" pbc="T T T"
Na       0.00000000       0.00000000       0.00000000       0.00165784       0.00049997      -0.00370558
Cl       2.80748572       0.00000000       0.00000000      -0.00150505       0.00018016       0.06394005
Na       2.80748572       2.80748572      -0.00000000       0.00085720      -0.00030402      -0.00368031
Cl       5.61497144       2.80748572      -0.00000000      -0.00104859       0.00067960       0.00049219
Na       5.61497144       5.61497144      -0.00000000       0.00073568      -0.00017386       0.00179061
Cl       8.42245716       5.61497144      -0.00000000      -0.00154354       0.00016981      -0.00196780
Na       8.42245716       8.42245716      -0.00000000       0.00154349       0.00063413       0.00179060
Cl      11.22994288       8.42245716      -0.00000000      -0.00203692      -0.00032377       0.00049041
Na       2.80748572      -0.00000000       2.80748572       0.00156096      -0.00015667      -0.01370335
Cl       5.61497144       0.00000000       2.80748572      -0.00667565       0.00070688      -0.00360540
Na       5.61497144       2.80748572       2.80748572       0.00253895       0.00082455       0.00105993
Cl       8.42245716       2.80748572       2.80748572      -0.00206838       0.00036340      -0.00135421
Na       8.42245716       5.61497144       2.80748572       0.00154587      -0.00017193       0.00181903
Cl      11.22994288       5.61497144       2.80748572      -0.00173740       0.00069626      -0.00135525
Na      11.22994288       8.42245716       2.80748572       0.00053161      -0.00116675       0.00106573
Cl      14.03742860       8.42245716       2.80748572      -0.00206282       0.00527447      -0.00359547
Na       5.61497144      -0.00000000       5.61497144       0.00234633      -0.00017048       0.00178061
Cl       8.42245716       0.00000000       5.61497144      -0.00269860       0.00017662      -0.00107014
Na       8.42245716       2.80748572       5.61497144       0.00221025      -0.00017269       0.00138856
Cl      11.22994288       2.80748572       5.61497144      -0.00206897       0.00070159      -0.00149648
Na      11.22994288       5.61497144       5.61497144       0.00154336      -0.00083565       0.00138704
Cl      14.03742860       5.61497144       5.61497144      -0.00155115       0.00132631      -0.00107721
Na      14.03742860       8.42245716       5.61497144       0.00154359      -0.00097033       0.00178683
Cl      16.84491433       8.42245716       5.61497144      -0.00204577       0.00067805       0.00048840
Na       8.42245716      -0.00000000       8.42245716       0.00298179       0.00125362       0.00081530
Cl      11.22994288       0.00000000       8.42245716      -0.00686792      -0.00036297      -0.00366407
Na      11.22994288       2.80748572       8.42245716       0.00255847      -0.00118808       0.00104629
Cl      14.03742860       2.80748572       8.42245716      -0.00102553       0.00547017      -0.00365603
Na      14.03742860       5.61497144       8.42245716       0.00011822      -0.00160336       0.00081324
Cl      16.84491433       5.61497144       8.42245716       0.00357243       0.00071671      -0.00360067
Na      16.84491433       8.42245716       8.42245716       0.00053707       0.00082911       0.00106272
Cl      19.65240005       8.42245716       8.42245716      -0.00204704      -0.00498147      -0.00362109
Na       0.00000000       2.80748572       2.80748572      -0.00095099       0.00231012       0.00056745
Cl       2.80748572       2.80748572       2.80748572      -0.00099262      -0.00498476      -0.00362250
Na       2.80748572       5.61497144       2.80748572       0.00010743       0.00125299       0.00082095
Cl       5.61497144       5.61497144       2.80748572      -0.00136080      -0.00036049      -0.00135501
Na       5.61497144       8.42245716       2.80748572       0.00107536       0.00029409       0.00154480
Cl       8.42245716       8.42245716       2.80748572      -0.00101600      -0.00001464      -0.00135734
Na       8.42245716      11.22994288       2.80748572       0.00012147       0.00126350       0.00081291
Cl      11.22994288      11.22994288       2.80748572       0.00357498      -0.00033892      -0.00359960
Na       2.80748572       2.80748572       5.61497144       0.00154201       0.00063799       0.00179116
Cl       5.61497144       2.80748572       5.61497144      -0.00207013      -0.00035778      -0.00150756
Na       5.61497144       5.61497144       5.61497144       0.00153832       0.00049134       0.00139119
Cl       8.42245716       5.61497144       5.61497144      -0.00154334       0.00017210      -0.00138847
Na       8.42245716       8.42245716       5.61497144       0.00087947      -0.00016973       0.00138951
Cl      11.22994288       8.42245716       5.61497144      -0.00101897       0.00069961      -0.00150621
Na      11.22994288      11.22994288       5.61497144       0.00073642      -0.00017014       0.00179041
Cl      14.03742860      11.22994288       5.61497144      -0.00154579       0.00016902      -0.00196784
Na       5.61497144       2.80748572       8.42245716       0.00201212       0.00029603       0.00154441
Cl       8.42245716       2.80748572       8.42245716      -0.00207012      -0.00001608      -0.00134550
Na       8.42245716       5.61497144       8.42245716       0.00154407      -0.00017342       0.00180455
Cl      11.22994288       5.61497144       8.42245716      -0.00135596       0.00069978      -0.00134535
Na      11.22994288       8.42245716       8.42245716       0.00107461      -0.00063857       0.00154478
Cl      14.03742860       8.42245716       8.42245716      -0.00101704       0.00036154      -0.00135407
Na      14.03742860      11.22994288       8.42245716       0.00154557      -0.00017100       0.00181784
Cl      16.84491433      11.22994288       8.42245716      -0.00173181      -0.00036046      -0.00135272
Na       8.42245716       2.80748572      11.22994288       0.00154628       0.00062458       0.00180103
Cl      11.22994288       2.80748572      11.22994288      -0.00099028      -0.00037121       0.00049479
Na      11.22994288       5.61497144      11.22994288       0.00074599      -0.00017421       0.00179615
Cl      14.03742860       5.61497144      11.22994288      -0.00039269       0.00017651      -0.00107429
Na      14.03742860       8.42245716      11.22994288       0.00087960      -0.00017411       0.00139172
Cl      16.84491433       8.42245716      11.22994288      -0.00101485      -0.00035899      -0.00150972
Na      16.84491433      11.22994288      11.22994288       0.00155013       0.00049130       0.00138722
Cl      19.65240005      11.22994288      11.22994288      -0.00154946      -0.00098929      -0.00108331
Na       0.00000000       5.61497144       5.61497144       0.00144031       0.00049154      -0.00365737
Cl       2.80748572       5.61497144       5.61497144      -0.00153592      -0.00098970      -0.00108297
Na       2.80748572       8.42245716       5.61497144       0.00154215       0.00061988       0.00179983
Cl       5.61497144       8.42245716       5.61497144      -0.00101753      -0.00034929      -0.00149975
Na       5.61497144      11.22994288       5.61497144       0.00074769      -0.00017722       0.00179533
Cl       8.42245716      11.22994288       5.61497144      -0.00039154       0.00017193      -0.00107434
Na       8.42245716      14.03742860       5.61497144       0.00088631      -0.00008846      -0.00368178
Cl      11.22994288      14.03742860       5.61497144      -0.00104246      -0.00033475       0.00048510
Na       2.80748572       5.61497144       8.42245716       0.00296583       0.00126298       0.00080675
Cl       5.61497144       5.61497144       8.42245716      -0.00172220      -0.00035514      -0.00134292
Na       5.61497144       8.42245716       8.42245716       0.00052536       0.00084353       0.00104829
Cl       8.42245716       8.42245716       8.42245716      -0.00101882       0.00035542      -0.00134445
Na       8.42245716      11.22994288       8.42245716       0.00010781      -0.00159050       0.00081513
Cl      11.22994288      11.22994288       8.42245716      -0.00136420       0.00069647      -0.00135468
Na      11.22994288      14.03742860       8.42245716       0.00254823      -0.00117506       0.00106184
Cl      14.03742860      14.03742860       8.42245716      -0.00206971      -0.00001617      -0.00135538
Na       5.61497144       5.61497144      11.22994288       0.00234570      -0.00017600       0.00178714
Cl       8.42245716       5.61497144      11.22994288      -0.00154164       0.00017368      -0.00196566
Na       8.42245716       8.42245716      11.22994288       0.00154666      -0.00096460       0.00178401
Cl      11.22994288       8.42245716      11.22994288      -0.00102273       0.00069990      -0.00149665
Na      11.22994288      11.22994288      11.22994288       0.00153959      -0.00083819       0.00138880
Cl      14.03742860      11.22994288      11.22994288      -0.00154673       0.00016969      -0.00138850
Na      14.03742860      14.03742860      11.22994288       0.00221356      -0.00017022       0.00138317
Cl      16.84491433      14.03742860      11.22994288      -0.00207042      -0.00035287      -0.00149819
Na       8.42245716       5.61497144      14.03742860       0.00156391      -0.00014408      -0.01714813
Cl      11.22994288       5.61497144      14.03742860       0.00372388      -0.00035326      -0.00365930
Na      11.22994288       8.42245716      14.03742860       0.00054379      -0.00118469       0.00104328
Cl      14.03742860       8.42245716      14.03742860      -0.00101798      -0.00001405      -0.00134693
Na      14.03742860      11.22994288      14.03742860       0.00154407      -0.00017563       0.00180229
Cl      16.84491433      11.22994288      14.03742860      -0.00135621      -0.00035341      -0.00134473
Na      16.84491433      14.03742860      14.03742860       0.00257207       0.00083822       0.00104165
Cl      19.65240005      14.03742860      14.03742860      -0.00103042      -0.00513639      -0.00368048
Na       0.00000000       8.42245716       8.42245716       0.00403375       0.00230304       0.00055848
Cl       2.80748572       8.42245716       8.42245716      -0.00208268      -0.00513288      -0.00367840
Na       2.80748572      11.22994288       8.42245716       0.00156133      -0.00014366      -0.01714639
Cl       5.61497144      11.22994288       8.42245716       0.00372168       0.00070518      -0.00366021
Na       5.61497144      14.03742860       8.42245716      -0.00093963      -0.00264827       0.00056650
Cl       8.42245716      14.03742860       8.42245716      -0.00101213       0.00527506      -0.00359474
Na       8.42245716      16.84491433       8.42245716       0.00156330      -0.00015528      -0.01370439
Cl      11.22994288      16.84491433       8.42245716      -0.00668016      -0.00034262      -0.00360277
Na       2.80748572       8.42245716      11.22994288       0.00221417      -0.00008590      -0.00368367
Cl       5.61497144       8.42245716      11.22994288      -0.00209300       0.00072746       0.00049930
Na       5.61497144      11.22994288      11.22994288       0.00143511      -0.00083505      -0.00365703
Cl       8.42245716      11.22994288      11.22994288      -0.00153835       0.00132651      -0.00107640
Na       8.42245716      14.03742860      11.22994288       0.00154143      -0.00097664       0.00178730
Cl      11.22994288      14.03742860      11.22994288      -0.00207727       0.00069825      -0.00150510
Na      11.22994288      16.84491433      11.22994288       0.00235015      -0.00017069       0.00178034
Cl      14.03742860      16.84491433      11.22994288      -0.00269788       0.00017421      -0.00106984
Na       5.61497144       8.42245716      14.03742860       0.00402850      -0.00265526       0.00056311
Cl       8.42245716       8.42245716      14.03742860      -0.00208057       0.00547053      -0.00365577
Na       8.42245716      11.22994288      14.03742860       0.00296455      -0.00160259       0.00080577
Cl      11.22994288      11.22994288      14.03742860      -0.00172880       0.00070236      -0.00134627
Na      11.22994288      14.03742860      14.03742860       0.00201086      -0.00063849       0.00154344
Cl      14.03742860      14.03742860      14.03742860      -0.00207432       0.00035727      -0.00134475
Na      14.03742860      16.84491433      14.03742860       0.00297931      -0.00158629       0.00080824
Cl      16.84491433      16.84491433      14.03742860      -0.00686789       0.00069725      -0.00366574
Na       8.42245716       8.42245716      16.84491433       0.00219319      -0.00030331      -0.00368303
Cl      11.22994288       8.42245716      16.84491433      -0.00210420      -0.00037109       0.00050345
Na      11.22994288      11.22994288      16.84491433       0.00234682      -0.00017922       0.00178946
Cl      14.03742860      11.22994288      16.84491433      -0.00153947       0.00017522      -0.00196314
Na      14.03742860      14.03742860      16.84491433       0.00154507      -0.00097014       0.00178663
Cl      16.84491433      14.03742860      16.84491433      -0.00098576       0.00073235       0.00050452
Na      16.84491433      16.84491433      16.84491433       0.00166086      -0.00082673      -0.00370569
Cl      19.65240005      16.84491433      16.84491433      -0.00150903       0.00017982       0.06394063
