250
Lattice="0.0 8.915 8.915 8.915 0.0 8.915 8.915 8.915 0.0" Properties=species:S:1:pos:R:3:energies:R:1:forces:R:3 energy=-1842.6283666292384 free_energy=-1842.6283666292384 stress="0.0008345699336908152 7.692738846737143e-16 -4.1583391740850247e-16 7.692738846737143e-16 0.0008345699336918791 1.021449955104929e-15 -4.1583391740850247e-16 1.021449955104929e-15 0.000834569933690894" pbc="T T T"
C        0.00000000       0.00000000       0.00000000      -7.37051347      -0.00000000       0.00000000       0.00000000
C        0.89150000       0.89150000       0.89150000      -7.37051347      -0.00000000       0.00000000       0.00000000
C        1.78300000       1.78300000       0.00000000      -7.37051347      -0.00000000       0.00000000       0.00000000
C        2.67450000       2.67450000       0.89150000      -7.37051347      -0.00000000       0.00000000      -0.00000000
C        3.56600000       3.56600000       0.00000000      -7.37051347      -0.00000000       0.00000000       0.00000000
C        4.45750000       4.45750000       0.89150000      -7.37051347       0.00000000       0.00000000      -0.00000000
C        5.34900000       5.34900000       0.00000000      -7.37051347      -0.00000000      -0.00000000      -0.00000000
C        6.24050000       6.24050000       0.89150000      -7.37051347       0.00000000      -0.00000000       0.00000000
C        7.13200000       7.13200000       0.00000000      -7.37051347      -0.00000000       0.00000000      -0.00000000
C        8.02350000       8.02350000       0.89150000      -7.37051347      -0.00000000      -0.00000000      -0.00000000
C        1.78300000       0.00000000       1.78300000      -7.37051347       0.00000000       0.00000000       0.00000000
C        2.67450000       0.89150000       2.67450000      -7.37051347      -0.00000000       0.00000000       0.00000000
C        3.56600000       1.78300000       1.78300000      -7.37051347       0.00000000       0.00000000       0.00000000
C        4.45750000       2.67450000       2.67450000      -7.37051347      -0.00000000       0.00000000      -0.00000000
C        5.34900000       3.56600000       1.78300000      -7.37051347       0.00000000      -0.00000000      -0.00000000
C        6.24050000       4.45750000       2.67450000      -7.37051347       0.00000000       0.00000000      -0.00000000
C        7.13200000       5.34900000       1.78300000      -7.37051347       0.00000000      -0.00000000       0.00000000
C        8.02350000       6.24050000       2.67450000      -7.37051347       0.00000000       0.00000000      -0.00000000
C        8.91500000       7.13200000       1.78300000      -7.37051347       0.00000000       0.00000000      -0.00000000
C        9.80650000       8.02350000       2.67450000      -7.37051347       0.00000000      -0.00000000      -0.00000000
C        3.56600000       0.00000000       3.56600000      -7.37051347      -0.00000000       0.00000000       0.00000000
C        4.45750000       0.89150000       4.45750000      -7.37051347      -0.00000000      -0.00000000       0.00000000
C        5.34900000       1.78300000       3.56600000      -7.37051347      -0.00000000       0.00000000       0.00000000
C        6.24050000       2.67450000       4.45750000      -7.37051347       0.00000000       0.00000000       0.00000000
C        7.13200000       3.56600000       3.56600000      -7.37051347      -0.00000000       0.00000000       0.00000000
C        8.02350000       4.45750000       4.45750000      -7.37051347      -0.00000000       0.00000000      -0.00000000
C        8.91500000       5.34900000       3.56600000      -7.37051347      -0.00000000       0.00000000       0.00000000
C        9.80650000       6.24050000       4.45750000      -7.37051347      -0.00000000      -0.00000000       0.00000000
C       10.69800000       7.13200000       3.56600000      -7.37051347      -0.00000000       0.00000000       0.00000000
C       11.58950000       8.02350000       4.45750000      -7.37051347       0.00000000      -0.00000000       0.00000000
C        5.34900000       0.00000000       5.34900000      -7.37051347       0.00000000      -0.00000000      -0.00000000
C        6.24050000       0.89150000       6.24050000      -7.37051347       0.00000000       0.00000000       0.00000000
C        7.13200000       1.78300000       5.34900000      -7.37051347       0.00000000      -0.00000000      -0.00000000
C        8.02350000       2.67450000       6.24050000      -7.37051347      -0.00000000      -0.00000000       0.00000000
C        8.91500000       3.56600000       5.34900000      -7.37051347       0.00000000      -0.00000000      -0.00000000
C        9.80650000       4.45750000       6.24050000      -7.37051347       0.00000000       0.00000000       0.00000000
C       10.69800000       5.34900000       5.34900000      -7.37051347      -0.00000000      -0.00000000      -0.00000000
C       11.58950000       6.24050000       6.24050000      -7.37051347      -0.00000000       0.00000000       0.00000000
C       12.48100000       7.13200000       5.34900000      -7.37051347       0.00000000       0.00000000       0.00000000
C       13.37250000       8.02350000       6.24050000      -7.37051347      -0.00000000      -0.00000000      -0.00000000
C        7.13200000       0.00000000       7.13200000      -7.37051347      -0.00000000       0.00000000       0.00000000
C        8.02350000       0.89150000       8.02350000      -7.37051347      -0.00000000       0.00000000       0.00000000
C        8.91500000       1.78300000       7.13200000      -7.37051347       0.00000000      -0.00000000      -0.00000000
C        9.80650000       2.67450000       8.02350000      -7.37051347       0.00000000       0.00000000       0.00000000
C       10.69800000       3.56600000       7.13200000      -7.37051347      -0.00000000       0.00000000       0.00000000
C       11.58950000       4.45750000       8.02350000      -7.37051347       0.00000000       0.00000000      -0.00000000
C       12.48100000       5.34900000       7.13200000      -7.37051347       0.00000000      -0.00000000      -0.00000000
C       13.37250000       6.24050000       8.02350000      -7.37051347       0.00000000      -0.00000000       0.00000000
C       14.26400000       7.13200000       7.13200000      -7.37051347      -0.00000000       0.00000000       0.00000000
C       15.15550000       8.02350000       8.02350000      -7.37051347       0.00000000      -0.00000000       0.00000000
C        0.00000000       1.78300000       1.78300000      -7.37051347       0.00000000      -0.00000000      -0.00000000
C        0.89150000       2.67450000       2.67450000      -7.37051347       0.00000000       0.00000000       0.00000000
C        1.78300000       3.56600000       1.78300000      -7.37051347       0.00000000      -0.00000000      -0.00000000
C        2.67450000       4.45750000       2.67450000      -7.37051347      -0.00000000       0.00000000       0.00000000
C        3.56600000       5.34900000       1.78300000      -7.37051347      -0.00000000      -0.00000000       0.00000000
C        4.45750000       6.24050000       2.67450000      -7.37051347      -0.00000000       0.00000000      -0.00000000
C        5.34900000       7.13200000       1.78300000      -7.37051347       0.00000000       0.00000000       0.00000000
C        6.24050000       8.02350000       2.67450000      -7.37051347      -0.00000000      -0.00000000      -0.00000000
C        7.13200000       8.91500000       1.78300000      -7.37051347      -0.00000000       0.00000000      -0.00000000
C        8.02350000       9.80650000       2.67450000      -7.37051347      -0.00000000       0.00000000      -0.00000000
C        1.78300000       1.78300000       3.56600000      -7.37051347      -0.00000000      -0.00000000      -0.00000000
C        2.67450000       2.67450000       4.45750000      -7.37051347      -0.00000000       0.00000000       0.00000000
C        3.56600000       3.56600000       3.56600000      -7.37051347       0.00000000       0.00000000       0.00000000
C        4.45750000       4.45750000       4.45750000      -7.37051347       0.00000000       0.00000000       0.00000000
C        5.34900000       5.34900000       3.56600000      -7.37051347      -0.00000000      -0.00000000       0.00000000
C        6.24050000       6.24050000       4.45750000      -7.37051347       0.00000000      -0.00000000      -0.00000000
C        7.13200000       7.13200000       3.56600000      -7.37051347       0.00000000      -0.00000000       0.00000000
C        8.02350000       8.02350000       4.45750000      -7.37051347      -0.00000000      -0.00000000       0.00000000
C        8.91500000       8.91500000       3.56600000      -7.37051347       0.00000000       0.00000000      -0.00000000
C        9.80650000       9.80650000       4.45750000      -7.37051347       0.00000000       0.00000000       0.00000000
C        3.56600000       1.78300000       5.34900000      -7.37051347      -0.00000000      -0.00000000      -0.00000000
C        4.45750000       2.67450000       6.24050000      -7.37051347      -0.00000000      -0.00000000      -0.00000000
C        5.34900000       3.56600000       5.34900000      -7.37051347      -0.00000000       0.00000000      -0.00000000
C        6.24050000       4.45750000       6.24050000      -7.37051347       0.00000000       0.00000000       0.00000000
C        7.13200000       5.34900000       5.34900000      -7.37051347       0.00000000       0.00000000       0.00000000
C        8.02350000       6.24050000       6.24050000      -7.37051347      -0.00000000       0.00000000      -0.00000000
C        8.91500000       7.13200000       5.34900000      -7.37051347       0.00000000       0.00000000      -0.00000000
C        9.80650000       8.02350000       6.24050000      -7.37051347      -0.00000000      -0.00000000      -0.00000000
C       10.69800000       8.91500000       5.34900000      -7.37051347       0.00000000      -0.00000000      -0.00000000
C       11.58950000       9.80650000       6.24050000      -7.37051347       0.00000000      -0.00000000      -0.00000000
C        5.34900000       1.78300000       7.13200000      -7.37051347      -0.00000000       0.00000000       0.00000000
C        6.24050000       2.67450000       8.02350000      -7.37051347      -0.00000000       0.00000000       0.00000000
C        7.13200000       3.56600000       7.13200000      -7.37051347      -0.00000000       0.00000000       0.00000000
C        8.02350000       4.45750000       8.02350000      -7.37051347      -0.00000000       0.00000000      -0.00000000
C        8.91500000       5.34900000       7.13200000      -7.37051347       0.00000000      -0.00000000       0.00000000
C        9.80650000       6.24050000       8.02350000      -7.37051347       0.00000000      -0.00000000      -0.00000000
C       10.69800000       7.13200000       7.13200000      -7.37051347      -0.00000000       0.00000000       0.00000000
C       11.58950000       8.02350000       8.02350000      -7.37051347      -0.00000000      -0.00000000       0.00000000
C       12.48100000       8.91500000       7.13200000      -7.37051347       0.00000000       0.00000000       0.00000000
C       13.37250000       9.80650000       8.02350000      -7.37051347      -0.00000000       0.00000000      -0.00000000
C        7.13200000       1.78300000       8.91500000      -7.37051347      -0.00000000      -0.00000000       0.00000000
C        8.02350000       2.67450000       9.80650000      -7.37051347      -0.00000000       0.00000000       0.00000000
C        8.91500000       3.56600000       8.91500000      -7.37051347       0.00000000      -0.00000000       0.00000000
C        9.80650000       4.45750000       9.80650000      -7.37051347       0.00000000       0.00000000      -0.00000000
C       10.69800000       5.34900000       8.91500000      -7.37051347      -0.00000000       0.00000000       0.00000000
C       11.58950000       6.24050000       9.80650000      -7.37051347       0.00000000       0.00000000       0.00000000
C       12.48100000       7.13200000       8.91500000      -7.37051347       0.00000000       0.00000000       0.00000000
C       13.37250000       8.02350000       9.80650000      -7.37051347      -0.00000000      -0.00000000       0.00000000
C       14.26400000       8.91500000       8.91500000      -7.37051347       0.00000000       0.00000000       0.00000000
C       15.15550000       9.80650000       9.80650000      -7.37051347       0.00000000      -0.00000000      -0.00000000
C        0.00000000       3.56600000       3.56600000      -7.37051347      -0.00000000      -0.00000000      -0.00000000
C        0.89150000       4.45750000       4.45750000      -7.37051347       0.00000000       0.00000000       0.00000000
C        1.78300000       5.34900000       3.56600000      -7.37051347       0.00000000      -0.00000000      -0.00000000
C        2.67450000       6.24050000       4.45750000      -7.37051347       0.00000000       0.00000000       0.00000000
C        3.56600000       7.13200000       3.56600000      -7.37051347      -0.00000000       0.00000000      -0.00000000
C        4.45750000       8.02350000       4.45750000      -7.37051347      -0.00000000       0.00000000       0.00000000
C        5.34900000       8.91500000       3.56600000      -7.37051347      -0.00000000      -0.00000000      -0.00000000
C        6.24050000       9.80650000       4.45750000      -7.37051347       0.00000000       0.00000000       0.00000000
C        7.13200000      10.69800000       3.56600000      -7.37051347       0.00000000      -0.00000000       0.00000000
C        8.02350000      11.58950000       4.45750000      -7.37051347      -0.00000000       0.00000000       0.00000000
C        1.78300000       3.56600000       5.34900000      -7.37051347       0.00000000       0.00000000      -0.00000000
C        2.67450000       4.45750000       6.24050000      -7.37051347      -0.00000000       0.00000000      -0.00000000
C        3.56600000       5.34900000       5.34900000      -7.37051347       0.00000000      -0.00000000       0.00000000
C        4.45750000       6.24050000       6.24050000      -7.37051347      -0.00000000      -0.00000000      -0.00000000
C        5.34900000       7.13200000       5.34900000      -7.37051347       0.00000000       0.00000000       0.00000000
C        6.24050000       8.02350000       6.24050000      -7.37051347      -0.00000000      -0.00000000      -0.00000000
C        7.13200000       8.91500000       5.34900000      -7.37051347       0.00000000       0.00000000      -0.00000000
C        8.02350000       9.80650000       6.24050000      -7.37051347      -0.00000000       0.00000000      -0.00000000
C        8.91500000      10.69800000       5.34900000      -7.37051347       0.00000000      -0.00000000      -0.00000000
C        9.80650000      11.58950000       6.24050000      -7.37051347       0.00000000      -0.00000000      -0.00000000
C        3.56600000       3.56600000       7.13200000      -7.37051347       0.00000000       0.00000000       0.00000000
C        4.45750000       4.45750000       8.02350000      -7.37051347      -0.00000000       0.00000000      -0.00000000
C        5.34900000       5.34900000       7.13200000      -7.37051347      -0.00000000      -0.00000000      -0.00000000
C        6.24050000       6.24050000       8.02350000      -7.37051347       0.00000000      -0.00000000      -0.00000000
C        7.13200000       7.13200000       7.13200000      -7.37051347      -0.00000000       0.00000000       0.00000000
C        8.02350000       8.02350000       8.02350000      -7.37051347      -0.00000000      -0.00000000       0.00000000
C        8.91500000       8.91500000       7.13200000      -7.37051347       0.00000000       0.00000000       0.00000000
C        9.80650000       9.80650000       8.02350000      -7.37051347       0.00000000       0.00000000       0.00000000
C       10.69800000      10.69800000       7.13200000      -7.37051347      -0.00000000       0.00000000       0.00000000
C       11.58950000      11.58950000       8.02350000      -7.37051347       0.00000000      -0.00000000      -0.00000000
C        5.34900000       3.56600000       8.91500000      -7.37051347       0.00000000      -0.00000000       0.00000000
C        6.24050000       4.45750000       9.80650000      -7.37051347      -0.00000000       0.00000000       0.00000000
C        7.13200000       5.34900000       8.91500000      -7.37051347      -0.00000000      -0.00000000       0.00000000
C        8.02350000       6.24050000       9.80650000      -7.37051347      -0.00000000       0.00000000       0.00000000
C        8.91500000       7.13200000       8.91500000      -7.37051347       0.00000000       0.00000000      -0.00000000
C        9.80650000       8.02350000       9.80650000      -7.37051347       0.00000000      -0.00000000       0.00000000
C       10.69800000       8.91500000       8.91500000      -7.37051347       0.00000000       0.00000000      -0.00000000
C       11.58950000       9.80650000       9.80650000      -7.37051347      -0.00000000      -0.00000000      -0.00000000
C       12.48100000      10.69800000       8.91500000      -7.37051347       0.00000000      -0.00000000      -0.00000000
C       13.37250000      11.58950000       9.80650000      -7.37051347      -0.00000000       0.00000000       0.00000000
C        7.13200000       3.56600000      10.69800000      -7.37051347       0.00000000      -0.00000000      -0.00000000
C        8.02350000       4.45750000      11.58950000      -7.37051347       0.00000000      -0.00000000      -0.00000000
C        8.91500000       5.34900000      10.69800000      -7.37051347       0.00000000      -0.00000000       0.00000000
C        9.80650000       6.24050000      11.58950000      -7.37051347      -0.00000000      -0.00000000      -0.00000000
C       10.69800000       7.13200000      10.69800000      -7.37051347      -0.00000000       0.00000000      -0.00000000
C       11.58950000       8.02350000      11.58950000      -7.37051347      -0.00000000      -0.00000000      -0.00000000
C       12.48100000       8.91500000      10.69800000      -7.37051347      -0.00000000       0.00000000      -0.00000000
C       13.37250000       9.80650000      11.58950000      -7.37051347       0.00000000       0.00000000      -0.00000000
C       14.26400000      10.69800000      10.69800000      -7.37051347       0.00000000       0.00000000       0.00000000
C       15.15550000      11.58950000      11.58950000      -7.37051347      -0.00000000      -0.00000000      -0.00000000
C        0.00000000       5.34900000       5.34900000      -7.37051347      -0.00000000       0.00000000      -0.00000000
C        0.89150000       6.24050000       6.24050000      -7.37051347       0.00000000       0.00000000      -0.00000000
C        1.78300000       7.13200000       5.34900000      -7.37051347      -0.00000000       0.00000000       0.00000000
C        2.67450000       8.02350000       6.24050000      -7.37051347       0.00000000      -0.00000000      -0.00000000
C        3.56600000       8.91500000       5.34900000      -7.37051347       0.00000000      -0.00000000      -0.00000000
C        4.45750000       9.80650000       6.24050000      -7.37051347       0.00000000       0.00000000      -0.00000000
C        5.34900000      10.69800000       5.34900000      -7.37051347      -0.00000000      -0.00000000      -0.00000000
C        6.24050000      11.58950000       6.24050000      -7.37051347       0.00000000      -0.00000000       0.00000000
C        7.13200000      12.48100000       5.34900000      -7.37051347      -0.00000000       0.00000000      -0.00000000
C        8.02350000      13.37250000       6.24050000      -7.37051347      -0.00000000       0.00000000       0.00000000
C        1.78300000       5.34900000       7.13200000      -7.37051347      -0.00000000      -0.00000000      -0.00000000
C        2.67450000       6.24050000       8.02350000      -7.37051347       0.00000000      -0.00000000      -0.00000000
C        3.56600000       7.13200000       7.13200000      -7.37051347       0.00000000       0.00000000       0.00000000
C        4.45750000       8.02350000       8.02350000      -7.37051347      -0.00000000      -0.00000000      -0.00000000
C        5.34900000       8.91500000       7.13200000      -7.37051347       0.00000000       0.00000000       0.00000000
C        6.24050000       9.80650000       8.02350000      -7.37051347       0.00000000       0.00000000      -0.00000000
C        7.13200000      10.69800000       7.13200000      -7.37051347      -0.00000000      -0.00000000       0.00000000
C        8.02350000      11.58950000       8.02350000      -7.37051347      -0.00000000      -0.00000000      -0.00000000
C        8.91500000      12.48100000       7.13200000      -7.37051347       0.00000000      -0.00000000       0.00000000
C        9.80650000      13.37250000       8.02350000      -7.37051347       0.00000000      -0.00000000       0.00000000
C        3.56600000       5.34900000       8.91500000      -7.37051347      -0.00000000      -0.00000000      -0.00000000
C        4.45750000       6.24050000       9.80650000      -7.37051347      -0.00000000       0.00000000       0.00000000
C        5.34900000       7.13200000       8.91500000      -7.37051347      -0.00000000       0.00000000       0.00000000
C        6.24050000       8.02350000       9.80650000      -7.37051347       0.00000000      -0.00000000       0.00000000
C        7.13200000       8.91500000       8.91500000      -7.37051347       0.00000000      -0.00000000       0.00000000
C        8.02350000       9.80650000       9.80650000      -7.37051347       0.00000000      -0.00000000      -0.00000000
C        8.91500000      10.69800000       8.91500000      -7.37051347       0.00000000      -0.00000000      -0.00000000
C        9.80650000      11.58950000       9.80650000      -7.37051347       0.00000000      -0.00000000       0.00000000
C       10.69800000      12.48100000       8.91500000      -7.37051347      -0.00000000       0.00000000      -0.00000000
C       11.58950000      13.37250000       9.80650000      -7.37051347       0.00000000       0.00000000       0.00000000
C        5.34900000       5.34900000      10.69800000      -7.37051347       0.00000000      -0.00000000      -0.00000000
C        6.24050000       6.24050000      11.58950000      -7.37051347      -0.00000000       0.00000000      -0.00000000
C        7.13200000       7.13200000      10.69800000      -7.37051347       0.00000000       0.00000000      -0.00000000
C        8.02350000       8.02350000      11.58950000      -7.37051347      -0.00000000      -0.00000000      -0.00000000
C        8.91500000       8.91500000      10.69800000      -7.37051347      -0.00000000      -0.00000000      -0.00000000
C        9.80650000       9.80650000      11.58950000      -7.37051347       0.00000000       0.00000000       0.00000000
C       10.69800000      10.69800000      10.69800000      -7.37051347      -0.00000000       0.00000000       0.00000000
C       11.58950000      11.58950000      11.58950000      -7.37051347      -0.00000000      -0.00000000      -0.00000000
C       12.48100000      12.48100000      10.69800000      -7.37051347       0.00000000      -0.00000000      -0.00000000
C       13.37250000      13.37250000      11.58950000      -7.37051347      -0.00000000       0.00000000       0.00000000
C        7.13200000       5.34900000      12.48100000      -7.37051347      -0.00000000      -0.00000000       0.00000000
C        8.02350000       6.24050000      13.37250000      -7.37051347       0.00000000       0.00000000       0.00000000
C        8.91500000       7.13200000      12.48100000      -7.37051347       0.00000000      -0.00000000      -0.00000000
C        9.80650000       8.02350000      13.37250000      -7.37051347      -0.00000000       0.00000000       0.00000000
C       10.69800000       8.91500000      12.48100000      -7.37051347      -0.00000000       0.00000000      -0.00000000
C       11.58950000       9.80650000      13.37250000      -7.37051347      -0.00000000       0.00000000       0.00000000
C       12.48100000      10.69800000      12.48100000      -7.37051347       0.00000000       0.00000000       0.00000000
C       13.37250000      11.58950000      13.37250000      -7.37051347      -0.00000000      -0.00000000       0.00000000
C       14.26400000      12.48100000      12.48100000      -7.37051347       0.00000000      -0.00000000       0.00000000
C       15.15550000      13.37250000      13.37250000      -7.37051347       0.00000000       0.00000000       0.00000000
C        0.00000000       7.13200000       7.13200000      -7.37051347      -0.00000000       0.00000000       0.00000000
C        0.89150000       8.02350000       8.02350000      -7.37051347       0.00000000      -0.00000000       0.00000000
C        1.78300000       8.91500000       7.13200000      -7.37051347      -0.00000000       0.00000000       0.00000000
C        2.67450000       9.80650000       8.02350000      -7.37051347       0.00000000      -0.00000000      -0.00000000
C        3.56600000      10.69800000       7.13200000      -7.37051347       0.00000000       0.00000000       0.00000000
C        4.45750000      11.58950000       8.02350000      -7.37051347      -0.00000000      -0.00000000      -0.00000000
C        5.34900000      12.48100000       7.13200000      -7.37051347      -0.00000000       0.00000000       0.00000000
C        6.24050000      13.37250000       8.02350000      -7.37051347       0.00000000       0.00000000       0.00000000
C        7.13200000      14.26400000       7.13200000      -7.37051347      -0.00000000       0.00000000      -0.00000000
C        8.02350000      15.15550000       8.02350000      -7.37051347      -0.00000000       0.00000000       0.00000000
C        1.78300000       7.13200000       8.91500000      -7.37051347       0.00000000       0.00000000      -0.00000000
C        2.67450000       8.02350000       9.80650000      -7.37051347      -0.00000000       0.00000000       0.00000000
C        3.56600000       8.91500000       8.91500000      -7.37051347       0.00000000       0.00000000       0.00000000
C        4.45750000       9.80650000       9.80650000      -7.37051347       0.00000000       0.00000000      -0.00000000
C        5.34900000      10.69800000       8.91500000      -7.37051347      -0.00000000      -0.00000000      -0.00000000
C        6.24050000      11.58950000       9.80650000      -7.37051347       0.00000000       0.00000000       0.00000000
C        7.13200000      12.48100000       8.91500000      -7.37051347       0.00000000       0.00000000      -0.00000000
C        8.02350000      13.37250000       9.80650000      -7.37051347      -0.00000000       0.00000000       0.00000000
C        8.91500000      14.26400000       8.91500000      -7.37051347       0.00000000       0.00000000       0.00000000
C        9.80650000      15.15550000       9.80650000      -7.37051347      -0.00000000      -0.00000000       0.00000000
C        3.56600000       7.13200000      10.69800000      -7.37051347       0.00000000      -0.00000000      -0.00000000
C        4.45750000       8.02350000      11.58950000      -7.37051347      -0.00000000       0.00000000      -0.00000000
C        5.34900000       8.91500000      10.69800000      -7.37051347      -0.00000000      -0.00000000      -0.00000000
C        6.24050000       9.80650000      11.58950000      -7.37051347       0.00000000       0.00000000      -0.00000000
C        7.13200000      10.69800000      10.69800000      -7.37051347       0.00000000       0.00000000       0.00000000
C        8.02350000      11.58950000      11.58950000      -7.37051347       0.00000000      -0.00000000      -0.00000000
C        8.91500000      12.48100000      10.69800000      -7.37051347       0.00000000      -0.00000000      -0.00000000
C        9.80650000      13.37250000      11.58950000      -7.37051347       0.00000000      -0.00000000      -0.00000000
C       10.69800000      14.26400000      10.69800000      -7.37051347      -0.00000000       0.00000000      -0.00000000
C       11.58950000      15.15550000      11.58950000      -7.37051347       0.00000000      -0.00000000      -0.00000000
C        5.34900000       7.13200000      12.48100000      -7.37051347      -0.00000000      -0.00000000      -0.00000000
C        6.24050000       8.02350000      13.37250000      -7.37051347       0.00000000       0.00000000       0.00000000
C        7.13200000       8.91500000      12.48100000      -7.37051347      -0.00000000       0.00000000      -0.00000000
C        8.02350000       9.80650000      13.37250000      -7.37051347       0.00000000       0.00000000       0.00000000
C        8.91500000      10.69800000      12.48100000      -7.37051347       0.00000000       0.00000000       0.00000000
C        9.80650000      11.58950000      13.37250000      -7.37051347      -0.00000000      -0.00000000      -0.00000000
C       10.69800000      12.48100000      12.48100000      -7.37051347       0.00000000       0.00000000       0.00000000
C       11.58950000      13.37250000      13.37250000      -7.37051347      -0.00000000      -0.00000000      -0.00000000
C       12.48100000      14.26400000      12.48100000      -7.37051347       0.00000000       0.00000000       0.00000000
C       13.37250000      15.15550000      13.37250000      -7.37051347      -0.00000000      -0.00000000      -0.00000000
C        7.13200000       7.13200000      14.26400000      -7.37051347       0.00000000      -0.00000000       0.00000000
C        8.02350000       8.02350000      15.15550000      -7.37051347       0.00000000      -0.00000000      -0.00000000
C        8.91500000       8.91500000      14.26400000      -7.37051347       0.00000000       0.00000000      -0.00000000
C        9.80650000       9.80650000      15.15550000      -7.37051347      -0.00000000       0.00000000       0.00000000
C       10.69800000      10.69800000      14.26400000      -7.37051347       0.00000000      -0.00000000      -0.00000000
C       11.58950000      11.58950000      15.15550000      -7.37051347       0.00000000      -0.00000000      -0.00000000
C       12.48100000      12.48100000      14.26400000      -7.37051347       0.00000000       0.00000000       0.00000000
C       13.37250000      13.37250000      15.15550000      -7.37051347      -0.00000000       0.00000000       0.00000000
C       14.26400000      14.26400000      14.26400000      -7.37051347       0.00000000       0.00000000       0.00000000
C       15.15550000      15.15550000      15.15550000      -7.37051347       0.00000000      -0.00000000      -0.00000000
