250
Lattice="0.0 8.915 8.915 8.915 0.0 8.915 8.915 8.915 0.0" Properties=species:S:1:pos:R:3:energies:R:1:forces:R:3 energy=-1842.6283660214035 free_energy=-1842.6283660214035 stress="0.000834569516518819 -1.5030548697364908e-06 -6.724315830667008e-16 -1.5030548697364908e-06 0.0008345695165194583 6.495894730097507e-16 -6.724315830667008e-16 6.495894730097507e-16 0.0008345688489659235" pbc="T T T"
C        0.00000000       0.00000000       0.00000000      -7.37057143      -0.00029873      -0.00029873      -0.00135684
C        0.89150000       0.89150000       0.89150000      -7.37051333      -0.00000000       0.00000000       0.00607834
C        1.78300000       1.78300000       0.00000000      -7.37057143       0.00029873       0.00029873      -0.00135684
C        2.67450000       2.67450000       0.89150000      -7.37054240      -0.00015835      -0.00015835       0.00009501
C        3.56600000       3.56600000       0.00000000      -7.37051347      -0.00000000       0.00000000       0.00000000
C        4.45750000       4.45750000       0.89150000      -7.37051347       0.00000000       0.00000000      -0.00000000
C        5.34900000       5.34900000       0.00000000      -7.37051347      -0.00000000      -0.00000000      -0.00000000
C        6.24050000       6.24050000       0.89150000      -7.37051347       0.00000000      -0.00000000       0.00000000
C        7.13200000       7.13200000       0.00000000      -7.37051347      -0.00000000       0.00000000      -0.00000000
C        8.02350000       8.02350000       0.89150000      -7.37054240       0.00015835       0.00015835       0.00009501
C        1.78300000       0.00000000       1.78300000      -7.37045543      -0.00029857       0.00029857      -0.00135607
C        2.67450000       0.89150000       2.67450000      -7.37052793      -0.00014011       0.00015833      -0.00012905
C        3.56600000       1.78300000       1.78300000      -7.37051347       0.00000000       0.00000000       0.00000000
C        4.45750000       2.67450000       2.67450000      -7.37051347      -0.00000000       0.00000000      -0.00000000
C        5.34900000       3.56600000       1.78300000      -7.37051347       0.00000000      -0.00000000      -0.00000000
C        6.24050000       4.45750000       2.67450000      -7.37051347       0.00000000       0.00000000      -0.00000000
C        7.13200000       5.34900000       1.78300000      -7.37051347       0.00000000      -0.00000000       0.00000000
C        8.02350000       6.24050000       2.67450000      -7.37051347       0.00000000       0.00000000      -0.00000000
C        8.91500000       7.13200000       1.78300000      -7.37051347       0.00000000       0.00000000      -0.00000000
C        9.80650000       8.02350000       2.67450000      -7.37052793      -0.00015833       0.00014011      -0.00012905
C        3.56600000       0.00000000       3.56600000      -7.37051347      -0.00000000       0.00000000       0.00000000
C        4.45750000       0.89150000       4.45750000      -7.37051347      -0.00000000      -0.00000000       0.00000000
C        5.34900000       1.78300000       3.56600000      -7.37051347      -0.00000000       0.00000000       0.00000000
C        6.24050000       2.67450000       4.45750000      -7.37051347       0.00000000       0.00000000       0.00000000
C        7.13200000       3.56600000       3.56600000      -7.37051347      -0.00000000       0.00000000       0.00000000
C        8.02350000       4.45750000       4.45750000      -7.37051347      -0.00000000       0.00000000      -0.00000000
C        8.91500000       5.34900000       3.56600000      -7.37051347      -0.00000000       0.00000000       0.00000000
C        9.80650000       6.24050000       4.45750000      -7.37051347      -0.00000000      -0.00000000       0.00000000
C       10.69800000       7.13200000       3.56600000      -7.37051347      -0.00000000       0.00000000       0.00000000
C       11.58950000       8.02350000       4.45750000      -7.37051347       0.00000000      -0.00000000       0.00000000
C        5.34900000       0.00000000       5.34900000      -7.37051347       0.00000000      -0.00000000      -0.00000000
C        6.24050000       0.89150000       6.24050000      -7.37051347       0.00000000       0.00000000       0.00000000
C        7.13200000       1.78300000       5.34900000      -7.37051347       0.00000000      -0.00000000      -0.00000000
C        8.02350000       2.67450000       6.24050000      -7.37051347      -0.00000000      -0.00000000       0.00000000
C        8.91500000       3.56600000       5.34900000      -7.37051347       0.00000000      -0.00000000      -0.00000000
C        9.80650000       4.45750000       6.24050000      -7.37051347       0.00000000       0.00000000       0.00000000
C       10.69800000       5.34900000       5.34900000      -7.37051347      -0.00000000      -0.00000000      -0.00000000
C       11.58950000       6.24050000       6.24050000      -7.37051347      -0.00000000       0.00000000       0.00000000
C       12.48100000       7.13200000       5.34900000      -7.37051347       0.00000000       0.00000000       0.00000000
C       13.37250000       8.02350000       6.24050000      -7.37048453      -0.00015832       0.00015832       0.00009493
C        7.13200000       0.00000000       7.13200000      -7.37051347      -0.00000000       0.00000000       0.00000000
C        8.02350000       0.89150000       8.02350000      -7.37049900      -0.00014014      -0.00015834      -0.00012905
C        8.91500000       1.78300000       7.13200000      -7.37051347       0.00000000      -0.00000000      -0.00000000
C        9.80650000       2.67450000       8.02350000      -7.37049900       0.00015834       0.00014014      -0.00012905
C       10.69800000       3.56600000       7.13200000      -7.37051347      -0.00000000       0.00000000       0.00000000
C       11.58950000       4.45750000       8.02350000      -7.37051347       0.00000000       0.00000000      -0.00000000
C       12.48100000       5.34900000       7.13200000      -7.37051347       0.00000000      -0.00000000      -0.00000000
C       13.37250000       6.24050000       8.02350000      -7.37052793       0.00014011      -0.00015833      -0.00012905
C       14.26400000       7.13200000       7.13200000      -7.37045543       0.00029857      -0.00029857      -0.00135607
C       15.15550000       8.02350000       8.02350000      -7.37052793       0.00015833      -0.00014011      -0.00012905
C        0.00000000       1.78300000       1.78300000      -7.37045543       0.00029857      -0.00029857      -0.00135607
C        0.89150000       2.67450000       2.67450000      -7.37052793       0.00015833      -0.00014011      -0.00012905
C        1.78300000       3.56600000       1.78300000      -7.37051347       0.00000000      -0.00000000      -0.00000000
C        2.67450000       4.45750000       2.67450000      -7.37051347      -0.00000000       0.00000000       0.00000000
C        3.56600000       5.34900000       1.78300000      -7.37051347      -0.00000000      -0.00000000       0.00000000
C        4.45750000       6.24050000       2.67450000      -7.37051347      -0.00000000       0.00000000      -0.00000000
C        5.34900000       7.13200000       1.78300000      -7.37051347       0.00000000       0.00000000       0.00000000
C        6.24050000       8.02350000       2.67450000      -7.37051347      -0.00000000      -0.00000000      -0.00000000
C        7.13200000       8.91500000       1.78300000      -7.37051347      -0.00000000       0.00000000      -0.00000000
C        8.02350000       9.80650000       2.67450000      -7.37052793       0.00014011      -0.00015833      -0.00012905
C        1.78300000       1.78300000       3.56600000      -7.37051347      -0.00000000      -0.00000000      -0.00000000
C        2.67450000       2.67450000       4.45750000      -7.37051347      -0.00000000       0.00000000       0.00000000
C        3.56600000       3.56600000       3.56600000      -7.37051347       0.00000000       0.00000000       0.00000000
C        4.45750000       4.45750000       4.45750000      -7.37051347       0.00000000       0.00000000       0.00000000
C        5.34900000       5.34900000       3.56600000      -7.37051347      -0.00000000      -0.00000000       0.00000000
C        6.24050000       6.24050000       4.45750000      -7.37051347       0.00000000      -0.00000000      -0.00000000
C        7.13200000       7.13200000       3.56600000      -7.37051347       0.00000000      -0.00000000       0.00000000
C        8.02350000       8.02350000       4.45750000      -7.37051347      -0.00000000      -0.00000000       0.00000000
C        8.91500000       8.91500000       3.56600000      -7.37051347       0.00000000       0.00000000      -0.00000000
C        9.80650000       9.80650000       4.45750000      -7.37051347       0.00000000       0.00000000       0.00000000
C        3.56600000       1.78300000       5.34900000      -7.37051347      -0.00000000      -0.00000000      -0.00000000
C        4.45750000       2.67450000       6.24050000      -7.37051347      -0.00000000      -0.00000000      -0.00000000
C        5.34900000       3.56600000       5.34900000      -7.37051347      -0.00000000       0.00000000      -0.00000000
C        6.24050000       4.45750000       6.24050000      -7.37051347       0.00000000       0.00000000       0.00000000
C        7.13200000       5.34900000       5.34900000      -7.37051347       0.00000000       0.00000000       0.00000000
C        8.02350000       6.24050000       6.24050000      -7.37051347      -0.00000000       0.00000000      -0.00000000
C        8.91500000       7.13200000       5.34900000      -7.37051347       0.00000000       0.00000000      -0.00000000
C        9.80650000       8.02350000       6.24050000      -7.37051347      -0.00000000      -0.00000000      -0.00000000
C       10.69800000       8.91500000       5.34900000      -7.37051347       0.00000000      -0.00000000      -0.00000000
C       11.58950000       9.80650000       6.24050000      -7.37051347       0.00000000      -0.00000000      -0.00000000
C        5.34900000       1.78300000       7.13200000      -7.37051347      -0.00000000       0.00000000       0.00000000
C        6.24050000       2.67450000       8.02350000      -7.37051347      -0.00000000       0.00000000       0.00000000
C        7.13200000       3.56600000       7.13200000      -7.37051347      -0.00000000       0.00000000       0.00000000
C        8.02350000       4.45750000       8.02350000      -7.37051347      -0.00000000       0.00000000      -0.00000000
C        8.91500000       5.34900000       7.13200000      -7.37051347       0.00000000      -0.00000000       0.00000000
C        9.80650000       6.24050000       8.02350000      -7.37051347       0.00000000      -0.00000000      -0.00000000
C       10.69800000       7.13200000       7.13200000      -7.37051347      -0.00000000       0.00000000       0.00000000
C       11.58950000       8.02350000       8.02350000      -7.37051347      -0.00000000      -0.00000000       0.00000000
C       12.48100000       8.91500000       7.13200000      -7.37051347       0.00000000       0.00000000       0.00000000
C       13.37250000       9.80650000       8.02350000      -7.37051347      -0.00000000       0.00000000      -0.00000000
C        7.13200000       1.78300000       8.91500000      -7.37051347      -0.00000000      -0.00000000       0.00000000
C        8.02350000       2.67450000       9.80650000      -7.37048453      -0.00015832       0.00015832       0.00009493
C        8.91500000       3.56600000       8.91500000      -7.37051347       0.00000000      -0.00000000       0.00000000
C        9.80650000       4.45750000       9.80650000      -7.37051347       0.00000000       0.00000000      -0.00000000
C       10.69800000       5.34900000       8.91500000      -7.37051347      -0.00000000       0.00000000       0.00000000
C       11.58950000       6.24050000       9.80650000      -7.37051347       0.00000000       0.00000000       0.00000000
C       12.48100000       7.13200000       8.91500000      -7.37051347       0.00000000       0.00000000       0.00000000
C       13.37250000       8.02350000       9.80650000      -7.37051347      -0.00000000      -0.00000000       0.00000000
C       14.26400000       8.91500000       8.91500000      -7.37051347       0.00000000       0.00000000       0.00000000
C       15.15550000       9.80650000       9.80650000      -7.37051347       0.00000000      -0.00000000      -0.00000000
C        0.00000000       3.56600000       3.56600000      -7.37051347      -0.00000000      -0.00000000      -0.00000000
C        0.89150000       4.45750000       4.45750000      -7.37051347       0.00000000       0.00000000       0.00000000
C        1.78300000       5.34900000       3.56600000      -7.37051347       0.00000000      -0.00000000      -0.00000000
C        2.67450000       6.24050000       4.45750000      -7.37051347       0.00000000       0.00000000       0.00000000
C        3.56600000       7.13200000       3.56600000      -7.37051347      -0.00000000       0.00000000      -0.00000000
C        4.45750000       8.02350000       4.45750000      -7.37051347      -0.00000000       0.00000000       0.00000000
C        5.34900000       8.91500000       3.56600000      -7.37051347      -0.00000000      -0.00000000      -0.00000000
C        6.24050000       9.80650000       4.45750000      -7.37051347       0.00000000       0.00000000       0.00000000
C        7.13200000      10.69800000       3.56600000      -7.37051347       0.00000000      -0.00000000       0.00000000
C        8.02350000      11.58950000       4.45750000      -7.37051347      -0.00000000       0.00000000       0.00000000
C        1.78300000       3.56600000       5.34900000      -7.37051347       0.00000000       0.00000000      -0.00000000
C        2.67450000       4.45750000       6.24050000      -7.37051347      -0.00000000       0.00000000      -0.00000000
C        3.56600000       5.34900000       5.34900000      -7.37051347       0.00000000      -0.00000000       0.00000000
C        4.45750000       6.24050000       6.24050000      -7.37051347      -0.00000000      -0.00000000      -0.00000000
C        5.34900000       7.13200000       5.34900000      -7.37051347       0.00000000       0.00000000       0.00000000
C        6.24050000       8.02350000       6.24050000      -7.37051347      -0.00000000      -0.00000000      -0.00000000
C        7.13200000       8.91500000       5.34900000      -7.37051347       0.00000000       0.00000000      -0.00000000
C        8.02350000       9.80650000       6.24050000      -7.37051347      -0.00000000       0.00000000      -0.00000000
C        8.91500000      10.69800000       5.34900000      -7.37051347       0.00000000      -0.00000000      -0.00000000
C        9.80650000      11.58950000       6.24050000      -7.37051347       0.00000000      -0.00000000      -0.00000000
C        3.56600000       3.56600000       7.13200000      -7.37051347       0.00000000       0.00000000       0.00000000
C        4.45750000       4.45750000       8.02350000      -7.37051347      -0.00000000       0.00000000      -0.00000000
C        5.34900000       5.34900000       7.13200000      -7.37051347      -0.00000000      -0.00000000      -0.00000000
C        6.24050000       6.24050000       8.02350000      -7.37051347       0.00000000      -0.00000000      -0.00000000
C        7.13200000       7.13200000       7.13200000      -7.37051347      -0.00000000       0.00000000       0.00000000
C        8.02350000       8.02350000       8.02350000      -7.37051347      -0.00000000      -0.00000000       0.00000000
C        8.91500000       8.91500000       7.13200000      -7.37051347       0.00000000       0.00000000       0.00000000
C        9.80650000       9.80650000       8.02350000      -7.37051347       0.00000000       0.00000000       0.00000000
C       10.69800000      10.69800000       7.13200000      -7.37051347      -0.00000000       0.00000000       0.00000000
C       11.58950000      11.58950000       8.02350000      -7.37051347       0.00000000      -0.00000000      -0.00000000
C        5.34900000       3.56600000       8.91500000      -7.37051347       0.00000000      -0.00000000       0.00000000
C        6.24050000       4.45750000       9.80650000      -7.37051347      -0.00000000       0.00000000       0.00000000
C        7.13200000       5.34900000       8.91500000      -7.37051347      -0.00000000      -0.00000000       0.00000000
C        8.02350000       6.24050000       9.80650000      -7.37051347      -0.00000000       0.00000000       0.00000000
C        8.91500000       7.13200000       8.91500000      -7.37051347       0.00000000       0.00000000      -0.00000000
C        9.80650000       8.02350000       9.80650000      -7.37051347       0.00000000      -0.00000000       0.00000000
C       10.69800000       8.91500000       8.91500000      -7.37051347       0.00000000       0.00000000      -0.00000000
C       11.58950000       9.80650000       9.80650000      -7.37051347      -0.00000000      -0.00000000      -0.00000000
C       12.48100000      10.69800000       8.91500000      -7.37051347       0.00000000      -0.00000000      -0.00000000
C       13.37250000      11.58950000       9.80650000      -7.37051347      -0.00000000       0.00000000       0.00000000
C        7.13200000       3.56600000      10.69800000      -7.37051347       0.00000000      -0.00000000      -0.00000000
C        8.02350000       4.45750000      11.58950000      -7.37051347       0.00000000      -0.00000000      -0.00000000
C        8.91500000       5.34900000      10.69800000      -7.37051347       0.00000000      -0.00000000       0.00000000
C        9.80650000       6.24050000      11.58950000      -7.37051347      -0.00000000      -0.00000000      -0.00000000
C       10.69800000       7.13200000      10.69800000      -7.37051347      -0.00000000       0.00000000      -0.00000000
C       11.58950000       8.02350000      11.58950000      -7.37051347      -0.00000000      -0.00000000      -0.00000000
C       12.48100000       8.91500000      10.69800000      -7.37051347      -0.00000000       0.00000000      -0.00000000
C       13.37250000       9.80650000      11.58950000      -7.37051347       0.00000000       0.00000000      -0.00000000
C       14.26400000      10.69800000      10.69800000      -7.37051347       0.00000000       0.00000000       0.00000000
C       15.15550000      11.58950000      11.58950000      -7.37051347      -0.00000000      -0.00000000      -0.00000000
C        0.00000000       5.34900000       5.34900000      -7.37051347      -0.00000000       0.00000000      -0.00000000
C        0.89150000       6.24050000       6.24050000      -7.37051347       0.00000000       0.00000000      -0.00000000
C        1.78300000       7.13200000       5.34900000      -7.37051347      -0.00000000       0.00000000       0.00000000
C        2.67450000       8.02350000       6.24050000      -7.37051347       0.00000000      -0.00000000      -0.00000000
C        3.56600000       8.91500000       5.34900000      -7.37051347       0.00000000      -0.00000000      -0.00000000
C        4.45750000       9.80650000       6.24050000      -7.37051347       0.00000000       0.00000000      -0.00000000
C        5.34900000      10.69800000       5.34900000      -7.37051347      -0.00000000      -0.00000000      -0.00000000
C        6.24050000      11.58950000       6.24050000      -7.37051347       0.00000000      -0.00000000       0.00000000
C        7.13200000      12.48100000       5.34900000      -7.37051347      -0.00000000       0.00000000      -0.00000000
C        8.02350000      13.37250000       6.24050000      -7.37048453       0.00015832      -0.00015832       0.00009493
C        1.78300000       5.34900000       7.13200000      -7.37051347      -0.00000000      -0.00000000      -0.00000000
C        2.67450000       6.24050000       8.02350000      -7.37051347       0.00000000      -0.00000000      -0.00000000
C        3.56600000       7.13200000       7.13200000      -7.37051347       0.00000000       0.00000000       0.00000000
C        4.45750000       8.02350000       8.02350000      -7.37051347      -0.00000000      -0.00000000      -0.00000000
C        5.34900000       8.91500000       7.13200000      -7.37051347       0.00000000       0.00000000       0.00000000
C        6.24050000       9.80650000       8.02350000      -7.37051347       0.00000000       0.00000000      -0.00000000
C        7.13200000      10.69800000       7.13200000      -7.37051347      -0.00000000      -0.00000000       0.00000000
C        8.02350000      11.58950000       8.02350000      -7.37051347      -0.00000000      -0.00000000      -0.00000000
C        8.91500000      12.48100000       7.13200000      -7.37051347       0.00000000      -0.00000000       0.00000000
C        9.80650000      13.37250000       8.02350000      -7.37051347       0.00000000      -0.00000000       0.00000000
C        3.56600000       5.34900000       8.91500000      -7.37051347      -0.00000000      -0.00000000      -0.00000000
C        4.45750000       6.24050000       9.80650000      -7.37051347      -0.00000000       0.00000000       0.00000000
C        5.34900000       7.13200000       8.91500000      -7.37051347      -0.00000000       0.00000000       0.00000000
C        6.24050000       8.02350000       9.80650000      -7.37051347       0.00000000      -0.00000000       0.00000000
C        7.13200000       8.91500000       8.91500000      -7.37051347       0.00000000      -0.00000000       0.00000000
C        8.02350000       9.80650000       9.80650000      -7.37051347       0.00000000      -0.00000000      -0.00000000
C        8.91500000      10.69800000       8.91500000      -7.37051347       0.00000000      -0.00000000      -0.00000000
C        9.80650000      11.58950000       9.80650000      -7.37051347       0.00000000      -0.00000000       0.00000000
C       10.69800000      12.48100000       8.91500000      -7.37051347      -0.00000000       0.00000000      -0.00000000
C       11.58950000      13.37250000       9.80650000      -7.37051347       0.00000000       0.00000000       0.00000000
C        5.34900000       5.34900000      10.69800000      -7.37051347       0.00000000      -0.00000000      -0.00000000
C        6.24050000       6.24050000      11.58950000      -7.37051347      -0.00000000       0.00000000      -0.00000000
C        7.13200000       7.13200000      10.69800000      -7.37051347       0.00000000       0.00000000      -0.00000000
C        8.02350000       8.02350000      11.58950000      -7.37051347      -0.00000000      -0.00000000      -0.00000000
C        8.91500000       8.91500000      10.69800000      -7.37051347      -0.00000000      -0.00000000      -0.00000000
C        9.80650000       9.80650000      11.58950000      -7.37051347       0.00000000       0.00000000       0.00000000
C       10.69800000      10.69800000      10.69800000      -7.37051347      -0.00000000       0.00000000       0.00000000
C       11.58950000      11.58950000      11.58950000      -7.37051347      -0.00000000      -0.00000000      -0.00000000
C       12.48100000      12.48100000      10.69800000      -7.37051347       0.00000000      -0.00000000      -0.00000000
C       13.37250000      13.37250000      11.58950000      -7.37051347      -0.00000000       0.00000000       0.00000000
C        7.13200000       5.34900000      12.48100000      -7.37051347      -0.00000000      -0.00000000       0.00000000
C        8.02350000       6.24050000      13.37250000      -7.37049900       0.00014014       0.00015834      -0.00012905
C        8.91500000       7.13200000      12.48100000      -7.37051347       0.00000000      -0.00000000      -0.00000000
C        9.80650000       8.02350000      13.37250000      -7.37051347      -0.00000000       0.00000000       0.00000000
C       10.69800000       8.91500000      12.48100000      -7.37051347      -0.00000000       0.00000000      -0.00000000
C       11.58950000       9.80650000      13.37250000      -7.37051347      -0.00000000       0.00000000       0.00000000
C       12.48100000      10.69800000      12.48100000      -7.37051347       0.00000000       0.00000000       0.00000000
C       13.37250000      11.58950000      13.37250000      -7.37051347      -0.00000000      -0.00000000       0.00000000
C       14.26400000      12.48100000      12.48100000      -7.37051347       0.00000000      -0.00000000       0.00000000
C       15.15550000      13.37250000      13.37250000      -7.37049900      -0.00015834      -0.00014014      -0.00012905
C        0.00000000       7.13200000       7.13200000      -7.37051347      -0.00000000       0.00000000       0.00000000
C        0.89150000       8.02350000       8.02350000      -7.37049900      -0.00015834      -0.00014014      -0.00012905
C        1.78300000       8.91500000       7.13200000      -7.37051347      -0.00000000       0.00000000       0.00000000
C        2.67450000       9.80650000       8.02350000      -7.37049900       0.00014014       0.00015834      -0.00012905
C        3.56600000      10.69800000       7.13200000      -7.37051347       0.00000000       0.00000000       0.00000000
C        4.45750000      11.58950000       8.02350000      -7.37051347      -0.00000000      -0.00000000      -0.00000000
C        5.34900000      12.48100000       7.13200000      -7.37051347      -0.00000000       0.00000000       0.00000000
C        6.24050000      13.37250000       8.02350000      -7.37052793      -0.00015833       0.00014011      -0.00012905
C        7.13200000      14.26400000       7.13200000      -7.37045543      -0.00029857       0.00029857      -0.00135607
C        8.02350000      15.15550000       8.02350000      -7.37052793      -0.00014011       0.00015833      -0.00012905
C        1.78300000       7.13200000       8.91500000      -7.37051347       0.00000000       0.00000000      -0.00000000
C        2.67450000       8.02350000       9.80650000      -7.37048453       0.00015832      -0.00015832       0.00009493
C        3.56600000       8.91500000       8.91500000      -7.37051347       0.00000000       0.00000000       0.00000000
C        4.45750000       9.80650000       9.80650000      -7.37051347       0.00000000       0.00000000      -0.00000000
C        5.34900000      10.69800000       8.91500000      -7.37051347      -0.00000000      -0.00000000      -0.00000000
C        6.24050000      11.58950000       9.80650000      -7.37051347       0.00000000       0.00000000       0.00000000
C        7.13200000      12.48100000       8.91500000      -7.37051347       0.00000000       0.00000000      -0.00000000
C        8.02350000      13.37250000       9.80650000      -7.37051347      -0.00000000       0.00000000       0.00000000
C        8.91500000      14.26400000       8.91500000      -7.37051347       0.00000000       0.00000000       0.00000000
C        9.80650000      15.15550000       9.80650000      -7.37051347      -0.00000000      -0.00000000       0.00000000
C        3.56600000       7.13200000      10.69800000      -7.37051347       0.00000000      -0.00000000      -0.00000000
C        4.45750000       8.02350000      11.58950000      -7.37051347      -0.00000000       0.00000000      -0.00000000
C        5.34900000       8.91500000      10.69800000      -7.37051347      -0.00000000      -0.00000000      -0.00000000
C        6.24050000       9.80650000      11.58950000      -7.37051347       0.00000000       0.00000000      -0.00000000
C        7.13200000      10.69800000      10.69800000      -7.37051347       0.00000000       0.00000000       0.00000000
C        8.02350000      11.58950000      11.58950000      -7.37051347       0.00000000      -0.00000000      -0.00000000
C        8.91500000      12.48100000      10.69800000      -7.37051347       0.00000000      -0.00000000      -0.00000000
C        9.80650000      13.37250000      11.58950000      -7.37051347       0.00000000      -0.00000000      -0.00000000
C       10.69800000      14.26400000      10.69800000      -7.37051347      -0.00000000       0.00000000      -0.00000000
C       11.58950000      15.15550000      11.58950000      -7.37051347       0.00000000      -0.00000000      -0.00000000
C        5.34900000       7.13200000      12.48100000      -7.37051347      -0.00000000      -0.00000000      -0.00000000
C        6.24050000       8.02350000      13.37250000      -7.37049900       0.00015834       0.00014014      -0.00012905
C        7.13200000       8.91500000      12.48100000      -7.37051347      -0.00000000       0.00000000      -0.00000000
C        8.02350000       9.80650000      13.37250000      -7.37051347       0.00000000       0.00000000       0.00000000
C        8.91500000      10.69800000      12.48100000      -7.37051347       0.00000000       0.00000000       0.00000000
C        9.80650000      11.58950000      13.37250000      -7.37051347      -0.00000000      -0.00000000      -0.00000000
C       10.69800000      12.48100000      12.48100000      -7.37051347       0.00000000       0.00000000       0.00000000
C       11.58950000      13.37250000      13.37250000      -7.37051347      -0.00000000      -0.00000000      -0.00000000
C       12.48100000      14.26400000      12.48100000      -7.37051347       0.00000000       0.00000000       0.00000000
C       13.37250000      15.15550000      13.37250000      -7.37049900      -0.00014014      -0.00015834      -0.00012905
C        7.13200000       7.13200000      14.26400000      -7.37057143       0.00029873       0.00029873      -0.00135684
C        8.02350000       8.02350000      15.15550000      -7.37054240      -0.00015835      -0.00015835       0.00009501
C        8.91500000       8.91500000      14.26400000      -7.37051347       0.00000000       0.00000000      -0.00000000
C        9.80650000       9.80650000      15.15550000      -7.37051347      -0.00000000       0.00000000       0.00000000
C       10.69800000      10.69800000      14.26400000      -7.37051347       0.00000000      -0.00000000      -0.00000000
C       11.58950000      11.58950000      15.15550000      -7.37051347       0.00000000      -0.00000000      -0.00000000
C       12.48100000      12.48100000      14.26400000      -7.37051347       0.00000000       0.00000000       0.00000000
C       13.37250000      13.37250000      15.15550000      -7.37054240       0.00015835       0.00015835       0.00009501
C       14.26400000      14.26400000      14.26400000      -7.37057143      -0.00029873      -0.00029873      -0.00135684
C       15.15550000      15.15550000      15.15550000      -7.37051333       0.00000000      -0.00000000       0.00607834
